Cu	N	Ru	Ta                              
   1.00000000000000     
    18.1096308199999996    0.0000000000000000    0.0000000000000000
     0.0000000000000000   23.3551997799999995    0.0000000000000000
     0.0000000000000000    0.0000000000000000   30.4818171199999988
   Cu   N    Ru   Ta
     4   240    12   228
Selective dynamics
Direct
  0.5682724382549356  0.4385121954323614  0.6063847703047244   T   T   T
  0.7418569012223480  0.4349543049118290  0.6122557726019490   T   T   T
  0.2582320261097280  0.4350100353126592  0.6122483789326629   T   T   T
  0.4316634474614408  0.4385116526385792  0.6063779395956092   T   T   T
  0.0000000000000000  0.0002658024790421  0.3027806050297599   F   F   F
  0.0000000000000000  0.5002658024790421  0.3027806050297599   F   F   F
  0.0000000000000000  0.6252068313499990  0.3027729437410898   F   F   F
  0.0000000000000000  0.7502658026931286  0.3027806050297599   F   F   F
  0.0000000000000000  0.8752068315640855  0.3027729437410898   F   F   F
  0.0000000000000000  0.1252068313499990  0.3027729437410898   F   F   F
  0.0000000000000000  0.2502658026931286  0.3027806050297599   F   F   F
  0.0000000000000000  0.3752068315640855  0.3027729437410898   F   F   F
 -0.0000012655951190  0.8750715412363927  0.4736546326324464   T   T   T
  0.0000017476562736  0.3763114272895209  0.4725480388206473   T   T   T
  0.0000020509186985  0.7521564448789637  0.4735511488907886   T   T   T
  0.0000051939920461  0.6253811756701573  0.4735801191091940   T   T   T
  0.0000061800896321  0.5028533876789449  0.4725517339946165   T   T   T
 -0.0000004087589086  0.2506223829740079  0.4736229903812366   T   T   T
  0.5927591493899572  0.9999833243673141  0.5685260134641449   T   T   T
  0.5929150894007322  0.7505100992703206  0.5687158048704398   T   T   T
  0.5930093629793507  0.2501964334547347  0.5682890355736312   T   T   T
  0.5940493004484111  0.9998103570065027  0.2323399901691943   F   F   F
  0.5940493004484111  0.4998103570065027  0.2323399901691943   F   F   F
  0.5940493004484111  0.7498103572205892  0.2323399901691943   F   F   F
  0.5940493004484111  0.2498103572205892  0.2323399901691943   F   F   F
  0.5941034351798038  0.6248444726427422  0.2323487498175751   F   F   F
  0.5941034351798038  0.8748444728568288  0.2323487498175751   F   F   F
  0.5941034351798038  0.1248444726427422  0.2323487498175751   F   F   F
  0.5941034351798038  0.3748444728568288  0.2323487498175751   F   F   F
  0.5966170198173524  0.3706420353221827  0.5734029087974527   T   T   T
  0.5978699350328687  0.8719731157539350  0.5715317146866038   T   T   T
  0.5978015172153864  0.6225132307475615  0.5715720599118269   T   T   T
  0.5978928562532236  0.1219008579522040  0.5715620577619887   T   T   T
  0.5985871911297401  0.5023964222210495  0.5723385022628930   T   T   T
  0.5986666699111146  0.6242305210866085  0.4026365562513014   T   T   T
  0.5987634611226471  0.8743174068108205  0.4025023940042675   T   T   T
  0.5989280729790563  0.1242268554844987  0.4025133443896358   T   T   T
  0.5989773082307338  0.3742231200841711  0.4026384575784621   T   T   T
  0.5990773569534720  0.7492270151532585  0.4022955416942752   T   T   T
  0.5991441672254550  0.9991036510741644  0.4022593773222483   T   T   T
  0.5991342192262897  0.4993852571374084  0.4025165060577029   T   T   T
  0.5992583593284657  0.2491212988861208  0.4023686761906276   T   T   T
  0.6507353065076030  0.6235380590939531  0.4882585957350903   T   T   T
  0.6508857810389465  0.1230208330815242  0.4881697751798713   T   T   T
  0.6510184869013853  0.8732673859841917  0.4881782120813723   T   T   T
  0.6511238141945659  0.3723082823079479  0.4888412002111517   T   T   T
  0.6515711483534592  0.9991222350094633  0.4882577940653167   T   T   T
  0.6515745211402049  0.7495872406322751  0.4883221911740825   T   T   T
  0.6520955892111958  0.5004410593271529  0.4888924836993845   T   T   T
  0.6522466715793318  0.2492714236297172  0.4885740092018149   T   T   T
  0.6547396409045092  0.9997083480310920  0.3159103144045119   F   F   F
  0.6547396409045092  0.4997083480310920  0.3159103144045119   F   F   F
  0.6547396409045092  0.7497083482451785  0.3159103144045119   F   F   F
  0.6547396409045092  0.2497083482451785  0.3159103144045119   F   F   F
  0.6547625022209047  0.6246790182669955  0.3159667218028375   F   F   F
  0.6547625022209047  0.8746790184810820  0.3159667218028375   F   F   F
  0.6547625022209047  0.1246790182669955  0.3159667218028375   F   F   F
  0.6547625022209047  0.3746790184810820  0.3159667218028375   F   F   F
  0.7414019933701095  0.9922424958293982  0.5621274373301912   T   T   T
  0.7412650989838705  0.2430181056229531  0.5618621694854177   T   T   T
  0.7412486197937052  0.7424859595798143  0.5620249475165899   T   T   T
  0.7457195660147138  0.4945142515775992  0.5638768655365568   T   T   T
  0.7457518904492665  0.3789765109256904  0.5621405821127017   T   T   T
  0.7497181855858486  0.0000100119032282  0.1992701427899632   F   F   F
  0.7497181855858486  0.5000100119032282  0.1992701427899632   F   F   F
  0.7497181855858486  0.7500100121173077  0.1992701427899632   F   F   F
  0.7497181855858486  0.2500100121173077  0.1992701427899632   F   F   F
  0.7497340914871273  0.6250292589019324  0.1993221157413743   F   F   F
  0.7497340914871273  0.8750292591160189  0.1993221157413743   F   F   F
  0.7497340914871273  0.1250292589019324  0.1993221157413743   F   F   F
  0.7497340914871273  0.3750292591160189  0.1993221157413743   F   F   F
  0.7499934353675854  0.6250028496892762  0.3878338843693822   T   T   T
  0.7500527166641212  0.4999496480539506  0.3872855535042151   T   T   T
  0.7501017809258482  0.9998882898634963  0.3871281013726039   T   T   T
  0.7501036492711235  0.7499011947949895  0.3872124039057619   T   T   T
  0.7501369806318230  0.8748397102405139  0.3877694377289508   T   T   T
  0.7501719608073740  0.1248406055154033  0.3878028680470902   T   T   T
  0.7501741012887093  0.3749668956965488  0.3877562639745459   T   T   T
  0.7503342558351875  0.2497959586219387  0.3877197748213889   T   T   T
  0.7518829389249202  0.6232660458933881  0.5567749238162769   T   T   T
  0.7520357181667661  0.1216813099131621  0.5566573008405462   T   T   T
  0.7525337606348573  0.8722841655352672  0.5565091014651875   T   T   T
  0.8451499272473839  0.6251896283286698  0.3155471503596488   F   F   F
  0.8451499272473839  0.8751896285427563  0.3155471503596488   F   F   F
  0.8451499272473839  0.1251896283286698  0.3155471503596488   F   F   F
  0.8451499272473839  0.3751896285427563  0.3155471503596488   F   F   F
  0.8451807898312538  0.0001939208417241  0.3155011134060643   F   F   F
  0.8451807898312538  0.5001939208417241  0.3155011134060643   F   F   F
  0.8451807898312538  0.7501939210558106  0.3155011134060643   F   F   F
  0.8451807898312538  0.2501939210558106  0.3155011134060643   F   F   F
  0.8465434001798393  0.9984965914324047  0.4858734070261765   T   T   T
  0.8467038243589068  0.7484094995385306  0.4859648544284225   T   T   T
  0.8469471694198361  0.4993328518814231  0.4854149716622218   T   T   T
  0.8485723319542877  0.1281064005698330  0.4862202092420013   T   T   T
  0.8486498524998618  0.3794383750771432  0.4861093750559199   T   T   T
  0.8486372726809072  0.6289156647636426  0.4862144869362972   T   T   T
  0.8488767377476873  0.8789588504472408  0.4863105315996191   T   T   T
  0.8488130963122614  0.2479257774917331  0.4872466700025035   T   T   T
  0.9003794479692420  0.0076021247548265  0.5673895294458676   T   T   T
  0.9007450617821262  0.7584195710262860  0.5677071812727665   T   T   T
  0.9007985874890860  0.5009677589001356  0.4014104775558661   T   T   T
  0.9008925356117977  0.3755653676222486  0.4015849445699304   T   T   T
  0.9009256296548752  0.2505116479681267  0.4019158173684380   T   T   T
  0.9009948532497436  0.6258751001193992  0.4017009210164275   T   T   T
  0.9009997213853124  0.0005706124553115  0.4017333088596545   T   T   T
  0.9010282339176159  0.7507592620640313  0.4018345632538355   T   T   T
  0.9010866226485469  0.1254040222202580  0.4017917634824978   T   T   T
  0.9011555467672192  0.5073173995044312  0.5671930953709247   T   T   T
  0.9011542188565994  0.8755983082307532  0.4018682835617324   T   T   T
  0.9020742696139299  0.6334492041578449  0.5705766678101680   T   T   T
  0.9022858389489912  0.1309042868017451  0.5704234033616408   T   T   T
  0.9027005671921868  0.8841237557087024  0.5710687759334139   T   T   T
  0.9036551236572697  0.2500893446225218  0.5723287396752968   T   T   T
  0.9048868932557644  0.3825348926763445  0.5719120462451749   T   T   T
  0.9057164253114252  0.6251516265128672  0.2320045249323357   F   F   F
  0.9057164253114252  0.8751516267269537  0.2320045249323357   F   F   F
  0.9057164253114252  0.1251516265128672  0.2320045249323357   F   F   F
  0.9057164253114252  0.3751516267269537  0.2320045249323357   F   F   F
  0.9057548087553968  0.0001403618907503  0.2320193078436787   F   F   F
  0.9057548087553968  0.5001403618907503  0.2320193078436787   F   F   F
  0.9057548087553968  0.7501403621048368  0.2320193078436787   F   F   F
  0.9057548087553968  0.2501403621048368  0.2320193078436787   F   F   F
  0.0942451912446032  0.0001403618907503  0.2320193078436787   F   F   F
  0.0942451912446032  0.5001403618907503  0.2320193078436787   F   F   F
  0.0942451912446032  0.7501403621048368  0.2320193078436787   F   F   F
  0.0942451912446032  0.2501403621048368  0.2320193078436787   F   F   F
  0.0942835746885748  0.6251516265128672  0.2320045249323357   F   F   F
  0.0942835746885748  0.8751516267269537  0.2320045249323357   F   F   F
  0.0942835746885748  0.1251516265128672  0.2320045249323357   F   F   F
  0.0942835746885748  0.3751516267269537  0.2320045249323357   F   F   F
  0.0950977864375101  0.3825221695117141  0.5719338161996219   T   T   T
  0.0963220495412149  0.2500926506148323  0.5723418332971560   T   T   T
  0.0973057652826839  0.8841237805766571  0.5710714918334399   T   T   T
  0.0977116327040399  0.1309125359070237  0.5704289067839520   T   T   T
  0.0979867261838605  0.6333829432157732  0.5705481609525094   T   T   T
  0.0988474264820410  0.8755996779039124  0.4018684786567788   T   T   T
  0.0989103231379309  0.5072723965760469  0.5671888371902279   T   T   T
  0.0989177512372100  0.1254033156576634  0.4017942430790444   T   T   T
  0.0989708845667118  0.7507581172304999  0.4018364826020385   T   T   T
  0.0990022069079556  0.0005724269463385  0.4017342343457058   T   T   T
  0.0990026613646339  0.6258795174320736  0.4016993681340633   T   T   T
  0.0990779353589019  0.2505077790569642  0.4019181240932226   T   T   T
  0.0991113734529529  0.3755666328270481  0.4015850586447953   T   T   T
  0.0991975617969263  0.5009674175733214  0.4014088488123312   T   T   T
  0.0992650949640639  0.7584076429355806  0.5677095332736278   T   T   T
  0.0996099609223158  0.0076152034026945  0.5673904723472076   T   T   T
  0.0000013798969705  0.1244476748923704  0.4734354521722811   T   T   T
 -0.0000019271146514  0.0016919162026077  0.4733737728701095   T   T   T
  0.1511877260110528  0.2479287216470520  0.4872549879673774   T   T   T
  0.1511252113317605  0.8789602126326693  0.4863113471052944   T   T   T
  0.1513442842461472  0.3794257417483752  0.4861192388864687   T   T   T
  0.1513817806247935  0.6289207186579167  0.4861955717512964   T   T   T
  0.1514299286962746  0.1281098043949908  0.4862236247974016   T   T   T
  0.1530458826512371  0.4993441222053304  0.4854184277238011   T   T   T
  0.1532982218936346  0.7484095870718699  0.4859678293938424   T   T   T
  0.1534599928590872  0.9985026216872742  0.4858725314412487   T   T   T
  0.1548192101687462  0.0001939208417241  0.3155011134060643   F   F   F
  0.1548192101687462  0.5001939208417241  0.3155011134060643   F   F   F
  0.1548192101687462  0.7501939210558106  0.3155011134060643   F   F   F
  0.1548192101687462  0.2501939210558106  0.3155011134060643   F   F   F
  0.1548500727526161  0.6251896283286698  0.3155471503596488   F   F   F
  0.1548500727526161  0.8751896285427563  0.3155471503596488   F   F   F
  0.1548500727526161  0.1251896283286698  0.3155471503596488   F   F   F
  0.1548500727526161  0.3751896285427563  0.3155471503596488   F   F   F
  0.2474675445348992  0.8722853433356454  0.5565066905120302   T   T   T
  0.2479616391304332  0.1216900216597631  0.5566740311730251   T   T   T
  0.2481152137192545  0.6232634957940142  0.5567770723556826   T   T   T
  0.2496679427484884  0.2497925718869448  0.3877226157383292   T   T   T
  0.2498241529310253  0.3749652323026577  0.3877569214521049   T   T   T
  0.2498304480945589  0.1248405351063715  0.3878038421404964   T   T   T
  0.2498659596355308  0.8748398190183365  0.3877678522455455   T   T   T
  0.2498973612655181  0.7499028454340800  0.3872122617115795   T   T   T
  0.2499021586952530  0.9998888836285232  0.3871252427939157   T   T   T
  0.2499440127529705  0.4999509955791965  0.3872867352240196   T   T   T
  0.2500094801127062  0.6250046904989853  0.3878283242307963   T   T   T
  0.2502659079606815  0.6250292589019324  0.1993221157413743   F   F   F
  0.2502659079606815  0.8750292591160189  0.1993221157413743   F   F   F
  0.2502659079606815  0.1250292589019324  0.1993221157413743   F   F   F
  0.2502659079606815  0.3750292591160189  0.1993221157413743   F   F   F
  0.2502818138619602  0.0000100119032282  0.1992701427899632   F   F   F
  0.2502818138619602  0.5000100119032282  0.1992701427899632   F   F   F
  0.2502818138619602  0.7500100121173077  0.1992701427899632   F   F   F
  0.2502818138619602  0.2500100121173077  0.1992701427899632   F   F   F
  0.2542540929276459  0.3789988188356184  0.5621511313548619   T   T   T
  0.2542381973172942  0.4945592541934564  0.5638424063069101   T   T   T
  0.2587313962249913  0.2430220641501184  0.5618803058291761   T   T   T
  0.2587568660311220  0.7424761357550776  0.5620233430361341   T   T   T
  0.2585833826196171  0.9922532030823241  0.5621305475235984   T   T   T
  0.3452374977790953  0.6246790182669955  0.3159667218028375   F   F   F
  0.3452374977790953  0.8746790184810820  0.3159667218028375   F   F   F
  0.3452374977790953  0.1246790182669955  0.3159667218028375   F   F   F
  0.3452374977790953  0.3746790184810820  0.3159667218028375   F   F   F
  0.3452603590954908  0.9997083480310920  0.3159103144045119   F   F   F
  0.3452603590954908  0.4997083480310920  0.3159103144045119   F   F   F
  0.3452603590954908  0.7497083482451785  0.3159103144045119   F   F   F
  0.3452603590954908  0.2497083482451785  0.3159103144045119   F   F   F
  0.3477506422754866  0.2492695379442277  0.4885807158764351   T   T   T
  0.3479090679458801  0.5004413713269158  0.4888817885280447   T   T   T
  0.3484275104985299  0.7495879641949190  0.4883170746707194   T   T   T
  0.3484219992609174  0.9991226588138677  0.4882612051862505   T   T   T
  0.3488715650518767  0.3723065605807520  0.4888375050919513   T   T   T
  0.3489804075482097  0.8732674385704252  0.4881800957854099   T   T   T
  0.3491099610299425  0.1230180659410049  0.4881750040080635   T   T   T
  0.3492696535759991  0.6235397499205356  0.4882557945900979   T   T   T
  0.4007379182899407  0.2491207626998182  0.4023729986340531   T   T   T
  0.4008699824570781  0.4993860688388420  0.4025136025812525   T   T   T
  0.4008578316555899  0.9991032264183540  0.4022609782172526   T   T   T
  0.4009248363476305  0.7492269236607623  0.4022946921793612   T   T   T
  0.4010220818969833  0.3742221658541003  0.4026374324989098   T   T   T
  0.4010739111099189  0.1242285666674224  0.4025162984640037   T   T   T
  0.4012370467676084  0.8743167472228593  0.4025025145539812   T   T   T
  0.4013309152646005  0.6242320603343449  0.4026361942512247   T   T   T
  0.4013959391768507  0.5023856812811558  0.5723372037604239   T   T   T
  0.4021026091433778  0.1219024362305708  0.5715691490017177   T   T   T
  0.4021219055431136  0.8719703295267569  0.5715311004871160   T   T   T
  0.4021919470616495  0.6225267979659180  0.5715683958645805   T   T   T
  0.4033802267843949  0.3706393054362411  0.5733948221328895   T   T   T
  0.4058965648201962  0.6248444726427422  0.2323487498175751   F   F   F
  0.4058965648201962  0.8748444728568288  0.2323487498175751   F   F   F
  0.4058965648201962  0.1248444726427422  0.2323487498175751   F   F   F
  0.4058965648201962  0.3748444728568288  0.2323487498175751   F   F   F
  0.4059506995515889  0.9998103570065027  0.2323399901691943   F   F   F
  0.4059506995515889  0.4998103570065027  0.2323399901691943   F   F   F
  0.4059506995515889  0.7498103572205892  0.2323399901691943   F   F   F
  0.4059506995515889  0.2498103572205892  0.2323399901691943   F   F   F
  0.4069912503959752  0.2501917328045572  0.5682927085103535   T   T   T
  0.4070891595817602  0.7505081502317242  0.5687034744656446   T   T   T
  0.4072436861786563  0.9999853428186639  0.5685247072777188   T   T   T
  0.4999987874461980  0.1230846798515300  0.4750970330416787   T   T   T
  0.4999994325513789  0.2490377104930220  0.4724857210220705   T   T   T
  0.4999978388194440  0.9993062762374275  0.4726671321163152   T   T   T
  0.5000007041441511  0.3727483209586291  0.4742925606080252   T   T   T
  0.5000014942507902  0.7494316956192674  0.4727184192630486   T   T   T
  0.4999989535556554  0.8733515409600452  0.4754782766829738   T   T   T
  0.5000000000000000  0.9996370422826644  0.3031199056678844   F   F   F
  0.5000000000000000  0.4996370422826644  0.3031199056678844   F   F   F
  0.5000000000000000  0.6247350156471256  0.3031143997625279   F   F   F
  0.5000000000000000  0.7496370424967509  0.3031199056678844   F   F   F
  0.5000000000000000  0.8747350158612122  0.3031143997625279   F   F   F
  0.5000000000000000  0.1247350156471256  0.3031143997625279   F   F   F
  0.5000000000000000  0.2496370424967509  0.3031199056678844   F   F   F
  0.5000000000000000  0.3747350158612122  0.3031143997625279   F   F   F
  0.5000023697687856  0.4994129279178772  0.4740131136685477   T   T   T
  0.5000002566275594  0.6237082010153986  0.4757712142483720   T   T   T
  0.8433554566472220  0.0682256953921050  0.5361146816603561   T   T   T
  0.8448957433068846  0.5681729867012031  0.5362776664669824   T   T   T
  0.8459273863225752  0.8193513561953408  0.5366565445189327   T   T   T
  0.8648848873939969  0.3157383183637019  0.5355785115582689   T   T   T
  0.1350963951297287  0.3157258775929754  0.5355856027788949   T   T   T
  0.1540954287068945  0.8193502966712135  0.5366526138171787   T   T   T
  0.1552383921329233  0.5680830071888991  0.5362159248432644   T   T   T
  0.1566438465630772  0.0682397110057604  0.5361246768800371   T   T   T
  0.4999997574541127  0.2563950116217367  0.5385295130715694   T   T   T
  0.4999802109081471  0.0069401534845335  0.5388723702452234   T   T   T
  0.4999875678074704  0.5050885172643248  0.5404508149399923   T   T   T
  0.4999951519815805  0.7567461352119235  0.5389469025137578   T   T   T
  0.0000000000000000  0.0000718854908470  0.1971343718238288   F   F   F
  0.0000000000000000  0.5000718854908470  0.1971343718238288   F   F   F
  0.0000000000000000  0.6251997477026094  0.1971274191543344   F   F   F
  0.0000000000000000  0.7500718857049335  0.1971343718238288   F   F   F
  0.0000000000000000  0.8751997479166960  0.1971274191543344   F   F   F
  0.0000000000000000  0.1251997477026094  0.1971274191543344   F   F   F
  0.0000000000000000  0.2500718857049335  0.1971343718238288   F   F   F
  0.0000000000000000  0.3751997479166960  0.1971274191543344   F   F   F
  0.0000027455570876  0.8773005645735695  0.5420572112851977   T   T   T
 -0.0000019604232210  0.5006336594936371  0.3692457966983378   T   T   T
  0.0000128219006570  0.7511229514150514  0.5414348996577706   T   T   T
  0.0000035449874369  0.2504032822495538  0.3694254324779017   T   T   T
 -0.0000001336694766  0.8755170053114877  0.3693207723015171   T   T   T
  0.0000002436251252  0.3755768397293397  0.3693110004409995   T   T   T
 -0.0000016480366468  0.2491457864308546  0.5423982080000795   T   T   T
  0.0000268015085381  0.6280307754540195  0.5419157687969050   T   T   T
  0.0000434395789243  0.5025237591870564  0.5401529488135437   T   T   T
 -0.0000056515316996  0.3800196868341588  0.5408568241361629   T   T   T
  0.5826617485954912  0.5622475047824267  0.2840383746124928   F   F   F
  0.5826617485954912  0.0622475047824267  0.2840383746124928   F   F   F
  0.5826617485954912  0.8122475045683402  0.2840383746124928   F   F   F
  0.5826617485954912  0.3122475045683402  0.2840383746124928   F   F   F
  0.5827027102256537  0.4372504995116770  0.2840867749422387   F   F   F
  0.5827027102256537  0.6872504992975905  0.2840867749422387   F   F   F
  0.5827027102256537  0.9372504995116770  0.2840867749422387   F   F   F
  0.5827027102256537  0.1872504992975905  0.2840867749422387   F   F   F
  0.5836840501036836  0.4365956914029723  0.4545029507270263   T   T   T
  0.5838138638117750  0.6865720836370571  0.4540968091890860   T   T   T
  0.5838326424299800  0.5613398795369335  0.4547512890981367   T   T   T
  0.5838963025767233  0.1863097864986689  0.4542037144194637   T   T   T
  0.5839440480057873  0.9364029106008636  0.4540914618874765   T   T   T
  0.5841032156666284  0.0611433732694717  0.4542530220480319   T   T   T
  0.5841733238444262  0.8113713477234689  0.4543179620077563   T   T   T
  0.5842430765251196  0.3109117088254557  0.4543781141167667   T   T   T
  0.6601525123268185  0.6867970988996729  0.5421992793939651   T   T   T
  0.6602702243343669  0.9357337896612211  0.5422361632107571   T   T   T
  0.6609900439908888  0.1847472631153714  0.5420921736529375   T   T   T
  0.6617091721241540  0.4358963090163429  0.5402891018142528   T   T   T
  0.6656630292367254  0.4374555758991647  0.2027209846340057   F   F   F
  0.6656630292367254  0.6874555756850853  0.2027209846340057   F   F   F
  0.6656630292367254  0.9374555758991647  0.2027209846340057   F   F   F
  0.6656630292367254  0.1874555756850853  0.2027209846340057   F   F   F
  0.6657072857987743  0.5624132520265661  0.2026937805471647   F   F   F
  0.6657072857987743  0.0624132520265661  0.2026937805471647   F   F   F
  0.6657072857987743  0.8124132518124867  0.2026937805471647   F   F   F
  0.6657072857987743  0.3124132518124867  0.2026937805471647   F   F   F
  0.6675627086022522  0.4370457165123572  0.3686593885599015   T   T   T
  0.6675782084046745  0.6870101689607920  0.3684989895519349   T   T   T
  0.6676810010990853  0.5621873339895905  0.3685112765637713   T   T   T
  0.6676724496493280  0.9369997051896911  0.3684641136356611   T   T   T
  0.6676668378643470  0.8121566460716693  0.3685115212546075   T   T   T
  0.6676775215904647  0.0621623311122621  0.3684807301285677   T   T   T
  0.6678236166241430  0.1870441949933001  0.3685657370795953   T   T   T
  0.6680045082798589  0.3121063450723619  0.3686461060284555   T   T   T
  0.6684542319433209  0.0595083035860523  0.5436670857871296   T   T   T
  0.6687587528240790  0.8101283809131179  0.5436904650686403   T   T   T
  0.6693764376765816  0.5618677217639703  0.5443959614680139   T   T   T
  0.6697229935860370  0.3077805374231282  0.5453471342722563   T   T   T
  0.7491771749313695  0.9981073261242450  0.4548250641049635   T   T   T
  0.7493049686021955  0.4986570697338391  0.4549412274667308   T   T   T
  0.7493190668271325  0.6266673153081808  0.4558260933447915   T   T   T
  0.7493392044023293  0.7484069714172411  0.4550096270179119   T   T   T
  0.7495270491878084  0.3762915998256018  0.4557083389517465   T   T   T
  0.7495051880544663  0.8763458723591318  0.4558276950043307   T   T   T
  0.7494942789365836  0.1260877212784066  0.4557984924962813   T   T   T
  0.7497932119634427  0.6250918038603928  0.2779408447549940   F   F   F
  0.7497932119634427  0.8750918040744793  0.2779408447549940   F   F   F
  0.7497932119634427  0.1250918038603928  0.2779408447549940   F   F   F
  0.7497932119634427  0.3750918040744793  0.2779408447549940   F   F   F
  0.7498000177344295  0.9998887643854673  0.2779024730268418   F   F   F
  0.7498000177344295  0.4998887643854673  0.2779024730268418   F   F   F
  0.7498000177344295  0.7498887645995538  0.2779024730268418   F   F   F
  0.7498000177344295  0.2498887645995538  0.2779024730268418   F   F   F
  0.7505711597873181  0.2483685640527831  0.4558261176783827   T   T   T
  0.0824150043729009  0.9385034496962397  0.4535590140634577   T   T   T
  0.0824378324758982  0.6886090049010680  0.4535819834261666   T   T   T
  0.0824712064661385  0.1882959887080076  0.4537507810049522   T   T   T
  0.0825727650034978  0.4376830284600572  0.2837096284632494   F   F   F
  0.0825727650034978  0.6876830282459707  0.2837096284632494   F   F   F
  0.0825727650034978  0.9376830284600572  0.2837096284632494   F   F   F
  0.0825727650034978  0.1876830282459707  0.2837096284632494   F   F   F
  0.0826029583302130  0.5626929404925889  0.2836274496354534   F   F   F
  0.0826029583302130  0.0626929404925889  0.2836274496354534   F   F   F
  0.0826029583302130  0.8126929402785024  0.2836274496354534   F   F   F
  0.0826029583302130  0.3126929402785024  0.2836274496354534   F   F   F
  0.0828824493767379  0.4388021556264293  0.4531955674667850   T   T   T
  0.8297686441294653  0.6912126423637797  0.5428112116018160   T   T   T
  0.8301519674063639  0.9413335544061465  0.5429655780750393   T   T   T
  0.8320840571527117  0.6877763793352190  0.3678002165662050   T   T   T
  0.8321003618334476  0.4377409447767709  0.3676081936411423   T   T   T
  0.8321061326918000  0.9377029617617879  0.3678157554473575   T   T   T
  0.8321685949088906  0.5628481323691974  0.3678048836493398   T   T   T
  0.8322037651719583  0.1876889325235434  0.3679252698784767   T   T   T
  0.8322600873085575  0.3126581726608692  0.3681265027932197   T   T   T
  0.8322305317834752  0.1924780853903725  0.5444636737472269   T   T   T
  0.8324189169023893  0.8127706832626838  0.3680305542262536   T   T   T
  0.8324468593402233  0.0627241421388403  0.3679787659396170   T   T   T
  0.8336793151700448  0.5625684457322180  0.2026879705260853   F   F   F
  0.8336793151700448  0.0625684457322180  0.2026879705260853   F   F   F
  0.8336793151700448  0.8125684455181315  0.2026879705260853   F   F   F
  0.8336793151700448  0.3125684455181315  0.2026879705260853   F   F   F
  0.8337395527315365  0.4376312579759087  0.2027221981443361   F   F   F
  0.8337395527315365  0.6876312577618222  0.2027221981443361   F   F   F
  0.8337395527315365  0.9376312579759087  0.2027221981443361   F   F   F
  0.8337395527315365  0.1876312577618222  0.2027221981443361   F   F   F
  0.8339183135742277  0.4382302714198874  0.5417151721864405   T   T   T
  0.0847973886325150  0.3134480377938273  0.4544963554696154   T   T   T
  0.0853307443773542  0.0632567318881236  0.4541226890153390   T   T   T
  0.0853126020695058  0.8134651342990292  0.4543309049545132   T   T   T
  0.0853857392408336  0.5637142372270535  0.4538333506379221   T   T   T
  0.9146103577452164  0.5637189862818875  0.4538458817799466   T   T   T
  0.9146704489466653  0.0632551556242995  0.4541198665578910   T   T   T
  0.9146863101183093  0.8134685438464366  0.4543280167120699   T   T   T
  0.9152092378762381  0.3134499712639730  0.4544930602276228   T   T   T
  0.9171138575689782  0.4388025976165362  0.4531921010897906   T   T   T
  0.9173970416697870  0.5626929404925889  0.2836274496354534   F   F   F
  0.9173970416697870  0.0626929404925889  0.2836274496354534   F   F   F
  0.9173970416697870  0.8126929402785024  0.2836274496354534   F   F   F
  0.9173970416697870  0.3126929402785024  0.2836274496354534   F   F   F
  0.9174272349965022  0.4376830284600572  0.2837096284632494   F   F   F
  0.9174272349965022  0.6876830282459707  0.2837096284632494   F   F   F
  0.9174272349965022  0.9376830284600572  0.2837096284632494   F   F   F
  0.9174272349965022  0.1876830282459707  0.2837096284632494   F   F   F
  0.9175341947215919  0.1882941007762491  0.4537506219063485   T   T   T
  0.9175683673526128  0.6886077938414139  0.4535779654394889   T   T   T
  0.9175853139821666  0.9385014030627887  0.4535594454016898   T   T   T
 -0.0000013417561660  0.1247662603135616  0.5417377483102975   T   T   T
  0.0000016271911166  0.1254440706085780  0.3693040341573278   T   T   T
  0.9999984662336904  0.0009375322077899  0.5411780979781946   T   T   T
  0.0000031686450696  0.0005188565390820  0.3693243793861564   T   T   T
 -0.0000016327552050  0.6255648927252194  0.3693026676958683   T   T   T
 -0.0000000111118639  0.7505904050565804  0.3693746351516687   T   T   T
  0.1660631676606400  0.4382063179396846  0.5417222670408502   T   T   T
  0.1662604174500757  0.4376312579759087  0.2027221981443361   F   F   F
  0.1662604174500757  0.6876312577618222  0.2027221981443361   F   F   F
  0.1662604174500757  0.9376312579759087  0.2027221981443361   F   F   F
  0.1662604174500757  0.1876312577618222  0.2027221981443361   F   F   F
  0.1663206550115603  0.5625684457322180  0.2026879705260853   F   F   F
  0.1663206550115603  0.0625684457322180  0.2026879705260853   F   F   F
  0.1663206550115603  0.8125684455181315  0.2026879705260853   F   F   F
  0.1663206550115603  0.3125684455181315  0.2026879705260853   F   F   F
  0.1675535743974879  0.0627227364644159  0.3679789486983002   T   T   T
  0.1675777048896435  0.8127714666556324  0.3680320947480458   T   T   T
  0.1677769507173356  0.1924789681744153  0.5444740065277743   T   T   T
  0.1677409846026112  0.3126540322924217  0.3681270637930821   T   T   T
  0.1677993482898103  0.1876868025721412  0.3679255939072811   T   T   T
  0.1678269461914793  0.5628486782873305  0.3678039726915762   T   T   T
  0.1678955422823405  0.9377032509005045  0.3678153878425650   T   T   T
  0.1678979887630618  0.4377399622361863  0.3676086284069434   T   T   T
  0.1679153598403332  0.6877780307357803  0.3678015138505207   T   T   T