generated by phonopy                    
   1.00000000000000     
     7.5882906561960271    0.0000000000000000    0.0000000000000000
    -3.7941453280980135    6.5716524795658469    0.0000000000000000
     0.0000000000000000   -0.0000000000000000   13.3420374332564489
   B    N    Al
    34    36     2
Direct
  0.1137364468876166  0.2280594779309408  0.0023722940395129
  0.4476563643766601  0.2280594779309408  0.0023722940395129
  0.7777777777777786  0.2222222222222214  0.0019960413550029
  0.1137364468876166  0.5523436356233403  0.0023722940395129
  0.4444444444444429  0.5555555555555571 -0.0145130261986259
  0.7719405220690593  0.5523436356233403  0.0023722940395129
  0.4476563643766601  0.8862635531123834  0.0023722940395129
  0.7719405220690593  0.8862635531123834  0.0023722940395129
  0.1051183152882411  0.2189239556620660  0.4974256202127928
  0.4471389737071604  0.2189239556620660  0.4974256202127928
  0.7777777777777786  0.2222222222222214  0.5147078275444227
  0.1051183152882411  0.5528610262928394  0.4974256202127928
  0.7810760443379338  0.5528610262928394  0.4974256202127928
  0.1111111111111143  0.8888888888888857  0.4975513860156621
  0.4471389737071604  0.8948816847117592  0.4974256202127928
  0.7810760443379338  0.8948816847117592  0.4974256202127928
  0.2241706765563570  0.1150080197793855  0.2449126913918763
  0.5564921658087005  0.1115794162376862  0.2493159101605888
  0.8884205837623137  0.1115794162376862  0.2493159101605888
  0.2182030663697770  0.4424348665182207  0.2563293760390758
  0.5575651334817797  0.4424348665182207  0.2563293760390758
  0.8884205837623137  0.4435078341912989  0.2493159101605888
  0.2241706765563570  0.7758293234436432  0.2449126913918763
  0.5575651334817797  0.7817969336302230  0.2563293760390758
  0.8849919802206141  0.7758293234436432  0.2449126913918763
  0.2222103835948001  0.1110874338562717  0.7499407580904308
  0.5554651272617778  0.1110658969642246  0.7505119372244998
  0.8889341030357751  0.1110658969642246  0.7505119372244998
  0.2222437814979740  0.4444552240823192  0.7495909416003476
  0.5555447759176804  0.4444552240823192  0.7495909416003476
  0.8889341030357751  0.4445348727382221  0.7505119372244998
  0.2222103835948001  0.7777896164051999  0.7499407580904308
  0.5555447759176804  0.7777562185020258  0.7495909416003476
  0.8889125661437282  0.7777896164051999  0.7499407580904308
  0.2362405932384290  0.1391478531435295  0.0226111665390576
  0.5554225310572276  0.1110445988619495  0.0049361392812947
  0.8889554011380505  0.1110445988619495  0.0049361392812947
  0.2222076473886102  0.4444371570276374 -0.0135434515205514
  0.5555628429723628  0.4444371570276374 -0.0135434515205514
  0.8889554011380505  0.4445774689427727  0.0049361392812947
  0.2362405932384290  0.7637594067615708  0.0226111665390576
  0.5555628429723628  0.7777923526113895 -0.0135434515205514
  0.8608521468564709  0.7637594067615708  0.0226111665390576
  0.2222636628267851  0.1111939923202416  0.4944294852318937
  0.5554635925896653  0.1110651296281683  0.5138566677393416
  0.8889348703718312  0.1110651296281683  0.5138566677393416
  0.1939233522087407  0.4302950094377024  0.4770456639403737
  0.5697049905622976  0.4302950094377024  0.4770456639403737
  0.8889348703718312  0.4445364074103347  0.5138566677393416
  0.2222636628267850  0.7777363371732152  0.4944294852318937
  0.5697049905622976  0.8060766477912594  0.4770456639403737
  0.8888060076797575  0.7777363371732152  0.4944294852318937
  0.1109382133659785  0.2222298249249211  0.2501281140791914
  0.4446249448922784  0.2222298249249211  0.2501281140791914
  0.7777777777777786  0.2222222222222214  0.2509463877531456
  0.1109382133659785  0.5553750551077214  0.2501281140791914
  0.4444444444444429  0.5555555555555571  0.2696847586442072
  0.7777701750750791  0.5553750551077214  0.2501281140791914
  0.1111111111111143  0.8888888888888857  0.2301742573510005
  0.4446249448922784  0.8890617866340218  0.2501281140791914
  0.7777701750750791  0.8890617866340218  0.2501281140791914
  0.1111569897637647  0.2222109131735318  0.7500094725205335
  0.4443872567431027  0.2222109131735318  0.7500094725205335
  0.7777777777777786  0.2222222222222214  0.7514582759772178
  0.1111569897637647  0.5556127432568974  0.7500094725205335
  0.4444444444444429  0.5555555555555571  0.7484780757984759
  0.7777890868264677  0.5556127432568974  0.7500094725205335
  0.1111111111111143  0.8888888888888857  0.7500074337439314
  0.4443872567431027  0.8888430102362352  0.7500094725205335
  0.7777890868264677  0.8888430102362352  0.7500094725205335
  0.1111111111111143  0.8888888888888857  0.0660030518528270
  0.4444444444444429  0.5555555555555571  0.4340806678958616
 
  0.00000000E+00  0.00000000E+00  0.00000000E+00
  0.00000000E+00  0.00000000E+00  0.00000000E+00
  0.00000000E+00  0.00000000E+00  0.00000000E+00
  0.00000000E+00  0.00000000E+00  0.00000000E+00
  0.00000000E+00  0.00000000E+00  0.00000000E+00
  0.00000000E+00  0.00000000E+00  0.00000000E+00
  0.00000000E+00  0.00000000E+00  0.00000000E+00
  0.00000000E+00  0.00000000E+00  0.00000000E+00
  0.00000000E+00  0.00000000E+00  0.00000000E+00
  0.00000000E+00  0.00000000E+00  0.00000000E+00
  0.00000000E+00  0.00000000E+00  0.00000000E+00
  0.00000000E+00  0.00000000E+00  0.00000000E+00
  0.00000000E+00  0.00000000E+00  0.00000000E+00
  0.00000000E+00  0.00000000E+00  0.00000000E+00
  0.00000000E+00  0.00000000E+00  0.00000000E+00
  0.00000000E+00  0.00000000E+00  0.00000000E+00
  0.00000000E+00  0.00000000E+00  0.00000000E+00
  0.00000000E+00  0.00000000E+00  0.00000000E+00
  0.00000000E+00  0.00000000E+00  0.00000000E+00
  0.00000000E+00  0.00000000E+00  0.00000000E+00
  0.00000000E+00  0.00000000E+00  0.00000000E+00
  0.00000000E+00  0.00000000E+00  0.00000000E+00
  0.00000000E+00  0.00000000E+00  0.00000000E+00
  0.00000000E+00  0.00000000E+00  0.00000000E+00
  0.00000000E+00  0.00000000E+00  0.00000000E+00
  0.00000000E+00  0.00000000E+00  0.00000000E+00
  0.00000000E+00  0.00000000E+00  0.00000000E+00
  0.00000000E+00  0.00000000E+00  0.00000000E+00
  0.00000000E+00  0.00000000E+00  0.00000000E+00
  0.00000000E+00  0.00000000E+00  0.00000000E+00
  0.00000000E+00  0.00000000E+00  0.00000000E+00
  0.00000000E+00  0.00000000E+00  0.00000000E+00
  0.00000000E+00  0.00000000E+00  0.00000000E+00
  0.00000000E+00  0.00000000E+00  0.00000000E+00
  0.00000000E+00  0.00000000E+00  0.00000000E+00
  0.00000000E+00  0.00000000E+00  0.00000000E+00
  0.00000000E+00  0.00000000E+00  0.00000000E+00
  0.00000000E+00  0.00000000E+00  0.00000000E+00
  0.00000000E+00  0.00000000E+00  0.00000000E+00
  0.00000000E+00  0.00000000E+00  0.00000000E+00
  0.00000000E+00  0.00000000E+00  0.00000000E+00
  0.00000000E+00  0.00000000E+00  0.00000000E+00
  0.00000000E+00  0.00000000E+00  0.00000000E+00
  0.00000000E+00  0.00000000E+00  0.00000000E+00
  0.00000000E+00  0.00000000E+00  0.00000000E+00
  0.00000000E+00  0.00000000E+00  0.00000000E+00
  0.00000000E+00  0.00000000E+00  0.00000000E+00
  0.00000000E+00  0.00000000E+00  0.00000000E+00
  0.00000000E+00  0.00000000E+00  0.00000000E+00
  0.00000000E+00  0.00000000E+00  0.00000000E+00
  0.00000000E+00  0.00000000E+00  0.00000000E+00
  0.00000000E+00  0.00000000E+00  0.00000000E+00
  0.00000000E+00  0.00000000E+00  0.00000000E+00
  0.00000000E+00  0.00000000E+00  0.00000000E+00
  0.00000000E+00  0.00000000E+00  0.00000000E+00
  0.00000000E+00  0.00000000E+00  0.00000000E+00
  0.00000000E+00  0.00000000E+00  0.00000000E+00
  0.00000000E+00  0.00000000E+00  0.00000000E+00
  0.00000000E+00  0.00000000E+00  0.00000000E+00
  0.00000000E+00  0.00000000E+00  0.00000000E+00
  0.00000000E+00  0.00000000E+00  0.00000000E+00
  0.00000000E+00  0.00000000E+00  0.00000000E+00
  0.00000000E+00  0.00000000E+00  0.00000000E+00
  0.00000000E+00  0.00000000E+00  0.00000000E+00
  0.00000000E+00  0.00000000E+00  0.00000000E+00
  0.00000000E+00  0.00000000E+00  0.00000000E+00
  0.00000000E+00  0.00000000E+00  0.00000000E+00
  0.00000000E+00  0.00000000E+00  0.00000000E+00
  0.00000000E+00  0.00000000E+00  0.00000000E+00
  0.00000000E+00  0.00000000E+00  0.00000000E+00
  0.00000000E+00  0.00000000E+00  0.00000000E+00
  0.00000000E+00  0.00000000E+00  0.00000000E+00
