generated by phonopy
   1.0000000
     7.5823954761619587    0.0000000000000000    0.0000000000000000
    -3.7911977380809794    6.5665471038964638    0.0000000000000000
     0.0000000000000000    0.0000000000000000   13.2589009692992441
B    N       Al
 34   36     2
Direct
  0.1111111111111119  0.2222222222222214  0.0000000000000000
  0.4444444444444452  0.2222222222222214  0.0000000000000000
  0.7777777777777786  0.2222222222222214  0.0000000000000000
  0.1111111111111119  0.5555555555555547  0.0000000000000000
  0.4444444444444452  0.5555555555555547  0.0000000000000000
  0.7777777777777786  0.5555555555555547  0.0000000000000000
  0.4444444444444452  0.8888888888888881  0.0000000000000000
  0.7777777777777786  0.8888888888888881  0.0000000000000000
  0.1111111111111119  0.2222222222222214  0.5000000000000000
  0.4444444444444452  0.2222222222222214  0.5000000000000000
  0.7777777777777786  0.2222222222222214  0.5000000000000000
  0.1111111111111119  0.5555555555555547  0.5000000000000000
  0.7777777777777786  0.5555555555555547  0.5000000000000000
  0.1111111111111119  0.8888888888888881  0.5000000000000000
  0.4444444444444452  0.8888888888888881  0.5000000000000000
  0.7777777777777786  0.8888888888888881  0.5000000000000000
  0.2222222222222214  0.1111111111111119  0.2500000000000000
  0.5555555555555547  0.1111111111111119  0.2500000000000000
  0.8888888888888881  0.1111111111111119  0.2500000000000000
  0.2222222222222214  0.4444444444444452  0.2500000000000000
  0.5555555555555547  0.4444444444444452  0.2500000000000000
  0.8888888888888881  0.4444444444444452  0.2500000000000000
  0.2222222222222214  0.7777777777777786  0.2500000000000000
  0.5555555555555547  0.7777777777777786  0.2500000000000000
  0.8888888888888881  0.7777777777777786  0.2500000000000000
  0.2222222222222214  0.1111111111111119  0.7500000000000000
  0.5555555555555547  0.1111111111111119  0.7500000000000000
  0.8888888888888881  0.1111111111111119  0.7500000000000000
  0.2222222222222214  0.4444444444444452  0.7500000000000000
  0.5555555555555547  0.4444444444444452  0.7500000000000000
  0.8888888888888881  0.4444444444444452  0.7500000000000000
  0.2222222222222214  0.7777777777777786  0.7500000000000000
  0.5555555555555547  0.7777777777777786  0.7500000000000000
  0.8888888888888881  0.7777777777777786  0.7500000000000000
  0.2222222222222214  0.1111111111111119  0.0000000000000000
  0.5555555555555547  0.1111111111111119  0.0000000000000000
  0.8888888888888881  0.1111111111111119  0.0000000000000000
  0.2222222222222214  0.4444444444444452  0.0000000000000000
  0.5555555555555547  0.4444444444444452  0.0000000000000000
  0.8888888888888881  0.4444444444444452  0.0000000000000000
  0.2222222222222214  0.7777777777777786  0.0000000000000000
  0.5555555555555547  0.7777777777777786  0.0000000000000000
  0.8888888888888881  0.7777777777777786  0.0000000000000000
  0.2222222222222214  0.1111111111111119  0.5000000000000000
  0.5555555555555547  0.1111111111111119  0.5000000000000000
  0.8888888888888881  0.1111111111111119  0.5000000000000000
  0.2222222222222214  0.4444444444444452  0.5000000000000000
  0.5555555555555547  0.4444444444444452  0.5000000000000000
  0.8888888888888881  0.4444444444444452  0.5000000000000000
  0.2222222222222214  0.7777777777777786  0.5000000000000000
  0.5555555555555547  0.7777777777777786  0.5000000000000000
  0.8888888888888881  0.7777777777777786  0.5000000000000000
  0.1111111111111119  0.2222222222222214  0.2500000000000000
  0.4444444444444452  0.2222222222222214  0.2500000000000000
  0.7777777777777786  0.2222222222222214  0.2500000000000000
  0.1111111111111119  0.5555555555555547  0.2500000000000000
  0.4444444444444452  0.5555555555555547  0.2500000000000000
  0.7777777777777786  0.5555555555555547  0.2500000000000000
  0.1111111111111119  0.8888888888888881  0.2500000000000000
  0.4444444444444452  0.8888888888888881  0.2500000000000000
  0.7777777777777786  0.8888888888888881  0.2500000000000000
  0.1111111111111119  0.2222222222222214  0.7500000000000000
  0.4444444444444452  0.2222222222222214  0.7500000000000000
  0.7777777777777786  0.2222222222222214  0.7500000000000000
  0.1111111111111119  0.5555555555555547  0.7500000000000000
  0.4444444444444452  0.5555555555555547  0.7500000000000000
  0.7777777777777786  0.5555555555555547  0.7500000000000000
  0.1111111111111119  0.8888888888888881  0.7500000000000000
  0.4444444444444452  0.8888888888888881  0.7500000000000000
  0.7777777777777786  0.8888888888888881  0.7500000000000000
  0.1111111111111119  0.8888888888888881  0.0426502046910957
  0.4444444444444452  0.5555555555555547  0.4573497953089043
