POSCAR                                  
   1.00000000000000     
     6.6042765362350613   -0.0168243984668211    0.0019425459888895
    -3.3167347355516981    5.7452996794500377   -0.0053435737634384
     0.0033144229115681   -0.0080354083207553   10.1166297199617130
   Al   N    Sc
    10    16     6
Direct
  0.1637459518166770  0.8375105614320653  0.0004674279619381
  0.6719607651219150  0.8343073770603995 -0.0057246367386604
  0.1703477675093670  0.3327409542780943  0.5038803656685629
  0.6645018145115876  0.3393790766132250  0.5017646143960507
  0.6688774689555405  0.8296352030381313  0.5014392777698183
  0.3287760284395683  0.1598849953703844  0.7442731544878629
  0.8325783766410741  0.1602448264436989  0.7400071968943465
  0.8391029819002438  0.6767910992856717  0.7478075574846227
  0.3369015406457150  0.1736612259037641  0.2505901905833258
  0.8264838770328001  0.6640541262949624  0.2465535541856003
  0.1728113570958574  0.3192846847831018  0.1915725552361339
  0.6582805085996470  0.3412635300157349  0.1940413923892547
  0.1571784082460561  0.8455813562743160  0.1967148369070997
  0.6816794534035414  0.8266832521788274  0.1823300295067726
  0.1612124494615430  0.3164289936473861  0.6956412176481401
  0.6677986677941365  0.3377446802343712  0.6956032109040569
  0.1564312159978031  0.8422758497595528  0.6907448669523348
  0.6875253966977806  0.8402016470574085  0.6881046504652414
  0.3231050618417153  0.1409629201349541  0.9306805136399785
  0.8187570308095671  0.1424968972330510  0.9300522422216730
  0.3398039071560056  0.6853438395210375  0.9542602038871679
  0.8451728281866581  0.6881226370736129  0.9363308854010511
  0.3451131044564908  0.1908595173402582  0.4410845407750519
  0.8326114007540161  0.1680442610201992  0.4589392308453042
  0.3423821543336720  0.6571762248740726  0.4545997313316207
  0.8086541659087453  0.6552960402115574  0.4365332278758788
  0.1637258891425563  0.3230405481758179 -0.0137617342366119
  0.6653471419311857  0.3327267195554026 -0.0143806238008080
  0.1621670854935041  0.8367463323689622  0.4870813675724169
  0.3366278186243030  0.6736940235862503  0.7422269129804657
  0.8321469535852094  0.1640595268801156  0.2505318310952112
  0.3381914279055174  0.6637570723536130  0.2400102077090984
 
  0.00000000E+00  0.00000000E+00  0.00000000E+00
  0.00000000E+00  0.00000000E+00  0.00000000E+00
  0.00000000E+00  0.00000000E+00  0.00000000E+00
  0.00000000E+00  0.00000000E+00  0.00000000E+00
  0.00000000E+00  0.00000000E+00  0.00000000E+00
  0.00000000E+00  0.00000000E+00  0.00000000E+00
  0.00000000E+00  0.00000000E+00  0.00000000E+00
  0.00000000E+00  0.00000000E+00  0.00000000E+00
  0.00000000E+00  0.00000000E+00  0.00000000E+00
  0.00000000E+00  0.00000000E+00  0.00000000E+00
  0.00000000E+00  0.00000000E+00  0.00000000E+00
  0.00000000E+00  0.00000000E+00  0.00000000E+00
  0.00000000E+00  0.00000000E+00  0.00000000E+00
  0.00000000E+00  0.00000000E+00  0.00000000E+00
  0.00000000E+00  0.00000000E+00  0.00000000E+00
  0.00000000E+00  0.00000000E+00  0.00000000E+00
  0.00000000E+00  0.00000000E+00  0.00000000E+00
  0.00000000E+00  0.00000000E+00  0.00000000E+00
  0.00000000E+00  0.00000000E+00  0.00000000E+00
  0.00000000E+00  0.00000000E+00  0.00000000E+00
  0.00000000E+00  0.00000000E+00  0.00000000E+00
  0.00000000E+00  0.00000000E+00  0.00000000E+00
  0.00000000E+00  0.00000000E+00  0.00000000E+00
  0.00000000E+00  0.00000000E+00  0.00000000E+00
  0.00000000E+00  0.00000000E+00  0.00000000E+00
  0.00000000E+00  0.00000000E+00  0.00000000E+00
  0.00000000E+00  0.00000000E+00  0.00000000E+00
  0.00000000E+00  0.00000000E+00  0.00000000E+00
  0.00000000E+00  0.00000000E+00  0.00000000E+00
  0.00000000E+00  0.00000000E+00  0.00000000E+00
  0.00000000E+00  0.00000000E+00  0.00000000E+00
  0.00000000E+00  0.00000000E+00  0.00000000E+00
