POSCAR                                  
   1.00000000000000     
     6.4559391336363436    0.0000000000000000    0.0000000000000000
    -3.2279695668181718    5.6266596399291187    0.0000000000000000
     0.0000000000000000    0.0000000000000000   10.1536064166041715
Al   N   Sc
10  16  6
Direct
  0.16666650  0.83333350  1.00000000
  0.66666650  0.83333350  1.00000000
  0.16666650  0.33333350  0.50000000
  0.66666650  0.33333350  0.50000000
  0.66666650  0.83333350  0.50000000
  0.33333350  0.16666650  0.75000000
  0.83333350  0.16666650  0.75000000
  0.83333350  0.66666650  0.75000000
  0.33333350  0.16666650  0.25000000
  0.83333350  0.66666650  0.25000000
  0.16666650  0.33333350  0.18750000
  0.66666650  0.33333350  0.18750000
  0.16666650  0.83333350  0.18750000
  0.66666650  0.83333350  0.18750000
  0.16666650  0.33333350  0.68750000
  0.66666650  0.33333350  0.68750000
  0.16666650  0.83333350  0.68750000
  0.66666650  0.83333350  0.68750000
  0.33333350  0.16666650  0.93750000
  0.83333350  0.16666650  0.93750000
  0.33333350  0.66666650  0.93750000
  0.83333350  0.66666650  0.93750000
  0.33333350  0.16666650  0.43750000
  0.83333350  0.16666650  0.43750000
  0.33333350  0.66666650  0.43750000
  0.83333350  0.66666650  0.43750000
  0.16666650  0.33333350  1.00000000
  0.66666650  0.33333350  1.00000000
  0.16666650  0.83333350  0.50000000
  0.33333350  0.66666650  0.75000000
  0.83333350  0.16666650  0.25000000
  0.33333350  0.66666650  0.25000000
