Cu	N	Ru	Ta                              
   1.00000000000000     
    18.1096308199999996    0.0000000000000000    0.0000000000000000
     0.0000000000000000   23.3551997799999995    0.0000000000000000
     0.0000000000000000    0.0000000000000000   30.4818171199999988
   Cu   N    Ru   Ta
     4   240    12   228
Selective dynamics
Direct
  0.5532025654087441  0.4388534700966837  0.6089371275936543   T   T   T
  0.3168447140866729  0.4826865765712259  0.6213699757956752   T   T   T
  0.4189921226225263  0.4068022854298004  0.6262170477898554   T   T   T
  0.4501798972492572  0.5042291896908103  0.6260666822241553   T   T   T
  0.0000000000000000  0.0002658024790421  0.3027806050297599   F   F   F
  0.0000000000000000  0.5002658024790421  0.3027806050297599   F   F   F
  0.0000000000000000  0.6252068313499990  0.3027729437410898   F   F   F
  0.0000000000000000  0.7502658026931286  0.3027806050297599   F   F   F
  0.0000000000000000  0.8752068315640855  0.3027729437410898   F   F   F
  0.0000000000000000  0.1252068313499990  0.3027729437410898   F   F   F
  0.0000000000000000  0.2502658026931286  0.3027806050297599   F   F   F
  0.0000000000000000  0.3752068315640855  0.3027729437410898   F   F   F
 -0.0001488624720468  0.0019483582850653  0.4733325989443425   T   T   T
 -0.0001146766661798  0.8751595784924237  0.4736872293377025   T   T   T
 -0.0000220231720526  0.5024703906898106  0.4734307243593194   T   T   T
 -0.0000341491753031  0.7521604920593439  0.4735746040338561   T   T   T
  0.0000336474564004  0.6252936985012616  0.4737695405727994   T   T   T
  0.5927491042128068  0.0001939514232966  0.5685755615669876   T   T   T
  0.5927429249805302  0.7502716387973637  0.5686005092507346   T   T   T
  0.5936842931415904  0.2503098270826999  0.5688069800461488   T   T   T
  0.5940493004484111  0.9998103570065027  0.2323399901691943   F   F   F
  0.5940493004484111  0.4998103570065027  0.2323399901691943   F   F   F
  0.5940493004484111  0.7498103572205892  0.2323399901691943   F   F   F
  0.5940493004484111  0.2498103572205892  0.2323399901691943   F   F   F
  0.5941034351798038  0.6248444726427422  0.2323487498175751   F   F   F
  0.5941034351798038  0.8748444728568288  0.2323487498175751   F   F   F
  0.5941034351798038  0.1248444726427422  0.2323487498175751   F   F   F
  0.5941034351798038  0.3748444728568288  0.2323487498175751   F   F   F
  0.5966807979413229  0.4998035476411384  0.5721669072694222   T   T   T
  0.5977011945735772  0.1218677198332182  0.5713961719290748   T   T   T
  0.5978037002331631  0.8718171528766917  0.5715239799084356   T   T   T
  0.5979626486755045  0.3732058055353207  0.5732163065845650   T   T   T
  0.5980179926004900  0.6220880312049908  0.5718495155254670   T   T   T
  0.5988333251561369  0.1241474875988988  0.4024758456028255   T   T   T
  0.5988092266406386  0.8743201545700355  0.4024931089916519   T   T   T
  0.5989757600967849  0.3743135790935697  0.4024543582006845   T   T   T
  0.5992090622999996  0.2490900122520872  0.4022689875193385   T   T   T
  0.5988998283306284  0.6242992209489361  0.4024413931194043   T   T   T
  0.5991830673464902  0.9991274125129064  0.4022962425755082   T   T   T
  0.5991940998285546  0.7492452043905737  0.4022276178221948   T   T   T
  0.5993067693769913  0.4994269171027291  0.4021883493768118   T   T   T
  0.6501149644707090  0.3730047591508462  0.4885056708267966   T   T   T
  0.6509626777645389  0.1232097193948197  0.4882687701618239   T   T   T
  0.6508993648869120  0.8732613044161666  0.4882302610914104   T   T   T
  0.6506001933978460  0.6233923456121084  0.4883044941040557   T   T   T
  0.6512747947646196  0.2492749348242644  0.4883247828925620   T   T   T
  0.6516609284945667  0.9991799583187685  0.4884321075014709   T   T   T
  0.6512402745563971  0.4995624438692997  0.4889135281546569   T   T   T
  0.6516120448545173  0.7493739352415598  0.4883244699271921   T   T   T
  0.6547396409045092  0.9997083480310920  0.3159103144045119   F   F   F
  0.6547396409045092  0.4997083480310920  0.3159103144045119   F   F   F
  0.6547396409045092  0.7497083482451785  0.3159103144045119   F   F   F
  0.6547396409045092  0.2497083482451785  0.3159103144045119   F   F   F
  0.6547625022209047  0.6246790182669955  0.3159667218028375   F   F   F
  0.6547625022209047  0.8746790184810820  0.3159667218028375   F   F   F
  0.6547625022209047  0.1246790182669955  0.3159667218028375   F   F   F
  0.6547625022209047  0.3746790184810820  0.3159667218028375   F   F   F
  0.7409380328006955  0.9922056091607703  0.5623668729923105   T   T   T
  0.7408553140443497  0.7422410109917716  0.5621921196553172   T   T   T
  0.7417579614865875  0.2441406964480799  0.5613913878687602   T   T   T
  0.7429413707037511  0.4934960833855540  0.5618236756325904   T   T   T
  0.7497181855858486  0.0000100119032282  0.1992701427899632   F   F   F
  0.7497181855858486  0.5000100119032282  0.1992701427899632   F   F   F
  0.7497181855858486  0.7500100121173077  0.1992701427899632   F   F   F
  0.7497181855858486  0.2500100121173077  0.1992701427899632   F   F   F
  0.7497340914871273  0.6250292589019324  0.1993221157413743   F   F   F
  0.7497340914871273  0.8750292591160189  0.1993221157413743   F   F   F
  0.7497340914871273  0.1250292589019324  0.1993221157413743   F   F   F
  0.7497340914871273  0.3750292591160189  0.1993221157413743   F   F   F
  0.7501227626207745  0.2499766981649089  0.3871632174910901   T   T   T
  0.7501249343922914  0.1248087740545002  0.3877488103042374   T   T   T
  0.7501130522799551  0.9998722723694879  0.3871880612778351   T   T   T
  0.7501223612966063  0.3748976687243527  0.3877476730523829   T   T   T
  0.7501680270765596  0.8748733910295370  0.3877948525233657   T   T   T
  0.7502058529370272  0.7498963370325145  0.3871865288637066   T   T   T
  0.7501885055254669  0.5000225170322009  0.3873410671365563   T   T   T
  0.7501840835857978  0.6249619161128794  0.3878616870295476   T   T   T
  0.7512863325470770  0.3730116120144641  0.5566127824624958   T   T   T
  0.7519583075421531  0.1227264819096350  0.5567513994029573   T   T   T
  0.7525169863670524  0.8723053321685704  0.5563673861006719   T   T   T
  0.7520468396406014  0.6223343796552380  0.5564042266659774   T   T   T
  0.8451499272473839  0.6251896283286698  0.3155471503596488   F   F   F
  0.8451499272473839  0.8751896285427563  0.3155471503596488   F   F   F
  0.8451499272473839  0.1251896283286698  0.3155471503596488   F   F   F
  0.8451499272473839  0.3751896285427563  0.3155471503596488   F   F   F
  0.8451807898312538  0.0001939208417241  0.3155011134060643   F   F   F
  0.8451807898312538  0.5001939208417241  0.3155011134060643   F   F   F
  0.8451807898312538  0.7501939210558106  0.3155011134060643   F   F   F
  0.8451807898312538  0.2501939210558106  0.3155011134060643   F   F   F
  0.8463040410649650  0.2489651329726063  0.4858995748878995   T   T   T
  0.8464557327540564  0.9983820491428697  0.4858258395222183   T   T   T
  0.8465848669807311  0.7485214409217854  0.4859115211713088   T   T   T
  0.8467003449767913  0.4991513156020482  0.4856827825219115   T   T   T
  0.8477479123443757  0.3787350820960734  0.4861233369399997   T   T   T
  0.8484458173805124  0.1289172851235107  0.4863748950332485   T   T   T
  0.8487564081687583  0.8790625254237077  0.4862533328180672   T   T   T
  0.8486085351177011  0.6289209401219599  0.4862618628863342   T   T   T
  0.8974628917736222  0.2579500142829362  0.5680321260811750   T   T   T
  0.8980273203267853  0.3820840518945806  0.5713943339132308   T   T   T
  0.9009011614787722  0.2507356283527242  0.4017069161592952   T   T   T
  0.9008508422750641  0.0007668066558796  0.4018098307927400   T   T   T
  0.9009840480545787  0.1255867781799795  0.4018519225506729   T   T   T
  0.9010212433007290  0.3757327821680787  0.4016901504564875   T   T   T
  0.9009432078109414  0.0089747585930101  0.5673315500049019   T   T   T
  0.9004851386655593  0.5084122839574453  0.5677257851108993   T   T   T
  0.9010125909647790  0.7507370175243659  0.4018727609039446   T   T   T
  0.9011397977829789  0.5008659573111423  0.4016819661048784   T   T   T
  0.9006872691329101  0.7590952469075014  0.5675784535197479   T   T   T
  0.9011074264798681  0.8756090835811426  0.4018598445929976   T   T   T
  0.9011458532796993  0.6257394653030494  0.4018251659874291   T   T   T
  0.9024955632672208  0.8851530979523092  0.5711462249417255   T   T   T
  0.9017967957141898  0.6345272834759319  0.5708974050789933   T   T   T
  0.9029848041109908  0.1350098807038698  0.5712358502629954   T   T   T
  0.9057164253114252  0.6251516265128672  0.2320045249323357   F   F   F
  0.9057164253114252  0.8751516267269537  0.2320045249323357   F   F   F
  0.9057164253114252  0.1251516265128672  0.2320045249323357   F   F   F
  0.9057164253114252  0.3751516267269537  0.2320045249323357   F   F   F
  0.9057548087553968  0.0001403618907503  0.2320193078436787   F   F   F
  0.9057548087553968  0.5001403618907503  0.2320193078436787   F   F   F
  0.9057548087553968  0.7501403621048368  0.2320193078436787   F   F   F
  0.9057548087553968  0.2501403621048368  0.2320193078436787   F   F   F
  0.0922118480839039  0.3879370375903252  0.5718104660278616   T   T   T
  0.0937921871245473  0.2454348468847173  0.5728514878443832   T   T   T
  0.0942451912446032  0.0001403618907503  0.2320193078436787   F   F   F
  0.0942451912446032  0.5001403618907503  0.2320193078436787   F   F   F
  0.0942451912446032  0.7501403621048368  0.2320193078436787   F   F   F
  0.0942451912446032  0.2501403621048368  0.2320193078436787   F   F   F
  0.0942835746885748  0.6251516265128672  0.2320045249323357   F   F   F
  0.0942835746885748  0.8751516267269537  0.2320045249323357   F   F   F
  0.0942835746885748  0.1251516265128672  0.2320045249323357   F   F   F
  0.0942835746885748  0.3751516267269537  0.2320045249323357   F   F   F
  0.0971820532318264  0.8841829885870578  0.5710947108162077   T   T   T
  0.0978640779232110  0.1292512978990628  0.5704414858784349   T   T   T
  0.0971307478435444  0.6351675622316040  0.5711459829981352   T   T   T
  0.0986028332600131  0.1255502450414687  0.4018588101022706   T   T   T
  0.0988005894059349  0.0006807721767531  0.4017497936744236   T   T   T
  0.0987392737726152  0.8756478464454645  0.4018781721672695   T   T   T
  0.0989447496659545  0.2507803625660138  0.4023911186878039   T   T   T
  0.0989353113689174  0.7507242306211609  0.4018615712260644   T   T   T
  0.0988957327965286  0.6255738353771186  0.4019824741020984   T   T   T
  0.0989352047674903  0.3753267355707031  0.4024259065148742   T   T   T
  0.0991963473273361  0.5007733577857746  0.4020501060710054   T   T   T
  0.0992405021781801  0.7589211599046852  0.5675985279139344   T   T   T
  0.0990737562139188  0.5094443980869305  0.5676985494860149   T   T   T
  0.9982793749483755  0.2511562367127768  0.4737178424601273   T   T   T
  0.9982266747208246  0.3762045684241154  0.4734168055130328   T   T   T
  0.9997057013034980  0.1249600722722152  0.4737010531209608   T   T   T
  0.0997576310310345  0.0070217819503295  0.5674837283506364   T   T   T
  0.1504407332870601  0.2493054766818018  0.4883379222162731   T   T   T
  0.1510208302489895  0.8790548232294095  0.4862503264166922   T   T   T
  0.1505722568413853  0.3776161594059628  0.4881063845770757   T   T   T
  0.1512617575222454  0.1283416006213497  0.4862004035325505   T   T   T
  0.1511483408589255  0.6290895341666115  0.4864994155879427   T   T   T
  0.1532658258018236  0.9986360640567764  0.4858740184657433   T   T   T
  0.1538999423349063  0.4981958808738036  0.4864909426792856   T   T   T
  0.1533221171037505  0.7484682106686575  0.4859535359254494   T   T   T
  0.1548192101687462  0.0001939208417241  0.3155011134060643   F   F   F
  0.1548192101687462  0.5001939208417241  0.3155011134060643   F   F   F
  0.1548192101687462  0.7501939210558106  0.3155011134060643   F   F   F
  0.1548192101687462  0.2501939210558106  0.3155011134060643   F   F   F
  0.1548500727526161  0.6251896283286698  0.3155471503596488   F   F   F
  0.1548500727526161  0.8751896285427563  0.3155471503596488   F   F   F
  0.1548500727526161  0.1251896283286698  0.3155471503596488   F   F   F
  0.1548500727526161  0.3751896285427563  0.3155471503596488   F   F   F
  0.2476111195606236  0.8721845823305661  0.5564109278349226   T   T   T
  0.2478929650518754  0.1214896140519077  0.5562874929758906   T   T   T
  0.2479312739744682  0.6232267573144138  0.5566388145086416   T   T   T
  0.2494755947205715  0.2497128570138338  0.3877631624011676   T   T   T
  0.2496239105740018  0.1247939262641039  0.3877258940639793   T   T   T
  0.2496917848837450  0.3749572761625599  0.3883595709781589   T   T   T
  0.2497310579460341  0.9998775872873037  0.3871377566013748   T   T   T
  0.2497208877404558  0.8748974967838310  0.3877276824427027   T   T   T
  0.2496877674340983  0.4998540658301574  0.3872740560599262   T   T   T
  0.2497163461117803  0.7498947713136080  0.3871637735097569   T   T   T
  0.2496869568512219  0.6249815197699653  0.3877428560890329   T   T   T
  0.2502659079606815  0.6250292589019324  0.1993221157413743   F   F   F
  0.2502659079606815  0.8750292591160189  0.1993221157413743   F   F   F
  0.2502659079606815  0.1250292589019324  0.1993221157413743   F   F   F
  0.2502659079606815  0.3750292591160189  0.1993221157413743   F   F   F
  0.2502818138619602  0.0000100119032282  0.1992701427899632   F   F   F
  0.2502818138619602  0.5000100119032282  0.1992701427899632   F   F   F
  0.2502818138619602  0.7500100121173077  0.1992701427899632   F   F   F
  0.2502818138619602  0.2500100121173077  0.1992701427899632   F   F   F
  0.2534154572356938  0.3774788713460973  0.5563361939356422   T   T   T
  0.2569159372338607  0.2428005694267083  0.5604474365443880   T   T   T
  0.2594792048756958  0.4928238227281716  0.5660583297527246   T   T   T
  0.2585665425296632  0.9922158270038056  0.5619930968182362   T   T   T
  0.2591110969167617  0.7424423992838447  0.5621816438346653   T   T   T
  0.3452374977790953  0.6246790182669955  0.3159667218028375   F   F   F
  0.3452374977790953  0.8746790184810820  0.3159667218028375   F   F   F
  0.3452374977790953  0.1246790182669955  0.3159667218028375   F   F   F
  0.3452374977790953  0.3746790184810820  0.3159667218028375   F   F   F
  0.3452603590954908  0.9997083480310920  0.3159103144045119   F   F   F
  0.3452603590954908  0.4997083480310920  0.3159103144045119   F   F   F
  0.3452603590954908  0.7497083482451785  0.3159103144045119   F   F   F
  0.3452603590954908  0.2497083482451785  0.3159103144045119   F   F   F
  0.3478661984149908  0.2492333021417814  0.4877708796438689   T   T   T
  0.3478463843843528  0.4996182533051305  0.4886187478600467   T   T   T
  0.3483763604727008  0.9991188282097436  0.4882167723642120   T   T   T
  0.3483533365949412  0.7495457002890570  0.4882376964388213   T   T   T
  0.3491132309605824  0.1229999166230159  0.4878462974802035   T   T   T
  0.3504845119136291  0.3724529363985908  0.4877077750477167   T   T   T
  0.3489309610203871  0.8732516238689386  0.4881016189588930   T   T   T
  0.3489842666708945  0.6236648721429388  0.4878741902618507   T   T   T
  0.4005324429601854  0.4994147726759430  0.4020859872357700   T   T   T
  0.4008884752750860  0.2489887680185301  0.4021045764210242   T   T   T
  0.4007835681475690  0.9990989952053093  0.4022191305017475   T   T   T
  0.4007954053217139  0.7493105353912790  0.4021696762118572   T   T   T
  0.4012431600796769  0.3743318006214446  0.4022929202456966   T   T   T
  0.4010560476220524  0.1241073584001394  0.4023710067605883   T   T   T
  0.4011341096113165  0.8743232218070331  0.4024411652066212   T   T   T
  0.4010807548290605  0.6243555424258217  0.4023189917130010   T   T   T
  0.4018235662072284  0.1219346468087513  0.5711878955078556   T   T   T
  0.4021436442695205  0.8718273553741774  0.5714869494099289   T   T   T
  0.4022653989054560  0.6216437069275729  0.5710971237162824   T   T   T
  0.4031973980059961  0.3700540983974750  0.5713680531104929   T   T   T
  0.4058965648201962  0.6248444726427422  0.2323487498175751   F   F   F
  0.4058965648201962  0.8748444728568288  0.2323487498175751   F   F   F
  0.4058965648201962  0.1248444726427422  0.2323487498175751   F   F   F
  0.4058965648201962  0.3748444728568288  0.2323487498175751   F   F   F
  0.4059506995515889  0.9998103570065027  0.2323399901691943   F   F   F
  0.4059506995515889  0.4998103570065027  0.2323399901691943   F   F   F
  0.4059506995515889  0.7498103572205892  0.2323399901691943   F   F   F
  0.4059506995515889  0.2498103572205892  0.2323399901691943   F   F   F
  0.4064453697972353  0.5026340822281007  0.5687445594182399   T   T   T
  0.4070180937719336  0.2502837466646855  0.5666063798278137   T   T   T
  0.4071560594995309  0.9998072437658588  0.5685304569794234   T   T   T
  0.4072293140717321  0.7503264369070936  0.5686674879276818   T   T   T
  0.5000000000000000  0.9996370422826644  0.3031199056678844   F   F   F
  0.5000000000000000  0.4996370422826644  0.3031199056678844   F   F   F
  0.5000000000000000  0.6247350156471256  0.3031143997625279   F   F   F
  0.5000000000000000  0.7496370424967509  0.3031199056678844   F   F   F
  0.5000000000000000  0.8747350158612122  0.3031143997625279   F   F   F
  0.5000000000000000  0.1247350156471256  0.3031143997625279   F   F   F
  0.5000000000000000  0.2496370424967509  0.3031199056678844   F   F   F
  0.5000000000000000  0.3747350158612122  0.3031143997625279   F   F   F
  0.5000762507971972  0.2489768267023236  0.4725494502852641   T   T   T
  0.5001214108522039  0.3732537314392437  0.4741121954643515   T   T   T
  0.4999955978506302  0.1230748397556526  0.4751427488087109   T   T   T
  0.5000252891159620  0.9992775059430230  0.4726680544413632   T   T   T
  0.4999873153249306  0.8732673081327648  0.4753661151431832   T   T   T
  0.4999780492753093  0.7494265917104891  0.4724728928166138   T   T   T
  0.4999415893772832  0.6238830032788339  0.4746797754988926   T   T   T
  0.5000931884741935  0.4996283787294737  0.4718818957887992   T   T   T
  0.8409336651869623  0.3181024203897957  0.5361793947710904   T   T   T
  0.8445726916415324  0.5692603004340442  0.5365009110109009   T   T   T
  0.8455849615993301  0.0697183170166604  0.5369854828361946   T   T   T
  0.8459248885365721  0.8199345060857450  0.5368091021268986   T   T   T
  0.1173188480332367  0.3161301901741194  0.5413096793318395   T   T   T
  0.1537805205172595  0.8195845566143245  0.5367281382271059   T   T   T
  0.1527812043787034  0.5695577750273324  0.5375618197992512   T   T   T
  0.1559223442108977  0.0676647222580776  0.5359383000350459   T   T   T
  0.4999203565784761  0.0066333909241667  0.5389153790642305   T   T   T
  0.5000048646206987  0.2575733254532276  0.5386586291339194   T   T   T
  0.5000300916657420  0.7563980494914299  0.5387658831094098   T   T   T
  0.5018464895834434  0.5081169404566016  0.5378390838876568   T   T   T
  0.0000000000000000  0.0000718854908470  0.1971343718238288   F   F   F
  0.0000000000000000  0.5000718854908470  0.1971343718238288   F   F   F
  0.0000000000000000  0.6251997477026094  0.1971274191543344   F   F   F
  0.0000000000000000  0.7500718857049335  0.1971343718238288   F   F   F
  0.0000000000000000  0.8751997479166960  0.1971274191543344   F   F   F
  0.0000000000000000  0.1251997477026094  0.1971274191543344   F   F   F
  0.0000000000000000  0.2500718857049335  0.1971343718238288   F   F   F
  0.0000000000000000  0.3751997479166960  0.1971274191543344   F   F   F
  0.9998322210488725  0.0005887343833929  0.3693424625136173   T   T   T
 -0.0001691311700726  0.8777167688304867  0.5421512126961500   T   T   T
  0.9998775468422971  0.1254841467679577  0.3693371710795565   T   T   T
 -0.0000656594217777  0.8754966116398558  0.3693255228410879   T   T   T
  0.0000679025105365  0.2506808962350421  0.3694736628236158   T   T   T
 -0.0000298277564131  0.7505951393608868  0.3693936394206689   T   T   T
 -0.0003114264324078  0.5024805805100857  0.5412235727916854   T   T   T
  0.0001591775122893  0.3753873387653418  0.3694810420616607   T   T   T
  0.0000756079320169  0.6255216742029002  0.3693669816141999   T   T   T
  0.0001327909447908  0.1258140253729459  0.5420519433428796   T   T   T
 -0.0000359738127000  0.7511605790115600  0.5414036658112484   T   T   T
  0.0002738717230081  0.5005915458541611  0.3694630903598611   T   T   T
 -0.0004197094475485  0.6284366350907874  0.5422253717168299   T   T   T
  0.0005499504846972  0.0009159407230137  0.5411051146578746   T   T   T
  0.5826617485954912  0.5622475047824267  0.2840383746124928   F   F   F
  0.5826617485954912  0.0622475047824267  0.2840383746124928   F   F   F
  0.5826617485954912  0.8122475045683402  0.2840383746124928   F   F   F
  0.5826617485954912  0.3122475045683402  0.2840383746124928   F   F   F
  0.5827027102256537  0.4372504995116770  0.2840867749422387   F   F   F
  0.5827027102256537  0.6872504992975905  0.2840867749422387   F   F   F
  0.5827027102256537  0.9372504995116770  0.2840867749422387   F   F   F
  0.5827027102256537  0.1872504992975905  0.2840867749422387   F   F   F
  0.5839148310300645  0.3111206870621778  0.4542235817018935   T   T   T
  0.5837643943841820  0.4366344455459563  0.4540573335779713   T   T   T
  0.5839151244315248  0.1862504354253900  0.4540566586170930   T   T   T
  0.5839539602364289  0.9364055250777984  0.4540975233391710   T   T   T
  0.5839001909548569  0.6865301908054409  0.4539539903170713   T   T   T
  0.5842847707017886  0.0612306685535204  0.4543182875144636   T   T   T
  0.5841780271505886  0.8113576247496148  0.4542824567834293   T   T   T
  0.5839909081152879  0.5612579888931842  0.4543707608597545   T   T   T
  0.6599265792510889  0.1854988343842300  0.5421459400535423   T   T   T
  0.6602633436878742  0.9356830745523019  0.5423492676838326   T   T   T
  0.6600169443853759  0.6860800803148815  0.5423208099036175   T   T   T
  0.6632918445263413  0.4360144609911046  0.5414152476856563   T   T   T
  0.6656630292367254  0.4374555758991647  0.2027209846340057   F   F   F
  0.6656630292367254  0.6874555756850853  0.2027209846340057   F   F   F
  0.6656630292367254  0.9374555758991647  0.2027209846340057   F   F   F
  0.6656630292367254  0.1874555756850853  0.2027209846340057   F   F   F
  0.6657072857987743  0.5624132520265661  0.2026937805471647   F   F   F
  0.6657072857987743  0.0624132520265661  0.2026937805471647   F   F   F
  0.6657072857987743  0.8124132518124867  0.2026937805471647   F   F   F
  0.6657072857987743  0.3124132518124867  0.2026937805471647   F   F   F
  0.6676270860416352  0.0621202460402651  0.3684989981825003   T   T   T
  0.6676591434620628  0.3121668920126503  0.3684788904181971   T   T   T
  0.6676866254035908  0.9370055070726215  0.3684703113569802   T   T   T
  0.6677794057729597  0.1869707962170686  0.3684721363021777   T   T   T
  0.6676699530755066  0.8121675373056767  0.3685133066561891   T   T   T
  0.6677960325717387  0.4370909749109593  0.3685601489420837   T   T   T
  0.6677642452731478  0.6870449572522929  0.3684422317959584   T   T   T
  0.6678317061286717  0.5622230920097536  0.3684760810820874   T   T   T
  0.6679695471041837  0.3092044823931898  0.5440004773613430   T   T   T
  0.6684122293218727  0.0596160810113818  0.5438477783427899   T   T   T
  0.6685981471342881  0.8098748018259181  0.5436533956793651   T   T   T
  0.6685741548013225  0.5602820465602728  0.5444065379389093   T   T   T
  0.7486139666834579  0.3763278835151165  0.4557604628238048   T   T   T
  0.7488798538548072  0.2485286267801654  0.4549230094772653   T   T   T
  0.7491854580714099  0.9982899328428897  0.4549321251968951   T   T   T
  0.7492532840522711  0.1262765022920994  0.4557762595454463   T   T   T
  0.7489833897559415  0.4986409139534816  0.4551599220929844   T   T   T
  0.7493205259794904  0.8763075179582500  0.4558383387911632   T   T   T
  0.7490445927950740  0.6263765753466604  0.4559177031189584   T   T   T
  0.7493065476977954  0.7484388910967044  0.4549647711261292   T   T   T
  0.7497932119634427  0.6250918038603928  0.2779408447549940   F   F   F
  0.7497932119634427  0.8750918040744793  0.2779408447549940   F   F   F
  0.7497932119634427  0.1250918038603928  0.2779408447549940   F   F   F
  0.7497932119634427  0.3750918040744793  0.2779408447549940   F   F   F
  0.7498000177344295  0.9998887643854673  0.2779024730268418   F   F   F
  0.7498000177344295  0.4998887643854673  0.2779024730268418   F   F   F
  0.7498000177344295  0.7498887645995538  0.2779024730268418   F   F   F
  0.7498000177344295  0.2498887645995538  0.2779024730268418   F   F   F
  0.0822542003938932  0.9386025814811085  0.4535550789216601   T   T   T
  0.0825727650034978  0.4376830284600572  0.2837096284632494   F   F   F
  0.0825727650034978  0.6876830282459707  0.2837096284632494   F   F   F
  0.0825727650034978  0.9376830284600572  0.2837096284632494   F   F   F
  0.0825727650034978  0.1876830282459707  0.2837096284632494   F   F   F
  0.0826029583302130  0.5626929404925889  0.2836274496354534   F   F   F
  0.0826029583302130  0.0626929404925889  0.2836274496354534   F   F   F
  0.0826029583302130  0.8126929402785024  0.2836274496354534   F   F   F
  0.0826029583302130  0.3126929402785024  0.2836274496354534   F   F   F
  0.0825081026267300  0.1886869325854861  0.4538222928446148   T   T   T
  0.0824153074699099  0.6884981754306206  0.4536270562199989   T   T   T
  0.8296011994615166  0.9418971596484047  0.5429190999327494   T   T   T
  0.8295255702213634  0.6918075679175687  0.5428532491116008   T   T   T
  0.8299266603509370  0.1912928437083118  0.5430078765454297   T   T   T
  0.8304573773844066  0.4417489540529344  0.5428578700056196   T   T   T
  0.8318708131097670  0.1877160785975127  0.3677462713594024   T   T   T
  0.8320085814649333  0.4378074966602241  0.3677860927384188   T   T   T
  0.8320932611612519  0.9377309555742923  0.3677785046972706   T   T   T
  0.8322694814539418  0.3127815785295934  0.3678169463051956   T   T   T
  0.8323221769303694  0.0627399456089934  0.3679748749927796   T   T   T
  0.8321589820818357  0.6877386289872899  0.3678044223900792   T   T   T
  0.8324312110324611  0.8127771463340246  0.3680126918243721   T   T   T
  0.8324064461236127  0.5628350818480856  0.3679281927052807   T   T   T
  0.8336793151700448  0.5625684457322180  0.2026879705260853   F   F   F
  0.8336793151700448  0.0625684457322180  0.2026879705260853   F   F   F
  0.8336793151700448  0.8125684455181315  0.2026879705260853   F   F   F
  0.8336793151700448  0.3125684455181315  0.2026879705260853   F   F   F
  0.8337395527315365  0.4376312579759087  0.2027221981443361   F   F   F
  0.8337395527315365  0.6876312577618222  0.2027221981443361   F   F   F
  0.8337395527315365  0.9376312579759087  0.2027221981443361   F   F   F
  0.8337395527315365  0.1876312577618222  0.2027221981443361   F   F   F
  0.0833418650691743  0.4380779941314137  0.4540058467449795   T   T   T
  0.0840666575686642  0.3135142265304298  0.4556258337510470   T   T   T
  0.0849255867424095  0.0634960464702921  0.4540336316545213   T   T   T
  0.0852845705104703  0.8135101028546541  0.4543388958381791   T   T   T
  0.0856728010741867  0.5633589514572928  0.4546070057722737   T   T   T
  0.9144577032419898  0.0635268752734933  0.4543598326315813   T   T   T
  0.9145068369092175  0.3135898340133686  0.4539943380354062   T   T   T
  0.9147021419016935  0.8135306660344174  0.4543258460632518   T   T   T
  0.9149782996332250  0.5635956169447210  0.4541011003302998   T   T   T
  0.9169554115788018  0.1886114915042231  0.4535203420458778   T   T   T
  0.9173970416697870  0.5626929404925889  0.2836274496354534   F   F   F
  0.9173970416697870  0.0626929404925889  0.2836274496354534   F   F   F
  0.9173970416697870  0.8126929402785024  0.2836274496354534   F   F   F
  0.9173970416697870  0.3126929402785024  0.2836274496354534   F   F   F
  0.9170235691359238  0.4388291859999428  0.4536297837709293   T   T   T
  0.9174272349965022  0.4376830284600572  0.2837096284632494   F   F   F
  0.9174272349965022  0.6876830282459707  0.2837096284632494   F   F   F
  0.9174272349965022  0.9376830284600572  0.2837096284632494   F   F   F
  0.9174272349965022  0.1876830282459707  0.2837096284632494   F   F   F
  0.9174104450382558  0.9385667800211329  0.4534777754176137   T   T   T
  0.9176005850310351  0.6885730612541077  0.4536255580015309   T   T   T
  0.9943408607346622  0.3804810737185336  0.5415682634656346   T   T   T
  0.9967334671952740  0.2502540629764600  0.5418465943309227   T   T   T
  0.1662604174500757  0.4376312579759087  0.2027221981443361   F   F   F
  0.1662604174500757  0.6876312577618222  0.2027221981443361   F   F   F
  0.1662604174500757  0.9376312579759087  0.2027221981443361   F   F   F
  0.1662604174500757  0.1876312577618222  0.2027221981443361   F   F   F
  0.1663206550115603  0.5625684457322180  0.2026879705260853   F   F   F
  0.1663206550115603  0.0625684457322180  0.2026879705260853   F   F   F
  0.1663206550115603  0.8125684455181315  0.2026879705260853   F   F   F
  0.1663206550115603  0.3125684455181315  0.2026879705260853   F   F   F
  0.1673828105755783  0.0627804571176956  0.3680178393689794   T   T   T
  0.1674593256715527  0.1877785959169971  0.3680384126686559   T   T   T
  0.1674516228662639  0.8127678780641551  0.3680370211978470   T   T   T
  0.1674899245268991  0.4375715379363163  0.3680099760504342   T   T   T
  0.1675197404634814  0.5627229133103481  0.3680655858078807   T   T   T
  0.1677285883113913  0.3126915397406703  0.3683931749668835   T   T   T
  0.1677047036708628  0.9377652221215370  0.3677856577646524   T   T   T
  0.1676905969615716  0.6876832617746541  0.3677735567322697   T   T   T
  0.1685497808343746  0.1905233246907177  0.5437596425843142   T   T   T
  0.1706037575086659  0.4384354761862537  0.5428332728557675   T   T   T