Ta  N  W Cu                             
   1.00000000000000     
    18.1096308199999996    0.0000000000000000    0.0000000000000000
     0.0000000000000000   23.3551997799999995    0.0000000000000000
     0.0000000000000000    0.0000000000000000   30.4818171199999988
   Ta   N    W    Cu
   216   240    24     1
Direct
  0.0000855461429197  0.9999810815928001  0.1977143933247518
  0.3342784754068404  0.0624388461912986  0.2031156189583214
  0.1657304998755578  0.0624321484162920  0.2030689899609044
  0.2499236158827784  0.1251741416215495  0.2784161851510802
  0.0825846742560543  0.0625143477839316  0.2844008163895921
  0.4173653754449873  0.0624897950200634  0.2844419408374321
  0.9999098539368987  0.1250308890461795  0.3701016466335858
  0.3323584421044146  0.0624941497607097  0.3691159802303758
  0.1674211009124775  0.0624988361817955  0.3691023598782479
  0.2496799140690413  0.1253357743797210  0.4556726324525400
  0.0835077458140603  0.0625976995166937  0.4549367954435510
  0.4165249575048904  0.0626210864082424  0.4549350690866518
  0.3334909064750349  0.0627248217235703  0.5419772963427505
  0.1655261152777143  0.0627731556056190  0.5421149085829740
  0.0000433553562260  0.1250020181828546  0.1976804560899055
  0.3342742898110913  0.1874156035661727  0.2029645875787409
  0.1656919449035072  0.1874294332345130  0.2029307987818072
  0.2499670762780326  0.2498374930531284  0.2780840628700432
  0.0828797840005606  0.1874807869285320  0.2842607093418721
  0.4171163026759714  0.1874497129567203  0.2842240977274244
  0.9999000034356200  0.2502213616139883  0.3697808651357306
  0.3323187052163377  0.1874888765733687  0.3685257570679994
  0.1673436737355161  0.1875093489277120  0.3686370827954519
  0.2500727827070932  0.2503054422487452  0.4550546367014690
  0.0838274472925704  0.1878580434262105  0.4546082267418683
  0.4159469813514178  0.1877186712685770  0.4544640143397274
  0.3358801772671285  0.1874734147374255  0.5414018467559103
  0.1633549634037976  0.1888402498550903  0.5418634378725997
  0.0000726057316314  0.2498193663914705  0.1974328115082926
  0.3340414449538471  0.3123356243464315  0.2026291697760669
  0.1659407039169736  0.3123422645875564  0.2026392707498843
  0.2500824437591689  0.3752137879330562  0.2779076716182729
  0.0825571393569788  0.3124620776973330  0.2839719512537755
  0.4174691211018100  0.3124548449650248  0.2838499523008338
  0.9999134282429480  0.3749981533050359  0.3695050175299244
  0.3324580066031118  0.3124607323007496  0.3684702282952514
  0.1673847115713940  0.3125266061403238  0.3685128259829114
  0.2502947567628695  0.3751950684749588  0.4544327585661492
  0.0837352716450184  0.3127186446388635  0.4541822294995441
  0.4162285561412205  0.3126732025418306  0.4543774440389043
  0.3331964665546181  0.3125768608634232  0.5411269748892735
  0.0000183267519702  0.3751092073950630  0.1972939378092704
  0.3343102682790686  0.4374851070020966  0.2025242164454113
  0.1657289274430767  0.4374705998056569  0.2025515600136600
  0.2499862022700157  0.9999287326833439  0.2784293899735388
  0.0828996533028103  0.4374822083203966  0.2838208844567944
  0.4171491492674306  0.4374830798037124  0.2837210739374569
  0.9999532544035930  0.0000473157310950  0.3701825077839658
  0.3325508892994904  0.4374703280945695  0.3679212374947056
  0.1675052220423865  0.4375031139353709  0.3679414214138816
  0.2497519662987600  0.9999601129897542  0.4558368257353322
  0.0837060578548829  0.4376866144289835  0.4539099037426269
  0.4155820062348212  0.4375231143656109  0.4540727462088228
  0.3357366454948192  0.4371150857960018  0.5406976027440678
  0.0000716469132769  0.4999233043729276  0.1971999629987167
  0.3341496354186404  0.5625813797567218  0.2025005859016318
  0.1659281984654797  0.5625973404229327  0.2024763343414691
  0.2501371868822702  0.6252226471248363  0.2779150832166124
  0.0825783685720509  0.5625368206796182  0.2837806231496884
  0.4174992570805074  0.5625305833484049  0.2837511396246484
  0.9999124340721579  0.6248592598130713  0.3694337607551859
  0.3326569326593045  0.5624950389682724  0.3683539009788959
  0.1674598818346098  0.5625105316321992  0.3682912169358588
  0.2503782380348269  0.6245599262503987  0.4545073112033577
  0.0834383835693799  0.5623933696267045  0.4537753156656450
  0.4160030030853221  0.5623049626171266  0.4544423237027644
  0.3332066579094288  0.5613812214511640  0.5411547281806079
  0.0000521823547359  0.6251842446756157  0.1972690523962584
  0.3342644032221003  0.6876253705491351  0.2027387246938588
  0.1658578888559177  0.6876663946771160  0.2027183265675347
  0.2500903105801484  0.7498478388306395  0.2782063122631584
  0.0829393727618779  0.6875461786286792  0.2839820157664477
  0.4170674946386441  0.6875545969787140  0.2839909366961635
  0.9999337550027931  0.7499835429752082  0.3697191424690516
  0.3326032549035034  0.6875023399014921  0.3683532405352494
  0.1675138366516578  0.6874955140968169  0.3682071976130175
  0.2501459331225249  0.7498369856621139  0.4551029943252871
  0.0837291840829835  0.6871920549652302  0.4540852760553094
  0.4158718536740977  0.6872790343297908  0.4545633584753404
  0.3317886000685917  0.6872176675628836  0.5401671761734619
  0.0001127763144453  0.7499968852032026  0.1974597935770177
  0.3342235400989750  0.8126459415866236  0.2029374067124579
  0.1658858918571013  0.8126637070271414  0.2028828675685830
  0.2500287757659194  0.8750818950504851  0.2783624529476683
  0.0825943409990799  0.8125572976496684  0.2841981917746992
  0.4173459393404357  0.8125648331463324  0.2842703358383503
  0.9999836506511386  0.8748896762362008  0.3700342342317384
  0.3324559413963399  0.8125491016279085  0.3690058231167797
  0.1674746182333422  0.8125092299352943  0.3688445803381626
  0.2498229365324534  0.8746785330522329  0.4556461467566564
  0.0833533772163619  0.8123237559447318  0.4545683841008028
  0.4163924892712174  0.8123483947911652  0.4548637566413021
  0.3333084856302051  0.8134641142495553  0.5420163439699053
  0.1650264340520167  0.8111964880031266  0.5416727817209974
  0.0000730981217458  0.8751068462148623  0.1976494563556699
  0.3343183229786888  0.9375700046578999  0.2032249847313778
  0.1657213272361773  0.9375750080202181  0.2031642953976629
  0.2501165792756268  0.4997943510824072  0.2778190643698295
  0.0828438546316050  0.9375245488510444  0.2844123475918039
  0.4171068102625242  0.9375289863527669  0.2845063278416760
  0.9999230409396915  0.5000829744658191  0.3693489487560271
  0.3324459563329967  0.9375288358871856  0.3688602766198272
  0.1674202839506265  0.9375296674419644  0.3687503935339222
  0.2503145821899508  0.5000979065468414  0.4541969188556436
  0.0838924270416257  0.9373559987468525  0.4548044939981324
  0.4160402446374292  0.9374350698378180  0.4548554226557968
  0.3360529823888498  0.9379174112085451  0.5419321003007838
  0.1630160412120247  0.9371105566119979  0.5420251302320125
  0.5000138429910876  0.9999738044431297  0.1977918081281942
  0.8342505830524729  0.0624112459854729  0.2030678159271773
  0.6657058479661586  0.0624145791997819  0.2030589784935017
  0.7499240408380317  0.1251767277846696  0.2783810012851902
  0.5825942421586063  0.0625008227183486  0.2844215462017274
  0.9173691647117082  0.0625046893260759  0.2843648139992112
  0.4999191705266881  0.1250158227727880  0.3701343436025368
  0.8323822510827270  0.0625150257361540  0.3690514312556417
  0.6674140479138302  0.0625077160172722  0.3691208352339075
  0.7497022349395266  0.1253412998131793  0.4556685498683137
  0.5835531547910762  0.0626075819224994  0.4549850033424576
  0.9165144917461205  0.0626051073806622  0.4548613238336472
  0.8335729397505602  0.0624953676424624  0.5419379287043000
  0.6656382839928838  0.0628647096200154  0.5421281928237249
  0.5000423090768322  0.1249829124284147  0.1977194133983105
  0.8342792985545628  0.1874495291817766  0.2029691937668474
  0.6656766705566781  0.1874487569939731  0.2029181742055215
  0.7500073023320155  0.2498446433054298  0.2780384077154139
  0.5828974666479851  0.1874802597302363  0.2842549041975815
  0.9171004919693786  0.1874617026511487  0.2842110887542759
  0.4999304324569920  0.2502045948094604  0.3697619695742844
  0.8323268598546463  0.1875033437078741  0.3685245901991436
  0.6673721550635321  0.1875145318501765  0.3686274237973279
  0.7501284766039120  0.2503224909324118  0.4550677156269174
  0.5838378543552167  0.1878455139791342  0.4545816725608560
  0.9159403860671560  0.1877370282073798  0.4544962143384907
  0.8359881563495293  0.1874913009557204  0.5413884382566891
  0.6634619161532811  0.1888345860638552  0.5418772818556903
  0.5000438112932954  0.2498179730882981  0.1974311204842323
  0.8340357169569259  0.3123372166022591  0.2026401943584375
  0.6659316435132112  0.3123268446825946  0.2026420819474382
  0.7500772678347545  0.3752359731053403  0.2779236944747367
  0.5825822238641365  0.3124603258748735  0.2839654169957413
  0.9174668920689442  0.3124578769413233  0.2838577035255057
  0.4999401207166017  0.3749657723945248  0.3695085865324970
  0.8325138891080073  0.3124732738508200  0.3685014784452250
  0.6674069896123243  0.3125180492401114  0.3685269848975352
  0.7502870915556556  0.3752382397292706  0.4544428755382057
  0.5837365648965331  0.3127093705738133  0.4541607804942203
  0.9162324809612699  0.3127391568282292  0.4544319740920173
  0.8332117485148558  0.3127759344624224  0.5411735770181565
  0.5000379048575851  0.3750868345815164  0.1972850525596996
  0.8343259237388025  0.4374954897582555  0.2024938271400245
  0.6657065845668839  0.4375020288832232  0.2025523581622366
  0.7499103934635940  0.9999311444903043  0.2783604379365272
  0.5828900814805777  0.4374769560474974  0.2838327172976847
  0.9171326917366258  0.4374869414232734  0.2837000188799976
  0.4999171621425376  0.0000542411107887  0.3702701802621178
  0.8324760283604888  0.4374738412932260  0.3678713543168044
  0.6674833418863670  0.4374817192675380  0.3679476687650975
  0.7497441949394172  0.9999583189221894  0.4557970091897019
  0.5837114892080137  0.4376127121770352  0.4539398349811421
  0.9155622214893882  0.4375821919760128  0.4540136396870409
  0.8358278785277307  0.4376866410869624  0.5406769513911200
  0.5000088464197887  0.4999172392534703  0.1972197425394810
  0.8340765134635504  0.5625443180963714  0.2024393316910249
  0.6658886098236252  0.5625712493854707  0.2025071583566529
  0.7500547018681374  0.6252156987713704  0.2778568557714394
  0.5825174618059279  0.5625329347245227  0.2837997775155188
  0.9175119018280427  0.5625391920083089  0.2836839112446370
  0.4998953240599064  0.6248171529739963  0.3695518726541849
  0.8325962547731152  0.5625026633908661  0.3682472743524983
  0.6674260336847837  0.5624827679360749  0.3682585485564260
  0.7504322225609172  0.6246818136394410  0.4542844997358486
  0.5835898782461797  0.5623429318922675  0.4538375813914612
  0.9158729017209524  0.5624346135193434  0.4541882903029091
  0.8339164201404188  0.5625370917164076  0.5407294121452253
  0.4999915589816766  0.6251754690489619  0.1973215224846712
  0.8341746403989987  0.6876606431119399  0.2026656014737682
  0.6658182372742729  0.6876658173866801  0.2027594791769332
  0.7499641669898622  0.7498646239057365  0.2780938813441480
  0.5828268699169996  0.6875482362200671  0.2840212037223324
  0.9170753514231293  0.6875615134809578  0.2838538418884511
  0.4998449721899192  0.7499975312603340  0.3698846801234694
  0.8323892320931279  0.6875287591154660  0.3681006984835307
  0.6673699704392035  0.6875013859644810  0.3681497734617381
  0.7501399271058062  0.7497865635267331  0.4548447151759731
  0.5840782484057172  0.6871827424087371  0.4541352395639819
  0.9156569105896679  0.6873440835651152  0.4540861151121049
  0.8360284557104052  0.6873463369828698  0.5409235200659239
  0.4999767433626303  0.7500216599322442  0.1975489432753434
  0.8341490348976635  0.8126450559646727  0.2028359054004980
  0.6658062755577561  0.8126408212632512  0.2029088476556780
  0.7499104262112937  0.8751155572524567  0.2783221472167483
  0.5824917243313195  0.8125727239785832  0.2842681789660304
  0.9173966437950014  0.8125800230616917  0.2841109145327110
  0.4998912264466071  0.8748765925951503  0.3701881718626510
  0.8323586180773503  0.8125823423980236  0.3687355037630624
  0.6673894605891846  0.8125592557422152  0.3688364505052917
  0.7497861135725756  0.8747092178539475  0.4555401742136667
  0.5835335344079553  0.8123403229166257  0.4546650958795198
  0.9162887805997286  0.8123382284835401  0.4544554882864986
  0.8338375619156650  0.8124513251853074  0.5414062732647693
  0.6657957055408517  0.8115238174831205  0.5416793140502563
  0.5000221481025022  0.8751084450231303  0.1977608055405113
  0.8342948637826169  0.9376047243636307  0.2031442757848438
  0.6656560549439021  0.9375769211960687  0.2031741219428440
  0.7500812760311391  0.4997719047079485  0.2777824468127861
  0.5827829678475069  0.9375227804258373  0.2844695802414847
  0.9171159539698834  0.9375393125629330  0.2843623818592249
  0.4998965634998527  0.5000562491855547  0.3694206074309676
  0.8323728078791177  0.9375581370119335  0.3686939337234278
  0.6673486373707647  0.9375508382568185  0.3687751681122009
  0.7502836178184964  0.5001120562576560  0.4541694610668827
  0.5838985403637693  0.9374217034811920  0.4548705159992537
  0.9159992835754380  0.9374104933923491  0.4546459310302211
  0.8361139377758775  0.9373329393866001  0.5417933364897252
  0.6633321595717305  0.9373043340736515  0.5420558619950029
  0.4057836499640501  0.0000528311352852  0.2328115070754464
  0.2500128394327135  0.0000283945385320  0.2000389277683539
  0.0942488984021708  0.0000650547708645  0.2327643754749218
  0.1548356591775715  0.1249172372870717  0.3162816547264811
  0.9999695826760231  0.1251219579983953  0.3034362668816186
  0.3450825226827234  0.1249081861160306  0.3162638049619844
  0.4010514658020909  0.1251330132997310  0.4026978650045905
  0.2498720833106205  0.1250860515672372  0.3878708870984937
  0.0987033706433920  0.1251118334262102  0.4027536311096185
  0.1514209051112800  0.1254822467564267  0.4883176872545860
  0.9998795400114915  0.1255616775655000  0.4739325770317748
  0.3479772261020955  0.1250374051908381  0.4881141223603649
  0.4057136989351164  0.1252970459656879  0.5693903180444337
  0.2495624231443472  0.1265027966153554  0.5582211436772369
  0.0940927989706637  0.1258403004874324  0.5698147719857687
  0.4057200537638934  0.1248954818451651  0.2326904938765892
  0.2499994977010402  0.1249247811104794  0.2002973993496724
  0.0942596844913055  0.1249106026759321  0.2326788745196282
  0.1548321389641387  0.2500806960967310  0.3159517085935022
  0.9999793148067369  0.2498865425018977  0.3031525853849146
  0.3451487170610932  0.2500774491794147  0.3159484746810790
  0.4010993152922779  0.2501012839183261  0.4024395744673370
  0.2499022476591293  0.2499909035266938  0.3873876787367934
  0.0987716514398542  0.2501921941758027  0.4024563876666178
  0.1520252528952852  0.2512400488342763  0.4878416825802105
  0.9999410101073494  0.2506127443099686  0.4739676523573735
  0.3478230415457091  0.2503914956894207  0.4878367244660211
  0.4060335472572234  0.2511239289447431  0.5686807107474934
  0.2482578460778910  0.2531162173243686  0.5581091270108658
  0.0967843490348699  0.2546576935390661  0.5693740040048354
  0.4057408452678288  0.2499379733956033  0.2323651956312673
  0.2499787515612013  0.2498086280304577  0.1994524816926102
  0.0942711114928869  0.2499577532850381  0.2324071639934289
  0.1547922336264520  0.3748637063105349  0.3156567933441181
  0.9999816791909737  0.3751251726975724  0.3029097546555803
  0.3452972749418919  0.3748146245425801  0.3156624375153640
  0.4010665951814048  0.3750176085232795  0.4021455207218878
  0.2499929418100919  0.3751229656174431  0.3869900176336287
  0.0988134963315517  0.3751968818197398  0.4021450936369817
  0.1526014204596748  0.3755529604862105  0.4871420339874959
  0.9999936224420196  0.3754445998064924  0.4734364712180081
  0.3476983721463824  0.3748844378015477  0.4875750475385203
  0.4058396573451049  0.3751690772843119  0.5686562626537821
  0.2470197035712332  0.3765475103037375  0.5576038033864990
  0.0980587477286150  0.3760077017491170  0.5682889906148674
  0.4057068290875563  0.3748785951344686  0.2321308782386495
  0.2500168457497551  0.3749886316171072  0.1995994583539016
  0.0943398680785208  0.3748734434599612  0.2321805867971634
  0.1549333961901880  0.0000948075959357  0.3163554044829695
  0.9999833122944750  0.9999331189017653  0.3035069781502955
  0.3450623989190404  0.0000701115872843  0.3164062588481542
  0.4010785151857448  0.0000087970905156  0.4028830639760699
  0.2499038410048300  0.9999294441899522  0.3880050983358245
  0.0987884411938680  0.9999628059877850  0.4028196113528963
  0.1515210904781625  0.0001218308986495  0.4884338489277837
  0.9999112151236531  0.9998101345753128  0.4740016205855682
  0.3481404655279903  0.0002757381363523  0.4883276427172092
  0.4055326016588339  0.0006978858374893  0.5698449611167504
  0.2496543398348550  0.9996323005580265  0.5583925976560025
  0.0938103882834724  0.0003557318082912  0.5698400399017629
  0.4057102398376173  0.5000916775105821  0.2320964095491007
  0.2500002724469965  0.4999860370690641  0.1995559714360056
  0.0943731879890493  0.5000774084283819  0.2320969303631628
  0.1548768385308819  0.6249012797685936  0.3156524904888798
  0.9999808954964493  0.6251619726308775  0.3028556279986319
  0.3452858648978818  0.6249186856409992  0.3157719163499166
  0.4011044950310989  0.6248531472912546  0.4023485576357118
  0.2500615364452159  0.6250357555007753  0.3870613595293619
  0.0987977789744576  0.6249123771308476  0.4020498102798413
  0.1524494817257818  0.6242925441892524  0.4870766556754944
  0.9999052388317580  0.6246245823044418  0.4733272115549880
  0.3479039246576932  0.6242693945277153  0.4880714124580550
  0.4041881129378453  0.6224717669922484  0.5704484980224365
  0.2462824451217287  0.6238055695381490  0.5576495065626048
  0.0977686263030080  0.6231224380367308  0.5683735638125924
  0.4057115246580665  0.6250283411050717  0.2322046716270165
  0.2500317767871181  0.6251274465515806  0.1995230522508322
  0.0943427092255149  0.6250504030100217  0.2321775949572071
  0.1548831892059610  0.7501418289680757  0.3159281810902215
  0.9999718996399878  0.7499064099455026  0.3031072515956339
  0.3452071613540184  0.7501489926604705  0.3160823582677850
  0.4010527259673964  0.7498726902056987  0.4026068302544630
  0.2500256808902037  0.7498631428988176  0.3875391513061999
  0.0988100226395332  0.7498275660661093  0.4023210866397733
  0.1518670457511675  0.7490833105706329  0.4875810549251582
  0.9998001479001530  0.7493561675844873  0.4733602298611927
  0.3480249327618452  0.7501855912096076  0.4884308490356659
  0.4043839724634850  0.7508263263283226  0.5709505945633850
  0.2472865065478160  0.7463876104301548  0.5580011609643805
  0.0952170974047988  0.7464564848633373  0.5688595848460949
  0.4056481491616495  0.7501674022324138  0.2324668530557332
  0.2500671984073577  0.7501435087514423  0.1997584163751824
  0.0943420659026373  0.7501728754056458  0.2323988735493714
  0.1549537234544331  0.8749565249338360  0.3162221992845886
  0.9999929284975551  0.8751080927108532  0.3033829666800116
  0.3450922096976683  0.8749506244554297  0.3163408771826468
  0.4010758227347893  0.8749385708923967  0.4028676083724960
  0.2499103732241252  0.8750521019065118  0.3878408640053479
  0.0988416980529792  0.8749328730525718  0.4026729761170742
  0.1515321813613255  0.8742069785129587  0.4882423965032672
  0.9998760878536075  0.8747360892284561  0.4739327316491000
  0.3480397919686027  0.8746937743312628  0.4883401785162462
  0.4057737031621187  0.8739504416398631  0.5695239163019608
  0.2496799505705951  0.8735668672631292  0.5583644749995713
  0.0942816354228810  0.8730502655173069  0.5698709551396561
  0.4057296912272648  0.8750304380501035  0.2327483757673292
  0.2500315889866656  0.8751267759763479  0.2000255115225897
  0.0942631547186963  0.8750199091062854  0.2326580604140176
  0.1548048205000754  0.5001405144736282  0.3155527353725134
  0.9999970093285526  0.4998745962269453  0.3027833745118329
  0.3453195708559846  0.5001472132812594  0.3155911719396229
  0.4011035096357958  0.5000147760323514  0.4021266676783313
  0.2500310834743686  0.4999296022316742  0.3867988071759925
  0.0988062276675024  0.4999676447174650  0.4019847674709425
  0.1526245631597618  0.5001318401176889  0.4869704482736950
  0.9999195860774179  0.5000050569915757  0.4733649025750069
  0.3475876313085280  0.4999934715720755  0.4875320784055717
  0.4057156411461378  0.5000669474701951  0.5685215207074705
  0.2472307742371100  0.5004355556885685  0.5574334884770451
  0.0984654370355500  0.5005380052681900  0.5682662362049982
  0.9058138415292021  0.0000617013903863  0.2327027651414681
  0.7499670174226409  0.0000187646480185  0.1998585877655543
  0.5942386611140478  0.0000605442354384  0.2327866447834310
  0.6548585121133002  0.1249171529185631  0.3162747808914048
  0.4999891312343934  0.1251165564387833  0.3034720498523384
  0.8450722375101947  0.1249202275930230  0.3162255655240784
  0.9010596747551602  0.1251590213997744  0.4026663562835822
  0.7498915648152220  0.1250900361487481  0.3878643011602989
  0.5987175233111941  0.1251077361734403  0.4027728289027337
  0.6514247572650760  0.1255376314155896  0.4883090081680805
  0.4998905322150904  0.1255791833214346  0.4740087314294428
  0.8479972220248868  0.1249620529817506  0.4881094805502570
  0.9057833958690011  0.1251810369809689  0.5693665584395973
  0.7496299749642077  0.1265133032117589  0.5582046520918453
  0.5941471639115079  0.1259280380539423  0.5698114403902466
  0.9057330394422678  0.1249079714793169  0.2326538933363622
  0.7499793090944564  0.1249339894837576  0.2003344737790584
  0.5942899078282693  0.1248977336037100  0.2326824270746286
  0.6548855716109827  0.2500801425668158  0.3159403846463960
  0.4999917457142402  0.2498786111896862  0.3031425283909783
  0.8451452429741764  0.2500788690253941  0.3159468514003905
  0.9011011048591371  0.2501187827042486  0.4024655467416878
  0.7499451864052844  0.2499939307366716  0.3874007357723883
  0.5987944057354113  0.2501834999751864  0.4024399725401580
  0.6520536502132614  0.2512067809403860  0.4878102115040477
  0.4999560221595587  0.2505708426882762  0.4739444054789743
  0.8478447470587085  0.2504877442791340  0.4878943239133164
  0.9060480805091871  0.2511691591850607  0.5687929638612275
  0.7482460220154579  0.2531860165708721  0.5580974295378525
  0.5968300180604089  0.2546427728813043  0.5692826781548845
  0.9057637070424676  0.2499628623132750  0.2323634639976646
  0.7499770946848940  0.2498266109067870  0.1993179019705238
  0.5942644203493970  0.2499552006876726  0.2323941412352823
  0.6547780054439940  0.3748546231075025  0.3156664958128204
  0.4999877877365364  0.3751158895241176  0.3029071187283918
  0.8452847559410728  0.3748020472890730  0.3156633081513149
  0.9010557129878691  0.3750771254597467  0.4021383177691362
  0.7500052644137511  0.3751065014745834  0.3869952801856442
  0.5988150589117183  0.3751601465474010  0.4021469709930514
  0.6526098885448945  0.3754982057529972  0.4871525319088974
  0.5000028826586700  0.3753859839684566  0.4734460100152589
  0.8476885571025861  0.3750458250740252  0.4875895857548329
  0.9059032918225753  0.3753519633159144  0.5686087966351536
  0.7471103830339132  0.3765634934279092  0.5576101796729063
  0.5981314245442206  0.3760118465899467  0.5683246817285621
  0.9056803911817113  0.3748833854733888  0.2321424278148712
  0.7499865065840154  0.3750138858650587  0.1997776226851045
  0.5943413417928625  0.3748747302672228  0.2321959571363763
  0.6548901805785405  0.0000967195086972  0.3163707439820342
  0.4999782848682415  0.9999230525229095  0.3036016899358813
  0.8450062403477006  0.0001076159333380  0.3162885500914996
  0.9010691074882544  0.9999924668200606  0.4027436149212136
  0.7499007289678801  0.9999604112966409  0.3879489458176693
  0.5987644856601690  0.0000067797755676  0.4028848641227256
  0.6515471029911879  0.0001618231388818  0.4884588666555416
  0.4999379730914910  0.9997955411346311  0.4742028770101783
  0.8481433384385753  0.0001677356485175  0.4882123971975219
  0.9056788184632509  0.0004334681702289  0.5696318646978682
  0.7497376118976931  0.9996546964720778  0.5583400242189782
  0.5939351814380771  0.0004592905091201  0.5699404732565583
  0.9057310146446653  0.5000991908896708  0.2320385260800961
  0.7499777379263222  0.4999619860361122  0.1993936012872766
  0.5943110676165730  0.5000700308166657  0.2321155779592416
  0.6547892758540570  0.6248922418449681  0.3156462410102705
  0.4999601373037734  0.6251482348555086  0.3029656830240555
  0.8452451801843068  0.6249103779909859  0.3156005374546211
  0.9010286286965083  0.6249074597472770  0.4020533323243924
  0.7499645231588090  0.6250325170405944  0.3868724326290547
  0.5988434810398715  0.6248433542711211  0.4021278633012955
  0.6528176321181860  0.6242534545755660  0.4871157892442000
  0.5002376064068912  0.6246597486390044  0.4734056377971925
  0.8477467072411002  0.6247548268274201  0.4875217740594522
  0.9058197997564719  0.6241051719111610  0.5685835423822070
  0.7472627263800007  0.6236043354690395  0.5574897422924963
  0.5989748063108422  0.6233425836318602  0.5683353605765404
  0.9057095199991707  0.6250254855225137  0.2320981449516566
  0.7499823054492083  0.6251300047449178  0.1995596194459637
  0.5942979258536099  0.6250467971989551  0.2322081449246198
  0.6547665362379149  0.7501654267979205  0.3159259742163343
  0.4999297375885732  0.7499054744796112  0.3032509332642590
  0.8451520892454241  0.7501802696758304  0.3158475083206866
  0.9009970855784815  0.7499186426672892  0.4022189634712987
  0.7499224101867910  0.7499185557821448  0.3873060263823049
  0.5988168913446188  0.7498788734800357  0.4024124087465921
  0.6521882101980552  0.7491397732525371  0.4875999721777973
  0.5001558728693354  0.7492845878593570  0.4735036709983547
  0.8478996231752376  0.7499743774200098  0.4877257196387745
  0.9055875047174879  0.7498377891424184  0.5690531691218226
  0.7484768564827746  0.7465685375912230  0.5576737179242244
  0.5967889671176820  0.7464142457436722  0.5688281614141815
  0.9057220377277559  0.7501797995331145  0.2323025010016906
  0.7499953705496907  0.7501558961489181  0.1995524674225706
  0.5942600481360785  0.7501893982726031  0.2324407101098132
  0.6548463678824987  0.8749756749277822  0.3162546846196648
  0.4999464538262259  0.8750917585659650  0.3035254330670440
  0.8450655794989714  0.8749921448933691  0.3161605034876587
  0.9010491463274306  0.8749997882189220  0.4025693731316480
  0.7498703634744146  0.8750937413485431  0.3877386830011815
  0.5987701161905647  0.8749514141008490  0.4027797519981959
  0.6515636259858937  0.8743095254161588  0.4882530690348688
  0.4999680118412542  0.8747203183440604  0.4742346798742005
  0.8480272222403471  0.8746047523217868  0.4880607535778410
  0.9058970507224444  0.8737349338032345  0.5693239449979473
  0.7497126763276398  0.8738510572997953  0.5582931251204073
  0.5944398733456850  0.8730280400090464  0.5698407463151582
  0.9057732156258425  0.8750332570778312  0.2326037938465433
  0.7499724799114844  0.8751358589524756  0.2001315654755658
  0.5942327265871796  0.8750150738043416  0.2327304934301395
  0.6547757833045296  0.5001435017829934  0.3155461662138990
  0.4999822016354614  0.4998904607354220  0.3028379970920625
  0.8453037612236756  0.5001480407731762  0.3155227206850739
  0.9010403387690857  0.4999861465211879  0.4019906221810459
  0.7499809997529425  0.4999168677123720  0.3867597734747221
  0.5987861107573309  0.4999452905046411  0.4020404489234082
  0.6526244810435671  0.5000516234238788  0.4869946365777906
  0.4999555679111367  0.4999832776713120  0.4735501428149291
  0.8475733740540150  0.5001779395553356  0.4873942987140012
  0.9058279712901154  0.5003019736770327  0.5683663122765381
  0.7470518194673161  0.5001583195356005  0.5574065376782897
  0.5985711603636190  0.5006536557985868  0.5682313886949331
  0.9999041176046291  0.1188497040248535  0.5408926036444441
  0.0003565489790844  0.2589854053765634  0.5407272629933928
  0.0002504012072251  0.3696071377550894  0.5401630495017073
  0.1647933496953158  0.3135738022765295  0.5397831001476590
  0.9998443878860002  0.0068941646353977  0.5409858449569356
  0.1632546930394909  0.4380069322932130  0.5393118788144946
  0.0001882638331310  0.6173986659619430  0.5399663872181364
  0.1647123857076664  0.5621332718470242  0.5392715930726979
  0.9995929733701701  0.7546518038471888  0.5401826953624465
  0.1617628556565549  0.6862027616691933  0.5395835148430237
  0.9999872260879030  0.8668360931929513  0.5407947175365280
  0.0003382408829111  0.5068514728673676  0.5399726574464268
  0.4999280774510950  0.1187708115965336  0.5409636958435868
  0.5004049331094009  0.2590763038134227  0.5406890767192749
  0.5002076173711600  0.3695854663649882  0.5401860627318911
  0.6648368051055158  0.3135759334587860  0.5397799240766830
  0.4998907154598058  0.0070039478788928  0.5411856985198398
  0.6635433399891610  0.4378499399234386  0.5393135102579549
  0.5019055942490240  0.6179003434519217  0.5398227851812365
  0.6653649535157342  0.5618321137808451  0.5392917927418424
  0.5012027160961239  0.7540296927362391  0.5401331231422262
  0.6637903145471000  0.6863209916631590  0.5394032380580143
  0.5001164777304439  0.8668066482615373  0.5410569802992811
  0.5002502143316789  0.5067679214251726  0.5401486888990519
  0.4413149784182977  0.6862768200649043  0.6039956015213335
 
  0.00000000E+00  0.00000000E+00  0.00000000E+00
  0.00000000E+00  0.00000000E+00  0.00000000E+00
  0.00000000E+00  0.00000000E+00  0.00000000E+00
  0.00000000E+00  0.00000000E+00  0.00000000E+00
  0.00000000E+00  0.00000000E+00  0.00000000E+00
  0.00000000E+00  0.00000000E+00  0.00000000E+00