POSCAR                                  
   1.00000000000000     
     6.5606420793537055   -0.0919789450773587    0.0002888789199298
    -3.3596260378568359    5.6795785479447485   -0.0080599718422737
     0.0020088641246385   -0.0164509184314067    9.8475933212061673
   Al   N    Li   Nb
    10    16     3     3
Direct
  0.1599739512167940  0.3176354080453480  0.0030848401952703
  0.6713664252005487  0.3447839727925868 -0.0004825873992221
  0.1528885217027131  0.8299996864556897 -0.0092089885213084
  0.6652091562455589  0.3416683867504376  0.4929471553632025
  0.1615130524176334  0.8310461628161269  0.5059647183354063
  0.6650496029992994  0.8257464233858114  0.4875126604781573
  0.3285506809073394  0.1569068884777566  0.7492705212419370
  0.8378645542484596  0.6712964631646769  0.7513330865131869
  0.3507394206689278  0.1700302408665714  0.2405075182499792
  0.8332103574885040  0.6648985847516194  0.2445938253249806
  0.1790075085996075  0.3209867541106414  0.2099103295640781
  0.6667975372560153  0.3468489125266266  0.1895710215886182
  0.1593192134653178  0.8521348273769562  0.1903351791512827
  0.6783317443622811  0.8301758552368715  0.2163099444559022
  0.1762429832530243  0.3177643115840666  0.6783435828673514
  0.6548039122394875  0.3379411196611912  0.6868838104466694
  0.1596452335897413  0.8411212833596213  0.6932226813105556
  0.6794827747651161  0.8278581179598183  0.6841301796075545
  0.3300159497413965  0.1667669303203898  0.9425971785821049
  0.8440494880501672  0.1866375535979639  0.9339451136251085
  0.3101105630365634  0.6518556498304032  0.9892212276115794
  0.8380610505808637  0.6555761408604635  0.9376777659625694
  0.3397689706977025  0.1560220789096200  0.4381219166174178
  0.8167993688643496  0.1652604386901509  0.4641088481773358
  0.3292701307546795  0.6790333424427538  0.4415831508615106
  0.8344336016190167  0.6663450729219652  0.4416316919943984
  0.6791151428345227  0.8303090305304988 -0.0071620874373714
  0.3342469333765275  0.6711357149595732  0.7617108791352494
  0.8236042279837003  0.1707337378104856  0.2370934105267517
  0.1643703969249094  0.3321077341771577  0.4710099935414267
  0.8309866122940650  0.1629025479989223  0.7354897422943927
  0.3451709326151668  0.6764706276272340  0.1987416897339242
 
  0.00000000E+00  0.00000000E+00  0.00000000E+00
  0.00000000E+00  0.00000000E+00  0.00000000E+00
  0.00000000E+00  0.00000000E+00  0.00000000E+00
  0.00000000E+00  0.00000000E+00  0.00000000E+00
  0.00000000E+00  0.00000000E+00  0.00000000E+00
  0.00000000E+00  0.00000000E+00  0.00000000E+00
  0.00000000E+00  0.00000000E+00  0.00000000E+00
  0.00000000E+00  0.00000000E+00  0.00000000E+00
  0.00000000E+00  0.00000000E+00  0.00000000E+00
  0.00000000E+00  0.00000000E+00  0.00000000E+00
  0.00000000E+00  0.00000000E+00  0.00000000E+00
  0.00000000E+00  0.00000000E+00  0.00000000E+00
  0.00000000E+00  0.00000000E+00  0.00000000E+00
  0.00000000E+00  0.00000000E+00  0.00000000E+00
  0.00000000E+00  0.00000000E+00  0.00000000E+00
  0.00000000E+00  0.00000000E+00  0.00000000E+00
  0.00000000E+00  0.00000000E+00  0.00000000E+00
  0.00000000E+00  0.00000000E+00  0.00000000E+00
  0.00000000E+00  0.00000000E+00  0.00000000E+00
  0.00000000E+00  0.00000000E+00  0.00000000E+00
  0.00000000E+00  0.00000000E+00  0.00000000E+00
  0.00000000E+00  0.00000000E+00  0.00000000E+00
  0.00000000E+00  0.00000000E+00  0.00000000E+00
  0.00000000E+00  0.00000000E+00  0.00000000E+00
  0.00000000E+00  0.00000000E+00  0.00000000E+00
  0.00000000E+00  0.00000000E+00  0.00000000E+00
  0.00000000E+00  0.00000000E+00  0.00000000E+00
  0.00000000E+00  0.00000000E+00  0.00000000E+00
  0.00000000E+00  0.00000000E+00  0.00000000E+00
  0.00000000E+00  0.00000000E+00  0.00000000E+00
  0.00000000E+00  0.00000000E+00  0.00000000E+00
  0.00000000E+00  0.00000000E+00  0.00000000E+00
