Ta N Cu Ru                              
   1.00000000000000     
    18.1096308199999996    0.0000000000000000    0.0000000000000000
     0.0000000000000000   11.6775998899999998    0.0000000000000000
     0.0000000000000000    0.0000000000000000   23.4818170799999990
   Ta   N    Cu   Ru
   119   120     2     1
Direct
  0.9997376038276490  0.0002377081490631  0.2548222002451535
  0.3334896281476649  0.1250561212749360  0.2636872031904158
  0.1662704097769271  0.1250624961070267  0.2637592514324191
  0.2497632880586962  0.2500315245056625  0.3614645504889409
  0.0822568702527230  0.1250869475607970  0.3685089776962128
  0.4174810403836764  0.1250777500870879  0.3683415858500087
  0.9999010906114321  0.2499052259929964  0.4800717857230421
  0.3325204241514697  0.1251052735105303  0.4779422895410663
  0.1677825297818613  0.1250997614417723  0.4784144715515884
  0.2492975842816496  0.2536741442677417  0.5909610898708942
  0.0859514653086833  0.1249508677366509  0.5912687797999863
  0.4148941487382608  0.1249640137846127  0.5908568997535353
  0.9968936440127372  0.2531837783947101  0.7051373820964367
  0.3395529114217696  0.1247656579360776  0.7074430742819119
  0.9997712217997635  0.2499623754855933  0.2548346024115036
  0.3333652426356921  0.3749920507590405  0.2636581117060268
  0.1664032003662134  0.3751309005947633  0.2638137937530999
  0.2498495449641404  0.5001513994283612  0.3614161012616695
  0.0822715444914318  0.3750010940609877  0.3684093013033004
  0.4173929572253460  0.3750383756074634  0.3683119182610650
  0.9996594659833611  0.4999770988649399  0.4797992772484644
  0.3322759304885819  0.3751545689543204  0.4780756390505613
  0.1677941984102129  0.3749099211952045  0.4782062421001591
  0.2497238255187668  0.5006329354706702  0.5909487208255992
  0.0824205054465760  0.3762272186538060  0.5897311884392751
  0.4160113224357973  0.3752336396201269  0.5896631078024706
  0.9981671376296175  0.5011093290408013  0.7017481732122236
  0.3372081680394383  0.3757225839906642  0.7037726944317714
  0.1686584506707765  0.3715348693242376  0.7051164886497127
  0.9996886942085433  0.4998711030296154  0.2547429223678893
  0.3332119497400508  0.6250420452886437  0.2636576738492534
  0.1665454178700092  0.6250541616762106  0.2638675450301300
  0.2498881420706091  0.7499800268589527  0.3614020129482929
  0.0821789890740813  0.6250540302460746  0.3682704965378819
  0.4173295329687657  0.6250520878897473  0.3681620497226867
  0.9996430670802078  0.7501836045395179  0.4797480625124262
  0.3323186116476103  0.6250096443826390  0.4777909271506307
  0.1676769425084909  0.6250020921069155  0.4777181271717246
  0.2500853099119041  0.7492069156329871  0.5906253507093943
  0.0833781574102957  0.6250872351090728  0.5892247554666881
  0.4164594467874155  0.6250101407583325  0.5896570757588108
  0.9993932282377515  0.7508360705205094  0.7027578867940164
  0.3361984766887531  0.6246112638183394  0.7039519694813436
  0.1664260938699346  0.6271594320132217  0.7028307334049004
  0.9996885506045211  0.7502330021063578  0.2547177577057002
  0.3333055868704261  0.8751758967519297  0.2636718135658090
  0.1664538463232858  0.8750397213081786  0.2637978876472996
  0.2497993380722976  0.0001068475194065  0.3614386945878025
  0.0822619775372148  0.8751469550455189  0.3683377055930312
  0.4174234431348991  0.8750803186463109  0.3682968570086034
  0.9998792998040487  0.0003029660064947  0.4800326307843557
  0.3322970499486710  0.8749620685704380  0.4780099088450019
  0.1678793243246753  0.8752170014071581  0.4780118857304568
  0.2494889086087541  0.9963994851418452  0.5907778291377561
  0.0825262834036226  0.8738726578096596  0.5894001520719788
  0.4160280785958260  0.8747314494623213  0.5895288244318323
  0.9955713275103417  0.9969119621261660  0.7041104286931905
  0.3360708346005192  0.8738002084287728  0.7038157655518874
  0.1643146896568711  0.8782551204530094  0.7062841001752894
  0.4998574424325388  0.9999938667808151  0.2547496080902133
  0.8334334084412823  0.1251187707323422  0.2638798610301217
  0.6664538474148400  0.1250649736931227  0.2639390545008943
  0.7500422885590597  0.2500905536727331  0.3616867119444087
  0.5823844601318945  0.1250547788879124  0.3685067344747268
  0.9173263731194083  0.1250666969661305  0.3686315130955895
  0.4996573025391554  0.2499164131675189  0.4798779426380777
  0.8325741797703515  0.1250557292585086  0.4785549158337683
  0.6677242311717096  0.1250534319421299  0.4781594822308047
  0.7496934366024288  0.2501599033536899  0.5910447321539359
  0.5835884600315933  0.1250939023939863  0.5896759676392107
  0.9166536380612834  0.1251859206411456  0.5905866451127623
  0.5008465166446081  0.2500625224756959  0.7016582709208021
  0.8329538456577523  0.1251080591025560  0.7039039693789118
  0.6635552133297357  0.1250466293159359  0.7041874342285347
  0.4998209290225262  0.2501153398441164  0.2547506837632563
  0.8333436640549730  0.3750340226400510  0.2638702015957154
  0.6665757720572406  0.3749447265579277  0.2639006465717232
  0.7500128146183773  0.4999216951520626  0.3616464116844911
  0.5823629011483501  0.3750033466078694  0.3684202429301733
  0.9173376750973342  0.3750172236257444  0.3685956106968172
  0.4999043006791532  0.5000143053633734  0.4796442408511979
  0.8324897119012544  0.3750134702531981  0.4784110500822816
  0.6676820874608890  0.3750651889586146  0.4780011957890887
  0.7495364945291371  0.5000381669104501  0.5908667946126204
  0.5835046714059475  0.3750599918965985  0.5895745784989257
  0.9159494773932619  0.3747751295027175  0.5904398026026431
  0.5002201809322696  0.4999868840484700  0.7019152840329032
  0.8336272644729136  0.3753680485523101  0.7037955006996357
  0.6640639356640228  0.3751647811116500  0.7041944724704307
  0.4999362812386513  0.4999777652780170  0.2546548831977644
  0.8332433065796625  0.6250753818825578  0.2638774870990599
  0.6667625462106342  0.6250576406502240  0.2639240121014944
  0.7500129693038173  0.7502112095803287  0.3616710990212669
  0.5823652408450321  0.6250495441491849  0.3683550881000498
  0.9173471141238952  0.6250473735059205  0.3684333349626546
  0.4999213181366730  0.7500389777458983  0.4796235980903841
  0.8324035656957853  0.6250528551669248  0.4782288936409406
  0.6676832956574505  0.6250335297345420  0.4779823535077018
  0.7495636548340362  0.7501738970187801  0.5908770167596554
  0.5836249918258472  0.6250285136970459  0.5895155180290964
  0.9158143568344334  0.6252710323377885  0.5900794282102261
  0.4998604690371085  0.7498897745917512  0.7019158039071334
  0.8344515335953830  0.6255135522248179  0.7041154035311977
  0.6641930155040476  0.6253796140721434  0.7043435274614468
  0.4999509912665873  0.7501348517616080  0.2546581779806483
  0.8333374941173497  0.8751170775263797  0.2639029705006716
  0.6666002462176855  0.8751900330076402  0.2639090450510043
  0.7500336103939890  0.0000295828542117  0.3617011158592889
  0.5823816485943285  0.8751041747336942  0.3684486164751031
  0.9173517581741459  0.8751063582328009  0.3685933190963268
  0.4996564581112275  0.0002038846937616  0.4798637167388612
  0.8324993434588145  0.8751528027549872  0.4784295632545953
  0.6677240154977806  0.8750370987730791  0.4780335346498215
  0.7497683680699297  0.0000158296388294  0.5911122991490539
  0.5834678389985788  0.8750412733411552  0.5895790704929315
  0.9159273907749899  0.8753912629826079  0.5904329723291195
  0.5005628941111250  0.9998691164939313  0.7016115858195362
  0.8339048808758993  0.8749786871771507  0.7043105807512037
  0.6638961211620786  0.8751919747610708  0.7040328513303452
  0.4067379709119640  0.0001088149978603  0.3011277436680635
  0.2498420144620581  0.0002095559189679  0.2579019493791870
  0.0928851329800758  0.0003032285510090  0.3011853500292395
  0.1542562764637800  0.2499499660077172  0.4100614104168573
  0.9998893876712082  0.2501131897133221  0.3933280973099331
  0.3453806415772508  0.2500423118229520  0.4098729502136279
  0.4006325951784808  0.2497939845624716  0.5220864710466558
  0.2500010470360172  0.2499917192801627  0.5028669747540935
  0.0986209806002806  0.2490628611102844  0.5224179798384500
  0.1509759954305960  0.2586441596112596  0.6328911700261344
  0.0008873398441387  0.2499256054371955  0.6154763289265861
  0.3481522173584594  0.2514495735197135  0.6336148440745314
  0.4049364322266490  0.2513108265184326  0.7413480202012357
  0.2523895606545036  0.2528700001273060  0.7257923212999213
  0.0874165106632519  0.2752695682203197  0.7547399175078835
  0.4067136593829641  0.2500352679864992  0.3011370505717122
  0.2498405522158167  0.2499689867647725  0.2580690437957350
  0.0929015936887303  0.2498821037860278  0.3012158157509668
  0.1541667181140948  0.4999126911820460  0.4098519979656199
  0.9998387037631515  0.5000221029688161  0.3931081735170840
  0.3455484264293489  0.5000672659807998  0.4097475073481427
  0.4009294608479504  0.5000620752082225  0.5217137942610212
  0.2498640329956776  0.5004584665635791  0.5027411443186609
  0.0987898611494479  0.5000478451800471  0.5218146260625567
  0.1511959479660363  0.4998694439687674  0.6334247016026521
  0.9995401179091203  0.5006147349877361  0.6134323496673437
  0.3485235006390073  0.5005155063713496  0.6330651476349082
  0.4038762216161499  0.5011353312721104  0.7407433878774586
  0.2503568861700144  0.4971238265673990  0.7232633201205014
  0.0977983713499075  0.5054693593784716  0.7407068860039144
  0.4067337400899488  0.4999647326683045  0.3009622821105677
  0.2499094255727735  0.4999302913466959  0.2574345595633005
  0.0928989374468685  0.4999329965812608  0.3010894419335644
  0.1541639547002446  0.7501238961507555  0.4097756482565056
  0.9998389635915684  0.7500868179244704  0.3930625728633556
  0.3455932374219833  0.7499733292361249  0.4097150142223879
  0.4009272638625336  0.7499282522914594  0.5217059078529805
  0.2499322646772265  0.7495430992800982  0.5025044908350004
  0.0988004093922867  0.7499756567420188  0.5216854846179030
  0.1517188503027049  0.7503180444826576  0.6324679434238725
  0.9997537449379643  0.7497242834225525  0.6140383430689375
  0.3485889725161399  0.7495694878914219  0.6330406272037159
  0.4033327241671491  0.7490856668065249  0.7406397176050457
  0.2498706653227879  0.7512141851016784  0.7227038634494490
  0.0982181052960019  0.7454739035177758  0.7387096012546666
  0.4067333492531006  0.7501430898089573  0.3009601170690523
  0.2499107613399019  0.7501621399628280  0.2574141075897365
  0.0928976229824700  0.7501597024755675  0.3010616535419404
  0.1542750678959937  0.0002557067236190  0.4099978421064790
  0.9998873866785917  0.0000504183023562  0.3933054077629416
  0.3454256571406124  0.0001498770005467  0.4098386712121787
  0.4006295309756046  0.0003038595472335  0.5220762950567472
  0.2500414882668923  0.0002415811057734  0.5027027120148675
  0.0986952899653257  0.0011403336930241  0.5222695688289611
  0.1513072997461281  0.9909484511180657  0.6326459059976498
  0.0008116055616934  0.0002218398483935  0.6146665483793289
  0.3481163147349178  0.9980865316510702  0.6335973270305738
  0.4045301610725907  0.9980398034261460  0.7412328300302595
  0.2515941974246846  0.9973101957503847  0.7254572288436187
  0.0832207094679177  0.9662123607277870  0.7508148669559732
  0.9066905534062679  0.0001298622582874  0.3013665542379284
  0.7499890763684348  0.0001785225885275  0.2577802377798014
  0.5929629414651972  0.0001155278441117  0.3012087366551821
  0.6543047900342367  0.2500574072098269  0.4099349412882048
  0.4998289991121627  0.2500988951648615  0.3931596546743313
  0.8456322899577684  0.2499752904283291  0.4102069795851489
  0.9011749133466243  0.2498928654189935  0.5225790016012615
  0.7500299220442418  0.2501683064998728  0.5029218897855854
  0.5988798445279262  0.2500783263079177  0.5217997974806899
  0.6513264589441009  0.2502699110607224  0.6331613099455765
  0.4996251773255292  0.2497641281734647  0.6130750722236131
  0.8477627415324789  0.2501541229613385  0.6335684245719621
  0.9008217555436062  0.2512921302430364  0.7411893266056437
  0.7487881802226395  0.2501913856166484  0.7239628025046356
  0.5966278613462634  0.2503591062685143  0.7407955481802445
  0.9066942914344530  0.2500391216819466  0.3013557853478798
  0.7499646517547179  0.2499778381228138  0.2577405289687860
  0.5929503863536358  0.2499841919588694  0.3012017928096006
  0.6542707508218266  0.4999931356408288  0.4098449727122171
  0.4998259614486831  0.5000293417570659  0.3929513604287053
  0.8455915008588829  0.5000050886329417  0.4100660485151668
  0.9008561732457249  0.4999051027682387  0.5222967518267736
  0.7499890516491063  0.5000294766648780  0.5027506202814209
  0.5989899564690924  0.5000309714929606  0.5217740580523297
  0.6513321705549933  0.5001854608671975  0.6331240411217566
  0.5000285646834213  0.5000162947671434  0.6131061613362218
  0.8476790788381636  0.5002699767190251  0.6331414412900958
  0.9023310361284582  0.5002823128617399  0.7404788000888451
  0.7493498367034241  0.5002517085799567  0.7238608661694953
  0.5965863087789286  0.5003594551254886  0.7406269070168013
  0.9066728376004431  0.4999404624706409  0.3012835372543203
  0.7499395875542243  0.4999565218756870  0.2574584142468866
  0.5930355547137964  0.5000017568633562  0.3011321928519326
  0.6542840548325658  0.7501292718276131  0.4098565840075325
  0.4998413072632872  0.7500647666786089  0.3929406299867110
  0.8456058559883483  0.7501349190339954  0.4100803754452143
  0.9008701997990360  0.7502667038386406  0.5223266231752861
  0.7500009583297412  0.7500516783753832  0.5027725911276982
  0.5989792418506872  0.7500681694597798  0.5217770560093449
  0.6513331779990378  0.7499344188784053  0.6331129110357554
  0.4999902292578297  0.7499871853319160  0.6131275494515365
  0.8476619701117524  0.7500423086381011  0.6332178457865542
  0.9021201863327072  0.7496166046959050  0.7406582469249493
  0.7491509107931661  0.7500634558469136  0.7238743788406192
  0.5962413508127785  0.7500216014190269  0.7405204213882448
  0.9066971953758876  0.7501884174704577  0.3012784739571458
  0.7499505283654224  0.7501731845634737  0.2574582264038371
  0.5930439872928568  0.7501357152082363  0.3011385418450944
  0.6543070381803181  0.0000333244693038  0.4099523084811457
  0.4998417060687514  0.0000317268920003  0.3931488672639044
  0.8456242391384264  0.0001497104114963  0.4102121566505143
  0.9011308814197815  0.0003718738061211  0.5225258509932363
  0.7500370610553185  0.0000012010381996  0.5029712549724726
  0.5988569987895238  0.0000195935393577  0.5218071536924556
  0.6512820404495843  0.9999653371006838  0.6330837214022845
  0.4995788993760273  0.0002723337356128  0.6130688416936820
  0.8479030602748294  0.0001969562240752  0.6336097077366858
  0.8994206884656202  0.9998904028683511  0.7417944721633630
  0.7484187448942424  0.0003893138353988  0.7237148366727517
  0.5963310624802987  0.9999498944868493  0.7406542412694337
  0.0936475484884338  0.1197090764249499  0.7649887438101731
  0.0658699492348089  0.4043163998901012  0.8002821433265304
  0.1926708938988219  0.1245169325171452  0.6838891575648286
 
  0.00000000E+00  0.00000000E+00  0.00000000E+00
  0.00000000E+00  0.00000000E+00  0.00000000E+00
  0.00000000E+00  0.00000000E+00  0.00000000E+00
  0.00000000E+00  0.00000000E+00  0.00000000E+00
  0.00000000E+00  0.00000000E+00  0.00000000E+00
  0.00000000E+00  0.00000000E+00  0.00000000E+00
  0.00000000E+00  0.00000000E+00  0.00000000E+00
  0.00000000E+00  0.00000000E+00  0.00000000E+00
  0.00000000E+00  0.00000000E+00  0.00000000E+00
  0.00000000E+00  0.00000000E+00  0.00000000E+00
  0.00000000E+00  0.00000000E+00  0.00000000E+00
  0.00000000E+00  0.00000000E+00  0.00000000E+00
  0.00000000E+00  0.00000000E+00  0.00000000E+00
  0.00000000E+00  0.00000000E+00  0.00000000E+00
  0.00000000E+00  0.00000000E+00  0.00000000E+00
  0.00000000E+00  0.00000000E+00  0.00000000E+00
  0.00000000E+00  0.00000000E+00  0.00000000E+00
  0.00000000E+00  0.00000000E+00  0.00000000E+00
  0.00000000E+00  0.00000000E+00  0.00000000E+00
  0.00000000E+00  0.00000000E+00  0.00000000E+00
  0.00000000E+00  0.00000000E+00  0.00000000E+00
  0.00000000E+00  0.00000000E+00  0.00000000E+00
  0.00000000E+00  0.00000000E+00  0.00000000E+00
  0.00000000E+00  0.00000000E+00  0.00000000E+00
  0.00000000E+00  0.00000000E+00  0.00000000E+00
  0.00000000E+00  0.00000000E+00  0.00000000E+00
  0.00000000E+00  0.00000000E+00  0.00000000E+00
  0.00000000E+00  0.00000000E+00  0.00000000E+00
  0.00000000E+00  0.00000000E+00  0.00000000E+00
  0.00000000E+00  0.00000000E+00  0.00000000E+00
  0.00000000E+00  0.00000000E+00  0.00000000E+00
  0.00000000E+00  0.00000000E+00  0.00000000E+00
  0.00000000E+00  0.00000000E+00  0.00000000E+00
  0.00000000E+00  0.00000000E+00  0.00000000E+00
  0.00000000E+00  0.00000000E+00  0.00000000E+00
  0.00000000E+00  0.00000000E+00  0.00000000E+00
  0.00000000E+00  0.00000000E+00  0.00000000E+00
  0.00000000E+00  0.00000000E+00  0.00000000E+00
  0.00000000E+00  0.00000000E+00  0.00000000E+00
  0.00000000E+00  0.00000000E+00  0.00000000E+00
  0.00000000E+00  0.00000000E+00  0.00000000E+00
  0.00000000E+00  0.00000000E+00  0.00000000E+00
  0.00000000E+00  0.00000000E+00  0.00000000E+00
  0.00000000E+00  0.00000000E+00  0.00000000E+00
  0.00000000E+00  0.00000000E+00  0.00000000E+00
  0.00000000E+00  0.00000000E+00  0.00000000E+00
  0.00000000E+00  0.00000000E+00  0.00000000E+00
  0.00000000E+00  0.00000000E+00  0.00000000E+00
  0.00000000E+00  0.00000000E+00  0.00000000E+00
  0.00000000E+00  0.00000000E+00  0.00000000E+00
  0.00000000E+00  0.00000000E+00  0.00000000E+00
  0.00000000E+00  0.00000000E+00  0.00000000E+00
  0.00000000E+00  0.00000000E+00  0.00000000E+00
  0.00000000E+00  0.00000000E+00  0.00000000E+00
  0.00000000E+00  0.00000000E+00  0.00000000E+00
  0.00000000E+00  0.00000000E+00  0.00000000E+00
  0.00000000E+00  0.00000000E+00  0.00000000E+00
  0.00000000E+00  0.00000000E+00  0.00000000E+00
  0.00000000E+00  0.00000000E+00  0.00000000E+00
  0.00000000E+00  0.00000000E+00  0.00000000E+00
  0.00000000E+00  0.00000000E+00  0.00000000E+00
  0.00000000E+00  0.00000000E+00  0.00000000E+00
  0.00000000E+00  0.00000000E+00  0.00000000E+00
  0.00000000E+00  0.00000000E+00  0.00000000E+00
  0.00000000E+00  0.00000000E+00  0.00000000E+00
  0.00000000E+00  0.00000000E+00  0.00000000E+00
  0.00000000E+00  0.00000000E+00  0.00000000E+00
  0.00000000E+00  0.00000000E+00  0.00000000E+00
  0.00000000E+00  0.00000000E+00  0.00000000E+00
  0.00000000E+00  0.00000000E+00  0.00000000E+00
  0.00000000E+00  0.00000000E+00  0.00000000E+00
  0.00000000E+00  0.00000000E+00  0.00000000E+00
  0.00000000E+00  0.00000000E+00  0.00000000E+00
  0.00000000E+00  0.00000000E+00  0.00000000E+00
  0.00000000E+00  0.00000000E+00  0.00000000E+00
  0.00000000E+00  0.00000000E+00  0.00000000E+00
  0.00000000E+00  0.00000000E+00  0.00000000E+00
  0.00000000E+00  0.00000000E+00  0.00000000E+00
  0.00000000E+00  0.00000000E+00  0.00000000E+00
  0.00000000E+00  0.00000000E+00  0.00000000E+00
  0.00000000E+00  0.00000000E+00  0.00000000E+00
  0.00000000E+00  0.00000000E+00  0.00000000E+00
  0.00000000E+00  0.00000000E+00  0.00000000E+00
  0.00000000E+00  0.00000000E+00  0.00000000E+00
  0.00000000E+00  0.00000000E+00  0.00000000E+00
  0.00000000E+00  0.00000000E+00  0.00000000E+00
  0.00000000E+00  0.00000000E+00  0.00000000E+00
  0.00000000E+00  0.00000000E+00  0.00000000E+00
  0.00000000E+00  0.00000000E+00  0.00000000E+00
  0.00000000E+00  0.00000000E+00  0.00000000E+00
  0.00000000E+00  0.00000000E+00  0.00000000E+00
  0.00000000E+00  0.00000000E+00  0.00000000E+00
  0.00000000E+00  0.00000000E+00  0.00000000E+00
  0.00000000E+00  0.00000000E+00  0.00000000E+00
  0.00000000E+00  0.00000000E+00  0.00000000E+00
  0.00000000E+00  0.00000000E+00  0.00000000E+00
  0.00000000E+00  0.00000000E+00  0.00000000E+00
  0.00000000E+00  0.00000000E+00  0.00000000E+00
  0.00000000E+00  0.00000000E+00  0.00000000E+00
  0.00000000E+00  0.00000000E+00  0.00000000E+00
  0.00000000E+00  0.00000000E+00  0.00000000E+00
  0.00000000E+00  0.00000000E+00  0.00000000E+00
  0.00000000E+00  0.00000000E+00  0.00000000E+00
  0.00000000E+00  0.00000000E+00  0.00000000E+00
  0.00000000E+00  0.00000000E+00  0.00000000E+00
  0.00000000E+00  0.00000000E+00  0.00000000E+00
  0.00000000E+00  0.00000000E+00  0.00000000E+00
  0.00000000E+00  0.00000000E+00  0.00000000E+00
  0.00000000E+00  0.00000000E+00  0.00000000E+00
  0.00000000E+00  0.00000000E+00  0.00000000E+00
  0.00000000E+00  0.00000000E+00  0.00000000E+00
  0.00000000E+00  0.00000000E+00  0.00000000E+00
  0.00000000E+00  0.00000000E+00  0.00000000E+00
  0.00000000E+00  0.00000000E+00  0.00000000E+00
  0.00000000E+00  0.00000000E+00  0.00000000E+00
  0.00000000E+00  0.00000000E+00  0.00000000E+00
  0.00000000E+00  0.00000000E+00  0.00000000E+00
  0.00000000E+00  0.00000000E+00  0.00000000E+00
  0.00000000E+00  0.00000000E+00  0.00000000E+00
  0.00000000E+00  0.00000000E+00  0.00000000E+00
  0.00000000E+00  0.00000000E+00  0.00000000E+00
  0.00000000E+00  0.00000000E+00  0.00000000E+00
  0.00000000E+00  0.00000000E+00  0.00000000E+00
  0.00000000E+00  0.00000000E+00  0.00000000E+00
  0.00000000E+00  0.00000000E+00  0.00000000E+00
  0.00000000E+00  0.00000000E+00  0.00000000E+00
  0.00000000E+00  0.00000000E+00  0.00000000E+00
  0.00000000E+00  0.00000000E+00  0.00000000E+00
  0.00000000E+00  0.00000000E+00  0.00000000E+00
  0.00000000E+00  0.00000000E+00  0.00000000E+00
  0.00000000E+00  0.00000000E+00  0.00000000E+00
  0.00000000E+00  0.00000000E+00  0.00000000E+00
  0.00000000E+00  0.00000000E+00  0.00000000E+00
  0.00000000E+00  0.00000000E+00  0.00000000E+00
  0.00000000E+00  0.00000000E+00  0.00000000E+00
  0.00000000E+00  0.00000000E+00  0.00000000E+00
  0.00000000E+00  0.00000000E+00  0.00000000E+00
  0.00000000E+00  0.00000000E+00  0.00000000E+00
  0.00000000E+00  0.00000000E+00  0.00000000E+00
  0.00000000E+00  0.00000000E+00  0.00000000E+00
  0.00000000E+00  0.00000000E+00  0.00000000E+00
  0.00000000E+00  0.00000000E+00  0.00000000E+00
  0.00000000E+00  0.00000000E+00  0.00000000E+00
  0.00000000E+00  0.00000000E+00  0.00000000E+00
  0.00000000E+00  0.00000000E+00  0.00000000E+00
  0.00000000E+00  0.00000000E+00  0.00000000E+00
  0.00000000E+00  0.00000000E+00  0.00000000E+00
  0.00000000E+00  0.00000000E+00  0.00000000E+00
  0.00000000E+00  0.00000000E+00  0.00000000E+00
  0.00000000E+00  0.00000000E+00  0.00000000E+00
  0.00000000E+00  0.00000000E+00  0.00000000E+00
  0.00000000E+00  0.00000000E+00  0.00000000E+00
  0.00000000E+00  0.00000000E+00  0.00000000E+00
  0.00000000E+00  0.00000000E+00  0.00000000E+00
  0.00000000E+00  0.00000000E+00  0.00000000E+00
  0.00000000E+00  0.00000000E+00  0.00000000E+00
  0.00000000E+00  0.00000000E+00  0.00000000E+00
  0.00000000E+00  0.00000000E+00  0.00000000E+00
  0.00000000E+00  0.00000000E+00  0.00000000E+00
  0.00000000E+00  0.00000000E+00  0.00000000E+00
  0.00000000E+00  0.00000000E+00  0.00000000E+00
  0.00000000E+00  0.00000000E+00  0.00000000E+00
  0.00000000E+00  0.00000000E+00  0.00000000E+00
  0.00000000E+00  0.00000000E+00  0.00000000E+00
  0.00000000E+00  0.00000000E+00  0.00000000E+00
  0.00000000E+00  0.00000000E+00  0.00000000E+00
  0.00000000E+00  0.00000000E+00  0.00000000E+00
  0.00000000E+00  0.00000000E+00  0.00000000E+00
  0.00000000E+00  0.00000000E+00  0.00000000E+00
  0.00000000E+00  0.00000000E+00  0.00000000E+00
  0.00000000E+00  0.00000000E+00  0.00000000E+00
  0.00000000E+00  0.00000000E+00  0.00000000E+00
  0.00000000E+00  0.00000000E+00  0.00000000E+00
  0.00000000E+00  0.00000000E+00  0.00000000E+00
  0.00000000E+00  0.00000000E+00  0.00000000E+00
  0.00000000E+00  0.00000000E+00  0.00000000E+00
  0.00000000E+00  0.00000000E+00  0.00000000E+00
  0.00000000E+00  0.00000000E+00  0.00000000E+00
  0.00000000E+00  0.00000000E+00  0.00000000E+00
  0.00000000E+00  0.00000000E+00  0.00000000E+00
  0.00000000E+00  0.00000000E+00  0.00000000E+00
  0.00000000E+00  0.00000000E+00  0.00000000E+00
  0.00000000E+00  0.00000000E+00  0.00000000E+00
  0.00000000E+00  0.00000000E+00  0.00000000E+00
  0.00000000E+00  0.00000000E+00  0.00000000E+00
  0.00000000E+00  0.00000000E+00  0.00000000E+00
  0.00000000E+00  0.00000000E+00  0.00000000E+00
  0.00000000E+00  0.00000000E+00  0.00000000E+00
  0.00000000E+00  0.00000000E+00  0.00000000E+00
  0.00000000E+00  0.00000000E+00  0.00000000E+00
  0.00000000E+00  0.00000000E+00  0.00000000E+00
  0.00000000E+00  0.00000000E+00  0.00000000E+00
  0.00000000E+00  0.00000000E+00  0.00000000E+00
  0.00000000E+00  0.00000000E+00  0.00000000E+00
  0.00000000E+00  0.00000000E+00  0.00000000E+00
  0.00000000E+00  0.00000000E+00  0.00000000E+00
  0.00000000E+00  0.00000000E+00  0.00000000E+00
  0.00000000E+00  0.00000000E+00  0.00000000E+00
  0.00000000E+00  0.00000000E+00  0.00000000E+00
  0.00000000E+00  0.00000000E+00  0.00000000E+00
  0.00000000E+00  0.00000000E+00  0.00000000E+00
  0.00000000E+00  0.00000000E+00  0.00000000E+00
  0.00000000E+00  0.00000000E+00  0.00000000E+00
  0.00000000E+00  0.00000000E+00  0.00000000E+00
  0.00000000E+00  0.00000000E+00  0.00000000E+00
  0.00000000E+00  0.00000000E+00  0.00000000E+00
  0.00000000E+00  0.00000000E+00  0.00000000E+00
  0.00000000E+00  0.00000000E+00  0.00000000E+00
  0.00000000E+00  0.00000000E+00  0.00000000E+00
  0.00000000E+00  0.00000000E+00  0.00000000E+00
  0.00000000E+00  0.00000000E+00  0.00000000E+00
  0.00000000E+00  0.00000000E+00  0.00000000E+00
  0.00000000E+00  0.00000000E+00  0.00000000E+00
  0.00000000E+00  0.00000000E+00  0.00000000E+00
  0.00000000E+00  0.00000000E+00  0.00000000E+00
  0.00000000E+00  0.00000000E+00  0.00000000E+00
  0.00000000E+00  0.00000000E+00  0.00000000E+00
  0.00000000E+00  0.00000000E+00  0.00000000E+00
  0.00000000E+00  0.00000000E+00  0.00000000E+00
  0.00000000E+00  0.00000000E+00  0.00000000E+00
  0.00000000E+00  0.00000000E+00  0.00000000E+00
  0.00000000E+00  0.00000000E+00  0.00000000E+00
  0.00000000E+00  0.00000000E+00  0.00000000E+00
  0.00000000E+00  0.00000000E+00  0.00000000E+00
  0.00000000E+00  0.00000000E+00  0.00000000E+00
  0.00000000E+00  0.00000000E+00  0.00000000E+00
  0.00000000E+00  0.00000000E+00  0.00000000E+00
  0.00000000E+00  0.00000000E+00  0.00000000E+00
  0.00000000E+00  0.00000000E+00  0.00000000E+00
  0.00000000E+00  0.00000000E+00  0.00000000E+00
  0.00000000E+00  0.00000000E+00  0.00000000E+00
  0.00000000E+00  0.00000000E+00  0.00000000E+00
  0.00000000E+00  0.00000000E+00  0.00000000E+00
  0.00000000E+00  0.00000000E+00  0.00000000E+00
  0.00000000E+00  0.00000000E+00  0.00000000E+00
  0.00000000E+00  0.00000000E+00  0.00000000E+00
  0.00000000E+00  0.00000000E+00  0.00000000E+00
  0.00000000E+00  0.00000000E+00  0.00000000E+00
  0.00000000E+00  0.00000000E+00  0.00000000E+00
  0.00000000E+00  0.00000000E+00  0.00000000E+00
  0.00000000E+00  0.00000000E+00  0.00000000E+00
  0.00000000E+00  0.00000000E+00  0.00000000E+00
