Mo  S Co                                
   1.00000000000000     
    15.9214998300000001    0.0000000000000000    0.0000000000000000
    -7.9622501300000001   13.7910221699999997    0.0000000000000000
     0.0000000000000000    0.0000000000000000   13.5821998300000004
   Mo   S    Co
    25    49     4
Direct
  0.1341061838083536  0.0683441236495054  0.6757946822641716
  0.1340388680357009  0.2661877729467127  0.6696524399582581
  0.1343400325884637  0.4650759027043115  0.6760880474264305
  0.1338271747528749  0.6661190270298324  0.6787243690758816
  0.1337040572862113  0.8669469389488281  0.6786375171833383
  0.3337188218949222  0.0679904761607794  0.6777893725205277
  0.3317327918365999  0.2699937857231148  0.6726537596595896
  0.3327836777624570  0.4614981295868019  0.6731117651497475
  0.3338952264776662  0.6652946800168159  0.6780848527697215
  0.3334450437694570  0.8664559234211977  0.6795008189660416
  0.5334234241113636  0.0664549273352227  0.6798163468126086
  0.5337308494825936  0.2654874919308520  0.6759818711206218
  0.5329246266011028  0.4661075562346547  0.6743693600182090
  0.5335206313757346  0.6670930677984973  0.6772502692091575
  0.5334752359405710  0.8663703630723977  0.6800455529742270
  0.7337324789990084  0.0665535930915023  0.6804120970183211
  0.7340824672914060  0.2666710597254680  0.6795062427326458
  0.7335792060253242  0.4663543992245291  0.6778102950962808
  0.7334674541290043  0.6663998284312005  0.6780051793275730
  0.7338826953923819  0.8666411413674283  0.6797132383609011
  0.9342683214215560  0.0670107970726684  0.6784761367903446
  0.9344139194286059  0.2665388261465580  0.6784904490501819
  0.9339771099226483  0.4662099687930653  0.6788074703678643
  0.9337527167810373  0.6665033110933678  0.6787851330647321
  0.9337423139711368  0.8668957935986390  0.6787223826104924
  0.0647933645464484  0.1316975323800484  0.5592217862018583
  0.0725074390547202  0.1388156124632471  0.7906842654648853
  0.0651601925305999  0.3325137031335803  0.5594905430904615
  0.0726529222067574  0.3325882217596154  0.7904895312438049
  0.0669949201748470  0.5330864645067441  0.5631672800103423
  0.0682776069731854  0.5319864066805587  0.7926463136385172
  0.0672170564178865  0.7332058863819396  0.5639072716521916
  0.0672463036893503  0.7332768165311402  0.7937135883802466
  0.0666810650353459  0.9328988891234407  0.5629944984437351
  0.0680723780598815  0.9354540275707006  0.7924916377282447
  0.2678700367618434  0.1348750877310231  0.5606337537859580
  0.2669725906777342  0.1391655396681944  0.7907093213273648
  0.2655597152270402  0.3327397021474662  0.5563389453526116
  0.2681797852705269  0.5324491260993370  0.5611236946168046
  0.2673284661919037  0.5273662670893294  0.7906936377090940
  0.2673314147258731  0.7331376454360949  0.5640285154764841
  0.2669675520639948  0.7318126112009088  0.7937784149300328
  0.2671762387458621  0.9334500119375235  0.5639292767532517
  0.2668986502836572  0.9346799556553715  0.7936495375531267
  0.4667828423435173  0.1317870982226707  0.5628687428258907
  0.4662803068924961  0.1340767689814875  0.7933632184483317
  0.4659262563814864  0.3314583865088450  0.5598843909887404
  0.4634832018196377  0.3326892457456925  0.7881401338698183
  0.4661811185516823  0.5341222783697661  0.5603469772982849
  0.4634800775335112  0.5288798449046338  0.7898385101063777
  0.4670652954503273  0.7341403638554248  0.5635139176557948
  0.4662713918848493  0.7318301864425329  0.7939102822901833
  0.4670261046712633  0.9331285175233518  0.5649648047851008
  0.4664274393152434  0.9330106231311286  0.7949454538649362
  0.6670574561437635  0.1328966131374489  0.5651378807518868
  0.6669944446625321  0.1335777205042315  0.7951262834863403
  0.6682576794063726  0.3329970656109963  0.5627389682604271
  0.6660800669368065  0.3331426874490214  0.7930522675061284
  0.6684248175061875  0.5338769814701879  0.5615928759097557
  0.6652076314644849  0.5321265745538337  0.7915189344363798
  0.6676543987816427  0.7342305148817602  0.5633565356016420
  0.6662878322709436  0.7322918909343952  0.7935492995474596
  0.6669789237136413  0.9334630471307568  0.5652402670785645
  0.6670262895296762  0.9329300459944589  0.7952873491650938
  0.8662617589994773  0.1328122433912277  0.5645539043983372
  0.8683457180419700  0.1338281954941881  0.7943970711373278
  0.8669364413742338  0.3327781865612732  0.5641151205787819
  0.8682498414675774  0.3333416898661407  0.7943414404005006
  0.8675995486122069  0.5332105490116721  0.5636348850736397
  0.8667639607253329  0.5328669763010061  0.7934862107327152
  0.8673502305710750  0.7334699913883274  0.5636490779618125
  0.8667372264024094  0.7331213885618159  0.7935084046956068
  0.8665624250701737  0.9332297367151023  0.5641185845996453
  0.8681355530738293  0.9341076239772049  0.7943390369189658
  0.2806016763598980  0.3337974881456802  0.9962481866124689
  0.4183727752642095  0.3239799462117789  0.9492097933062034
  0.4178535622807846  0.4843188973780744  0.9517351562075327
  0.4265474578143020  0.4085207044013237  0.0971856575509838
 
  0.00000000E+00  0.00000000E+00  0.00000000E+00
  0.00000000E+00  0.00000000E+00  0.00000000E+00
  0.00000000E+00  0.00000000E+00  0.00000000E+00
  0.00000000E+00  0.00000000E+00  0.00000000E+00
  0.00000000E+00  0.00000000E+00  0.00000000E+00
  0.00000000E+00  0.00000000E+00  0.00000000E+00
  0.00000000E+00  0.00000000E+00  0.00000000E+00
  0.00000000E+00  0.00000000E+00  0.00000000E+00
  0.00000000E+00  0.00000000E+00  0.00000000E+00
  0.00000000E+00  0.00000000E+00  0.00000000E+00
  0.00000000E+00  0.00000000E+00  0.00000000E+00
  0.00000000E+00  0.00000000E+00  0.00000000E+00
  0.00000000E+00  0.00000000E+00  0.00000000E+00
  0.00000000E+00  0.00000000E+00  0.00000000E+00
  0.00000000E+00  0.00000000E+00  0.00000000E+00
  0.00000000E+00  0.00000000E+00  0.00000000E+00
  0.00000000E+00  0.00000000E+00  0.00000000E+00
  0.00000000E+00  0.00000000E+00  0.00000000E+00
  0.00000000E+00  0.00000000E+00  0.00000000E+00
  0.00000000E+00  0.00000000E+00  0.00000000E+00
  0.00000000E+00  0.00000000E+00  0.00000000E+00
  0.00000000E+00  0.00000000E+00  0.00000000E+00
  0.00000000E+00  0.00000000E+00  0.00000000E+00
  0.00000000E+00  0.00000000E+00  0.00000000E+00
  0.00000000E+00  0.00000000E+00  0.00000000E+00
  0.00000000E+00  0.00000000E+00  0.00000000E+00
  0.00000000E+00  0.00000000E+00  0.00000000E+00
  0.00000000E+00  0.00000000E+00  0.00000000E+00
  0.00000000E+00  0.00000000E+00  0.00000000E+00
  0.00000000E+00  0.00000000E+00  0.00000000E+00
  0.00000000E+00  0.00000000E+00  0.00000000E+00
  0.00000000E+00  0.00000000E+00  0.00000000E+00
  0.00000000E+00  0.00000000E+00  0.00000000E+00
  0.00000000E+00  0.00000000E+00  0.00000000E+00
  0.00000000E+00  0.00000000E+00  0.00000000E+00
  0.00000000E+00  0.00000000E+00  0.00000000E+00
  0.00000000E+00  0.00000000E+00  0.00000000E+00
  0.00000000E+00  0.00000000E+00  0.00000000E+00
  0.00000000E+00  0.00000000E+00  0.00000000E+00
  0.00000000E+00  0.00000000E+00  0.00000000E+00
  0.00000000E+00  0.00000000E+00  0.00000000E+00
  0.00000000E+00  0.00000000E+00  0.00000000E+00
  0.00000000E+00  0.00000000E+00  0.00000000E+00
  0.00000000E+00  0.00000000E+00  0.00000000E+00
  0.00000000E+00  0.00000000E+00  0.00000000E+00
  0.00000000E+00  0.00000000E+00  0.00000000E+00
  0.00000000E+00  0.00000000E+00  0.00000000E+00
  0.00000000E+00  0.00000000E+00  0.00000000E+00
  0.00000000E+00  0.00000000E+00  0.00000000E+00
  0.00000000E+00  0.00000000E+00  0.00000000E+00
  0.00000000E+00  0.00000000E+00  0.00000000E+00
  0.00000000E+00  0.00000000E+00  0.00000000E+00
  0.00000000E+00  0.00000000E+00  0.00000000E+00
  0.00000000E+00  0.00000000E+00  0.00000000E+00
  0.00000000E+00  0.00000000E+00  0.00000000E+00
  0.00000000E+00  0.00000000E+00  0.00000000E+00
  0.00000000E+00  0.00000000E+00  0.00000000E+00
  0.00000000E+00  0.00000000E+00  0.00000000E+00
  0.00000000E+00  0.00000000E+00  0.00000000E+00
  0.00000000E+00  0.00000000E+00  0.00000000E+00
  0.00000000E+00  0.00000000E+00  0.00000000E+00
  0.00000000E+00  0.00000000E+00  0.00000000E+00
  0.00000000E+00  0.00000000E+00  0.00000000E+00
  0.00000000E+00  0.00000000E+00  0.00000000E+00
  0.00000000E+00  0.00000000E+00  0.00000000E+00
  0.00000000E+00  0.00000000E+00  0.00000000E+00
  0.00000000E+00  0.00000000E+00  0.00000000E+00
  0.00000000E+00  0.00000000E+00  0.00000000E+00
  0.00000000E+00  0.00000000E+00  0.00000000E+00
  0.00000000E+00  0.00000000E+00  0.00000000E+00
  0.00000000E+00  0.00000000E+00  0.00000000E+00
  0.00000000E+00  0.00000000E+00  0.00000000E+00
  0.00000000E+00  0.00000000E+00  0.00000000E+00
  0.00000000E+00  0.00000000E+00  0.00000000E+00
  0.00000000E+00  0.00000000E+00  0.00000000E+00
  0.00000000E+00  0.00000000E+00  0.00000000E+00
  0.00000000E+00  0.00000000E+00  0.00000000E+00
  0.00000000E+00  0.00000000E+00  0.00000000E+00
