Mo  S Co                                
   1.00000000000000     
    15.9214998300000001    0.0000000000000000    0.0000000000000000
    -7.9622501300000001   13.7910221699999997    0.0000000000000000
     0.0000000000000000    0.0000000000000000   13.5821998300000004
   Mo   S    Co
    25    49     4
Direct
  0.1332880424350336  0.0672441994077886  0.6757824710446698
  0.1355479569098605  0.2679657400216726  0.6714991779849981
  0.1318062760591943  0.4641116490694586  0.6713086939218869
  0.1323698057991152  0.6651162324150661  0.6744973704287816
  0.1326689919873800  0.8658267137951938  0.6766336146000640
  0.3326870450583286  0.0658808293136275  0.6780128872900235
  0.3313090866592816  0.2662431896049000  0.6761054860309983
  0.3247068844035397  0.4608603767340327  0.6713893313697596
  0.3312158813961119  0.6640606960424762  0.6768098334262973
  0.3322716047692325  0.8651319440445135  0.6775104738879207
  0.5327286587067093  0.0647110638503747  0.6790584209951547
  0.5326870674303947  0.2641468278212571  0.6794447304680631
  0.5291584717796951  0.4629370503310710  0.6877923242140227
  0.5310570271544677  0.6647467538040814  0.6844382013714636
  0.5323816154563588  0.8650528696125761  0.6805772121289095
  0.7331605193267947  0.0650352521868101  0.6802721230595523
  0.7332229819271561  0.2643404835854284  0.6786019903071292
  0.7345075699904200  0.4634931693589763  0.6752352911329993
  0.7329574611918304  0.6659996517068407  0.6843980334908437
  0.7327113152154681  0.8652163451570658  0.6837070562510519
  0.9338317296188947  0.0662624347291541  0.6789197685855441
  0.9337192954105618  0.2649364296043828  0.6763109993603962
  0.9330483313148292  0.4647653214442613  0.6740901682560789
  0.9327223276425372  0.6650637918633819  0.6767277268141569
  0.9329244586090866  0.8658581319220033  0.6794259475851092
  0.0651964551691151  0.1323121979862734  0.5602459683945966
  0.0722277854837756  0.1387299182144375  0.7904894010438994
  0.0646608423850026  0.3291283048013227  0.5573369196356310
  0.0714278276102007  0.3336335886581097  0.7887216099932388
  0.0653688498967426  0.5323740529571452  0.5577932235659304
  0.0663083333326782  0.5308415688174293  0.7880075350255211
  0.0655028550520527  0.7328887432132873  0.5607740827877876
  0.0665387221906144  0.7316720350603418  0.7907380393284811
  0.0649386831584593  0.9321992451483467  0.5623480203566302
  0.0678193183846076  0.9341180959277509  0.7919939667647213
  0.2681553454477950  0.1343685118293081  0.5615533025722712
  0.2642543790125345  0.1343893939554874  0.7916065337109188
  0.2669673643743309  0.3302857552147600  0.5581162967466895
  0.2669455553458846  0.5329864959685153  0.5568307190778725
  0.2597277281746955  0.5265503189249401  0.7891511051279423
  0.2669912490944526  0.7327703845566802  0.5610859609835757
  0.2640588913202180  0.7304782592164898  0.7912964310509878
  0.2665822958617525  0.9329386744283212  0.5623714098085131
  0.2652417680010331  0.9319560268860982  0.7924502017560187
  0.4664883049178599  0.1320923026953267  0.5639286399965684
  0.4652107484123675  0.1303185261832525  0.7940087997408369
  0.4670753198757822  0.3337939664219860  0.5673488246573584
  0.4585683338045143  0.3232358990440858  0.8030174768280318
  0.4666768187651016  0.5307760045107202  0.5685655063626740
  0.4435617894823451  0.5263350584545705  0.7991038938405524
  0.4677038466437509  0.7311471629272930  0.5660145207799090
  0.4623173790890291  0.7318115192816990  0.7955756600761319
  0.4668188625826346  0.9315350968163258  0.5639251638440257
  0.4645127573897483  0.9314682912747756  0.7941822222541930
  0.6662836556008997  0.1306452665387852  0.5642163816422752
  0.6663540140601185  0.1319504256384221  0.7943649556341441
  0.6646389616583193  0.3291983033963675  0.5629311033349751
  0.6669510128584406  0.3319925805222184  0.7943214662690110
  0.6615211812397419  0.5311110339945131  0.5703783249989982
  0.6768080830081971  0.5301204768407359  0.7995132712651269
  0.6646389030157138  0.7308973923905171  0.5704077422565774
  0.6656914733209334  0.7326125560642325  0.8054230362263368
  0.6665332414081746  0.9305883263325256  0.5668120186913157
  0.6656159136878870  0.9329215956900256  0.7966448844245235
  0.8652605709225298  0.1301959073309575  0.5636804073216624
  0.8681171015739864  0.1336315083837647  0.7938628458763901
  0.8648533061405104  0.3296259294309465  0.5612128620626891
  0.8685747315740926  0.3327978672884768  0.7912124843062358
  0.8661156331105602  0.5323120448326861  0.5597046147397151
  0.8684134746863350  0.5311398282066193  0.7904507974522659
  0.8626464387129431  0.7313525284563340  0.5653940386029674
  0.8693882487940812  0.7330667898529839  0.7950394463221357
  0.8640234371572220  0.9310980020952471  0.5660443276919267
  0.8690081230649582  0.9343058977927754  0.7958240422482419
  0.4372343234416860  0.4223124537975664  0.9006164889379704
  0.5847138931754756  0.4274440088970834  0.9108205638182909
  0.5849709030280010  0.5794324557989867  0.8638349483069234
  0.5459903115143447  0.5063005851005684  0.0173644743964232
 
  0.00000000E+00  0.00000000E+00  0.00000000E+00
  0.00000000E+00  0.00000000E+00  0.00000000E+00
  0.00000000E+00  0.00000000E+00  0.00000000E+00
  0.00000000E+00  0.00000000E+00  0.00000000E+00
  0.00000000E+00  0.00000000E+00  0.00000000E+00
  0.00000000E+00  0.00000000E+00  0.00000000E+00
  0.00000000E+00  0.00000000E+00  0.00000000E+00
  0.00000000E+00  0.00000000E+00  0.00000000E+00
  0.00000000E+00  0.00000000E+00  0.00000000E+00
  0.00000000E+00  0.00000000E+00  0.00000000E+00
  0.00000000E+00  0.00000000E+00  0.00000000E+00
  0.00000000E+00  0.00000000E+00  0.00000000E+00
  0.00000000E+00  0.00000000E+00  0.00000000E+00
  0.00000000E+00  0.00000000E+00  0.00000000E+00
  0.00000000E+00  0.00000000E+00  0.00000000E+00
  0.00000000E+00  0.00000000E+00  0.00000000E+00
  0.00000000E+00  0.00000000E+00  0.00000000E+00
  0.00000000E+00  0.00000000E+00  0.00000000E+00
  0.00000000E+00  0.00000000E+00  0.00000000E+00
  0.00000000E+00  0.00000000E+00  0.00000000E+00
  0.00000000E+00  0.00000000E+00  0.00000000E+00
  0.00000000E+00  0.00000000E+00  0.00000000E+00
  0.00000000E+00  0.00000000E+00  0.00000000E+00
  0.00000000E+00  0.00000000E+00  0.00000000E+00
  0.00000000E+00  0.00000000E+00  0.00000000E+00
  0.00000000E+00  0.00000000E+00  0.00000000E+00
  0.00000000E+00  0.00000000E+00  0.00000000E+00
  0.00000000E+00  0.00000000E+00  0.00000000E+00
  0.00000000E+00  0.00000000E+00  0.00000000E+00
  0.00000000E+00  0.00000000E+00  0.00000000E+00
  0.00000000E+00  0.00000000E+00  0.00000000E+00
  0.00000000E+00  0.00000000E+00  0.00000000E+00
  0.00000000E+00  0.00000000E+00  0.00000000E+00
  0.00000000E+00  0.00000000E+00  0.00000000E+00
  0.00000000E+00  0.00000000E+00  0.00000000E+00
  0.00000000E+00  0.00000000E+00  0.00000000E+00
  0.00000000E+00  0.00000000E+00  0.00000000E+00
  0.00000000E+00  0.00000000E+00  0.00000000E+00
  0.00000000E+00  0.00000000E+00  0.00000000E+00
  0.00000000E+00  0.00000000E+00  0.00000000E+00
  0.00000000E+00  0.00000000E+00  0.00000000E+00
  0.00000000E+00  0.00000000E+00  0.00000000E+00
  0.00000000E+00  0.00000000E+00  0.00000000E+00
  0.00000000E+00  0.00000000E+00  0.00000000E+00
  0.00000000E+00  0.00000000E+00  0.00000000E+00
  0.00000000E+00  0.00000000E+00  0.00000000E+00
  0.00000000E+00  0.00000000E+00  0.00000000E+00
  0.00000000E+00  0.00000000E+00  0.00000000E+00
  0.00000000E+00  0.00000000E+00  0.00000000E+00
  0.00000000E+00  0.00000000E+00  0.00000000E+00
  0.00000000E+00  0.00000000E+00  0.00000000E+00
  0.00000000E+00  0.00000000E+00  0.00000000E+00
  0.00000000E+00  0.00000000E+00  0.00000000E+00
  0.00000000E+00  0.00000000E+00  0.00000000E+00
  0.00000000E+00  0.00000000E+00  0.00000000E+00
  0.00000000E+00  0.00000000E+00  0.00000000E+00
  0.00000000E+00  0.00000000E+00  0.00000000E+00
  0.00000000E+00  0.00000000E+00  0.00000000E+00
  0.00000000E+00  0.00000000E+00  0.00000000E+00
  0.00000000E+00  0.00000000E+00  0.00000000E+00
  0.00000000E+00  0.00000000E+00  0.00000000E+00
  0.00000000E+00  0.00000000E+00  0.00000000E+00
  0.00000000E+00  0.00000000E+00  0.00000000E+00
  0.00000000E+00  0.00000000E+00  0.00000000E+00
  0.00000000E+00  0.00000000E+00  0.00000000E+00
  0.00000000E+00  0.00000000E+00  0.00000000E+00
  0.00000000E+00  0.00000000E+00  0.00000000E+00
  0.00000000E+00  0.00000000E+00  0.00000000E+00
  0.00000000E+00  0.00000000E+00  0.00000000E+00
  0.00000000E+00  0.00000000E+00  0.00000000E+00
  0.00000000E+00  0.00000000E+00  0.00000000E+00
  0.00000000E+00  0.00000000E+00  0.00000000E+00
  0.00000000E+00  0.00000000E+00  0.00000000E+00
  0.00000000E+00  0.00000000E+00  0.00000000E+00
  0.00000000E+00  0.00000000E+00  0.00000000E+00
  0.00000000E+00  0.00000000E+00  0.00000000E+00
  0.00000000E+00  0.00000000E+00  0.00000000E+00
  0.00000000E+00  0.00000000E+00  0.00000000E+00
