Mo  S Cu                                
   1.00000000000000     
    15.9214998300000001    0.0000000000000000    0.0000000000000000
    -7.9622501300000001   13.7910221699999997    0.0000000000000000
     0.0000000000000000    0.0000000000000000   13.5821998300000004
    25    50     3
Direct
  0.1304425162829722  0.0645879238813062  0.6776323003463963
  0.1307336820587645  0.2651403200517395  0.6775227199695502
  0.1329422293242961  0.4660780928051421  0.6771155040179565
  0.1331954030237140  0.6663453796482756  0.6765368159888187
  0.1326467783661671  0.8658797432957741  0.6763203007753735
  0.3328447966737169  0.0664563097729563  0.6780920037949951
  0.3304787523054077  0.2640904306588541  0.6775817701305624
  0.3329396278022831  0.4669733254359140  0.6799124784958023
  0.3329542127869170  0.6664888807118333  0.6780546458031955
  0.3331258858402859  0.8663038184081473  0.6777460444482022
  0.5340680282036532  0.0670431613349373  0.6804399446111999
  0.5346072448828664  0.2665513412017277  0.6843758235028058
  0.5329539978567354  0.4656302227969570  0.6850797305679504
  0.5333396360363215  0.6660621983950831  0.6793343346941274
  0.5333372155094880  0.8664291939858215  0.6777566369157549
  0.7325319133020548  0.0655869026831775  0.6763345317559660
  0.7338849201959446  0.2654202180047002  0.6753886047335446
  0.7338444997579103  0.4669721181379037  0.6771013820449747
  0.7329185302072350  0.6663804388582530  0.6770230602282066
  0.7324354372543842  0.8657393704167858  0.6766971099656284
  0.9320289335789506  0.0653998391917519  0.6764434067806250
  0.9324466635433963  0.2656795818154898  0.6758450365703009
  0.9327714051753062  0.4659643847455054  0.6758293184162714
  0.9330962728736640  0.6663688812595897  0.6758287323188018
  0.9321125375648195  0.8654213551902515  0.6757614165852948
  0.0656127331699735  0.1324276975913209  0.5617001255349947
  0.0641134866669129  0.1315848053896368  0.7923946989114878
  0.0662354869009372  0.3328026694479500  0.5613427683107036
  0.0642063344019684  0.3324331781475408  0.7921589892287424
  0.0668136940756193  0.5328917837345889  0.5613711285467657
  0.0658086378136520  0.5327775208004408  0.7914833425581816
  0.0666772089822722  0.7328705426764566  0.5608243744628464
  0.0660665596920112  0.7326787752515644  0.7915124249333891
  0.0657885407256440  0.9324510713865283  0.5609895135625684
  0.0640484124877540  0.9304419940704671  0.7917545311789818
  0.2655335361571701  0.1322940765713720  0.5638880655229820
  0.2611146102498548  0.1256042889484069  0.7963375659224637
  0.2662943830829003  0.3328297300296387  0.5645497033041821
  0.2615154246240846  0.3347927278309902  0.7953686120864325
  0.2672981327491498  0.5330900593789334  0.5630158714170840
  0.2653449776319856  0.5339964650067367  0.7937092595822045
  0.2671829305221952  0.7333840164089397  0.5621283946664999
  0.2657878386986820  0.7329234023134539  0.7928145069390207
  0.2673733965530329  0.9340388051648204  0.5623404549436395
  0.2656146871647320  0.9318419916105046  0.7922048189341788
  0.4676232239507240  0.1347782724430970  0.5662830786757648
  0.4685240839201854  0.1324510302317073  0.8009180938430669
  0.4664570333453638  0.3324611128939307  0.5696760127780810
  0.4770134038103316  0.3378346155958688  0.8114953260869736
  0.4668757000522674  0.5310936069655299  0.5662247105700593
  0.4654443534318212  0.5342136648389437  0.7965760163902911
  0.4665841723757815  0.7323232149025167  0.5632998536743733
  0.4664987128484321  0.7335246299052213  0.7933512378695324
  0.4669704738842587  0.9342258077472652  0.5634654644357131
  0.4661517548280726  0.9320482749093973  0.7936358311448602
  0.6648776994474518  0.1318208591951342  0.5618766022086027
  0.6672154580822921  0.1344487776096459  0.7962957216888015
  0.6645517789767941  0.3322103807658920  0.5634753584607879
  0.6715799864899179  0.3337843321886299  0.7956477312182143
  0.6631937567050749  0.5308928922408543  0.5649809444356730
  0.6689943542390288  0.5334083684835954  0.7979097030120680
  0.6651368075874972  0.7317859342311450  0.5622246276447935
  0.6673899152832625  0.7336357300190699  0.7932721163937342
  0.6656786526421338  0.9323591397053766  0.5614357425593447
  0.6667322927949499  0.9328914330845650  0.7924930007762736
  0.8653992483089883  0.1319331199187364  0.5609099865564660
  0.8657948217198336  0.1324329604234872  0.7914574145790155
  0.8663444216512390  0.3325825360350028  0.5600383271361586
  0.8671448175091250  0.3329402124709158  0.7913305015618119
  0.8656583606790543  0.5327181313892466  0.5608052585125177
  0.8680596557869028  0.5338190393808908  0.7918723201451995
  0.8650660838444837  0.7319492673666771  0.5607076125571848
  0.8667668467147583  0.7329849322466705  0.7915378676773916
  0.8652561226698183  0.9322557652615714  0.5608923374559976
  0.8656973986075410  0.9320690576429186  0.7914439798188497
  0.3297862478491757  0.2648259575329381  0.8772609271433637
  0.6070043487822622  0.3918502931792592  0.9171706980524559
  0.5979721435461457  0.2085794632612500  0.9115421182337070
 
  0.00000000E+00  0.00000000E+00  0.00000000E+00
  0.00000000E+00  0.00000000E+00  0.00000000E+00
  0.00000000E+00  0.00000000E+00  0.00000000E+00
  0.00000000E+00  0.00000000E+00  0.00000000E+00
  0.00000000E+00  0.00000000E+00  0.00000000E+00
  0.00000000E+00  0.00000000E+00  0.00000000E+00
  0.00000000E+00  0.00000000E+00  0.00000000E+00
  0.00000000E+00  0.00000000E+00  0.00000000E+00
  0.00000000E+00  0.00000000E+00  0.00000000E+00
  0.00000000E+00  0.00000000E+00  0.00000000E+00
  0.00000000E+00  0.00000000E+00  0.00000000E+00
  0.00000000E+00  0.00000000E+00  0.00000000E+00
  0.00000000E+00  0.00000000E+00  0.00000000E+00
  0.00000000E+00  0.00000000E+00  0.00000000E+00
  0.00000000E+00  0.00000000E+00  0.00000000E+00
  0.00000000E+00  0.00000000E+00  0.00000000E+00
  0.00000000E+00  0.00000000E+00  0.00000000E+00
  0.00000000E+00  0.00000000E+00  0.00000000E+00
  0.00000000E+00  0.00000000E+00  0.00000000E+00
  0.00000000E+00  0.00000000E+00  0.00000000E+00
  0.00000000E+00  0.00000000E+00  0.00000000E+00
  0.00000000E+00  0.00000000E+00  0.00000000E+00
  0.00000000E+00  0.00000000E+00  0.00000000E+00
  0.00000000E+00  0.00000000E+00  0.00000000E+00
  0.00000000E+00  0.00000000E+00  0.00000000E+00
  0.00000000E+00  0.00000000E+00  0.00000000E+00
  0.00000000E+00  0.00000000E+00  0.00000000E+00
  0.00000000E+00  0.00000000E+00  0.00000000E+00
  0.00000000E+00  0.00000000E+00  0.00000000E+00
  0.00000000E+00  0.00000000E+00  0.00000000E+00
  0.00000000E+00  0.00000000E+00  0.00000000E+00
  0.00000000E+00  0.00000000E+00  0.00000000E+00
  0.00000000E+00  0.00000000E+00  0.00000000E+00
  0.00000000E+00  0.00000000E+00  0.00000000E+00
  0.00000000E+00  0.00000000E+00  0.00000000E+00
  0.00000000E+00  0.00000000E+00  0.00000000E+00
  0.00000000E+00  0.00000000E+00  0.00000000E+00
  0.00000000E+00  0.00000000E+00  0.00000000E+00
  0.00000000E+00  0.00000000E+00  0.00000000E+00
  0.00000000E+00  0.00000000E+00  0.00000000E+00
  0.00000000E+00  0.00000000E+00  0.00000000E+00
  0.00000000E+00  0.00000000E+00  0.00000000E+00
  0.00000000E+00  0.00000000E+00  0.00000000E+00
  0.00000000E+00  0.00000000E+00  0.00000000E+00
  0.00000000E+00  0.00000000E+00  0.00000000E+00
  0.00000000E+00  0.00000000E+00  0.00000000E+00
  0.00000000E+00  0.00000000E+00  0.00000000E+00
  0.00000000E+00  0.00000000E+00  0.00000000E+00
  0.00000000E+00  0.00000000E+00  0.00000000E+00
  0.00000000E+00  0.00000000E+00  0.00000000E+00
  0.00000000E+00  0.00000000E+00  0.00000000E+00
  0.00000000E+00  0.00000000E+00  0.00000000E+00
  0.00000000E+00  0.00000000E+00  0.00000000E+00
  0.00000000E+00  0.00000000E+00  0.00000000E+00
  0.00000000E+00  0.00000000E+00  0.00000000E+00
  0.00000000E+00  0.00000000E+00  0.00000000E+00
  0.00000000E+00  0.00000000E+00  0.00000000E+00
  0.00000000E+00  0.00000000E+00  0.00000000E+00
  0.00000000E+00  0.00000000E+00  0.00000000E+00
  0.00000000E+00  0.00000000E+00  0.00000000E+00
  0.00000000E+00  0.00000000E+00  0.00000000E+00
  0.00000000E+00  0.00000000E+00  0.00000000E+00
  0.00000000E+00  0.00000000E+00  0.00000000E+00
  0.00000000E+00  0.00000000E+00  0.00000000E+00
  0.00000000E+00  0.00000000E+00  0.00000000E+00
  0.00000000E+00  0.00000000E+00  0.00000000E+00
  0.00000000E+00  0.00000000E+00  0.00000000E+00
  0.00000000E+00  0.00000000E+00  0.00000000E+00
  0.00000000E+00  0.00000000E+00  0.00000000E+00
  0.00000000E+00  0.00000000E+00  0.00000000E+00
  0.00000000E+00  0.00000000E+00  0.00000000E+00
  0.00000000E+00  0.00000000E+00  0.00000000E+00
  0.00000000E+00  0.00000000E+00  0.00000000E+00
  0.00000000E+00  0.00000000E+00  0.00000000E+00
  0.00000000E+00  0.00000000E+00  0.00000000E+00
  0.00000000E+00  0.00000000E+00  0.00000000E+00
  0.00000000E+00  0.00000000E+00  0.00000000E+00
  0.00000000E+00  0.00000000E+00  0.00000000E+00
