Cu	N	Ru	Ta                              
   1.00000000000000     
    18.1096308199999996    0.0000000000000000    0.0000000000000000
     0.0000000000000000   23.3551997799999995    0.0000000000000000
     0.0000000000000000    0.0000000000000000   30.4818171199999988
   Cu   N    Ru   Ta
     4   240    24   216
Selective dynamics
Direct
  0.1022620391043178  0.0550703937805064  0.5875604041734862   T   T   T
  0.4318929297234367  0.3901173194962300  0.6248193278916250   T   T   T
  0.4383169542073478  0.4916215455298364  0.6231051047364486   T   T   T
  0.5475896741690521  0.4381884424645354  0.6116690816964163   T   T   T
  0.0000000000000000  0.0000770226766207  0.3028264943543491   F   F   F
  0.0000000000000000  0.5000770226766207  0.3028264943543491   F   F   F
  0.0000000000000000  0.6248851796377153  0.3029475127301708   F   F   F
  0.0000000000000000  0.7500770228907001  0.3028264943543491   F   F   F
  0.0000000000000000  0.8748851798518018  0.3029475127301708   F   F   F
  0.0000000000000000  0.1248851796377153  0.3029475127301708   F   F   F
  0.0000000000000000  0.2500770228907001  0.3028264943543491   F   F   F
  0.0000000000000000  0.3748851798518018  0.3029475127301708   F   F   F
  0.0004503897460315  0.5004656340675070  0.4754244165580193   T   T   T
  0.0004461859913776  0.7506043132171287  0.4715905960608141   T   T   T
  0.0008097441092708  0.8747595195088519  0.4744101658581404   T   T   T
  0.0012062860746335  0.0000327344076864  0.4728096497561255   T   T   T
  0.0022598660451062  0.2486950375828287  0.4709263975851067   T   T   T
  0.0038130776237970  0.1233167059890101  0.4741789881736012   T   T   T
  0.5728514642811544  0.0135065453860554  0.5638782320493860   T   T   T
  0.5870436179720918  0.3767755652810207  0.5706562569474208   T   T   T
  0.5871437046456650  0.4999517688990660  0.5694351918745758   T   T   T
  0.5891774978615230  0.6252402627929469  0.5721088850754292   T   T   T
  0.5891123673693659  0.7529775197039483  0.5685769980451268   T   T   T
  0.5943504772119894  0.6250779795299195  0.2321437935324795   F   F   F
  0.5943504772119894  0.8750779797440060  0.2321437935324795   F   F   F
  0.5943504772119894  0.1250779795299195  0.2321437935324795   F   F   F
  0.5943504772119894  0.3750779797440060  0.2321437935324795   F   F   F
  0.5943930523482663  0.9999373617004466  0.2321734905809336   F   F   F
  0.5943930523482663  0.4999373617004466  0.2321734905809336   F   F   F
  0.5943930523482663  0.7499373619145331  0.2321734905809336   F   F   F
  0.5943930523482663  0.2499373619145331  0.2321734905809336   F   F   F
  0.5940811032679685  0.8781919167789926  0.5716493267829288   T   T   T
  0.5948492195595008  0.2515939089531222  0.5699816081809015   T   T   T
  0.5979477701026099  0.5008828556265408  0.4013361732786766   T   T   T
  0.5979717305133649  0.6247887987865119  0.4017982331658300   T   T   T
  0.5979734362545167  0.3747432202837991  0.4012231651640863   T   T   T
  0.5984086378464933  0.7507928905915180  0.4017353043476808   T   T   T
  0.5987775549940983  0.8745859827073187  0.4021289396053340   T   T   T
  0.5983727858620356  0.2497067879786095  0.4015542871035833   T   T   T
  0.5997201571485380  0.0000561347279889  0.4011562187897139   T   T   T
  0.5995826218588000  0.1245858394911686  0.4015829210339660   T   T   T
  0.6218696306815754  0.1280366188549042  0.5712672527873102   T   T   T
  0.6458773788242067  0.4961649680571551  0.4864923920223227   T   T   T
  0.6457720238721103  0.6295369687872587  0.4869757808805761   T   T   T
  0.6458094074135259  0.3805251825148239  0.4857798022678142   T   T   T
  0.6476232602478328  0.7458800913391282  0.4869395797191524   T   T   T
  0.6478098465927258  0.8821590283012660  0.4891533846053497   T   T   T
  0.6484280110838941  0.2467474271646527  0.4859397940407228   T   T   T
  0.6509451019807346  0.9993727004950720  0.4865871718244424   T   T   T
  0.6533844213227076  0.1265927690897934  0.4858810417138068   T   T   T
  0.6547082680948861  0.6251230654212776  0.3157550047659328   F   F   F
  0.6547082680948861  0.8751230656353641  0.3157550047659328   F   F   F
  0.6547082680948861  0.1251230654212776  0.3157550047659328   F   F   F
  0.6547082680948861  0.3751230656353641  0.3157550047659328   F   F   F
  0.6547523877132235  0.9998547719551993  0.3156484409089586   F   F   F
  0.6547523877132235  0.4998547719551993  0.3156484409089586   F   F   F
  0.6547523877132235  0.7498547721692859  0.3156484409089586   F   F   F
  0.6547523877132235  0.2498547721692859  0.3156484409089586   F   F   F
  0.7429757099202159  0.9456511897798928  0.5700020651314806   T   T   T
  0.7456406937087910  0.3140553931855793  0.5084325963694188   T   T   T
  0.7455191735377003  0.4401566061451316  0.5730123919617358   T   T   T
  0.7474265509882365  0.5629232934456663  0.5117313415421637   T   T   T
  0.7474612906659567  0.6887397130950076  0.5720921148934991   T   T   T
  0.7496127913725598  0.6249247151067534  0.3890922202483894   T   T   T
  0.7497726803402464  0.5005506166568829  0.3888189218801520   T   T   T
  0.7490794068300201  0.8129733964732462  0.5122397931506959   T   T   T
  0.7496755360968483  0.7505573292072480  0.3889152851955395   T   T   T
  0.7498678153469069  0.3749746130626639  0.3883836788407466   T   T   T
  0.7499150731160329  0.8749185534491959  0.3893103454790146   T   T   T
  0.7503811509590368  0.2503299171957143  0.3882180036856442   T   T   T
  0.7499999997239044  0.0000513585844359  0.1992858820091215   F   F   F
  0.7499999997239044  0.5000513585844431  0.1992858820091215   F   F   F
  0.7499999997239044  0.6250070552811167  0.1993925282102751   F   F   F
  0.7499999997239044  0.7500513587985225  0.1992858820091215   F   F   F
  0.7499999997239044  0.8750070554952032  0.1993925282102751   F   F   F
  0.7499999997239044  0.1250070552811167  0.1993925282102751   F   F   F
  0.7499999997239044  0.2500513587985225  0.1992858820091215   F   F   F
  0.7499999997239044  0.3750070554952032  0.1993925282102751   F   F   F
  0.7506123963468068  0.0002349780809330  0.3880003252840517   T   T   T
  0.7510904690514687  0.1248438905599138  0.3872765265024737   T   T   T
  0.7617375357279033  0.2199770468286923  0.5714209806337965   T   T   T
  0.7865233988339666  0.1093722506305709  0.5629226103700716   T   T   T
  0.0815536141795652  0.9806421470958394  0.5753673551076663   T   T   T
  0.8452476122867765  0.9998547719551993  0.3156484409089586   F   F   F
  0.8452476122867765  0.4998547719551993  0.3156484409089586   F   F   F
  0.8452476122867765  0.7498547721692859  0.3156484409089586   F   F   F
  0.8452476122867765  0.2498547721692859  0.3156484409089586   F   F   F
  0.8452917319051139  0.6251230654212776  0.3157550047659328   F   F   F
  0.8452917319051139  0.8751230656353641  0.3157550047659328   F   F   F
  0.8452917319051139  0.1251230654212776  0.3157550047659328   F   F   F
  0.8452917319051139  0.3751230656353641  0.3157550047659328   F   F   F
  0.0873493990969064  0.3750004697364421  0.5700281278481758   T   T   T
  0.8484739791226188  0.9986468423636812  0.4882588491423357   T   T   T
  0.8496164519539459  0.3800954848492125  0.4876607055192589   T   T   T
  0.8506860630412107  0.4964487073007208  0.4863344284539944   T   T   T
  0.8508241086586295  0.6299781164465645  0.4863915145001869   T   T   T
  0.8507640582030259  0.7461543230446145  0.4865722408104984   T   T   T
  0.8514914659719458  0.8804315802417986  0.4875556603000138   T   T   T
  0.8519032258850541  0.2442823443323387  0.4865347715612739   T   T   T
  0.8529903497630388  0.1292450774316702  0.4866817292920080   T   T   T
  0.8991926740057388  0.3796021320164107  0.5705015036332827   T   T   T
  0.9005723222919045  0.7508989806983707  0.4014274266081225   T   T   T
  0.9008663311096493  0.6245152200818682  0.4017111585338561   T   T   T
  0.9013935111265607  0.5002501262876524  0.4020041482309374   T   T   T
  0.9011535544332137  0.8751898686205636  0.4021252338313762   T   T   T
  0.9016127648614155  0.3744351794009028  0.4024981609080182   T   T   T
  0.9014899115277378  0.0005622276504422  0.4020741720215972   T   T   T
  0.9017608175340418  0.2499850137828764  0.4015971727835533   T   T   T
  0.9024226294195578  0.1245849184689569  0.4016795156455780   T   T   T
  0.9047705592658098  0.6260611870948383  0.5718671464899927   T   T   T
  0.9056069476517337  0.9999373617004466  0.2321734905809336   F   F   F
  0.9056069476517337  0.4999373617004466  0.2321734905809336   F   F   F
  0.9056069476517337  0.7499373619145331  0.2321734905809336   F   F   F
  0.9056069476517337  0.2499373619145331  0.2321734905809336   F   F   F
  0.9056495227880106  0.6250779795299195  0.2321437935324795   F   F   F
  0.9056495227880106  0.8750779797440060  0.2321437935324795   F   F   F
  0.9056495227880106  0.1250779795299195  0.2321437935324795   F   F   F
  0.9056495227880106  0.3750779797440060  0.2321437935324795   F   F   F
  0.9047735848717807  0.8772600274190164  0.5736735896383159   T   T   T
  0.9073372399374787  0.5031893607743625  0.5701105312174639   T   T   T
  0.9088230063237188  0.7498299464372257  0.5691555232604798   T   T   T
  0.9084476717020539  0.9974840861380379  0.5707285065918165   T   T   T
  0.9212154546619056  0.1328221822305705  0.5752719317702339   T   T   T
  0.0924626150137037  0.7591247072300826  0.5668408439514155   T   T   T
  0.9281733798004754  0.2689027513123626  0.5596946761415803   T   T   T
  0.0943504772119894  0.6250779795299195  0.2321437935324795   F   F   F
  0.0943504772119894  0.8750779797440060  0.2321437935324795   F   F   F
  0.0943504772119894  0.1250779795299195  0.2321437935324795   F   F   F
  0.0943504772119894  0.3750779797440060  0.2321437935324795   F   F   F
  0.0943930523482663  0.9999373617004466  0.2321734905809336   F   F   F
  0.0943930523482663  0.4999373617004466  0.2321734905809336   F   F   F
  0.0943930523482663  0.7499373619145331  0.2321734905809336   F   F   F
  0.0943930523482663  0.2499373619145331  0.2321734905809336   F   F   F
  0.0947510020495797  0.8672794415813467  0.5768278475365888   T   T   T
  0.0966125182915671  0.5083217646889351  0.5687700362945843   T   T   T
  0.0972907378136551  0.6362347098203887  0.5734027033347083   T   T   T
  0.0983902710968171  0.6245630987226366  0.4017084302991512   T   T   T
  0.0982712829213185  0.3744794948602141  0.4027081199779789   T   T   T
  0.0989137874462289  0.5006637257463276  0.4020769966483202   T   T   T
  0.0987522125632875  0.7505417801627176  0.4009561421425900   T   T   T
  0.0989489212977361  0.8745442977320019  0.4017601362166594   T   T   T
  0.9984008236527904  0.3725365418465035  0.4792911137856850   T   T   T
  0.0998158873534401  0.0003278331882260  0.4021088255228635   T   T   T
  0.0000179094082614  0.6257864337808740  0.4746807963470939   T   T   T
  0.1003020111177316  0.2496284727105031  0.4024023511028061   T   T   T
  0.1009810260181206  0.1238544801414864  0.4027258065610521   T   T   T
  0.1040541264635803  0.1336798660570818  0.5803698399703742   T   T   T
  0.1081756656519952  0.2476776273594656  0.5714128262204861   T   T   T
  0.1479665558692289  0.3815977295345512  0.4872696644733547   T   T   T
  0.1492840457286932  0.8757485637970276  0.4853417339903044   T   T   T
  0.1497521518103021  0.6291352974418845  0.4859996367857181   T   T   T
  0.1507131388958479  0.7470524184084182  0.4842300584410710   T   T   T
  0.1517454753189356  0.4985705609256597  0.4874794800119343   T   T   T
  0.1528958339876177  0.9966533537410669  0.4881324730227060   T   T   T
  0.1547082680948861  0.6251230654212776  0.3157550047659328   F   F   F
  0.1547082680948861  0.8751230656353641  0.3157550047659328   F   F   F
  0.1547082680948861  0.1251230654212776  0.3157550047659328   F   F   F
  0.1547082680948861  0.3751230656353641  0.3157550047659328   F   F   F
  0.1547523877132235  0.9998547719551993  0.3156484409089586   F   F   F
  0.1547523877132235  0.4998547719551993  0.3156484409089586   F   F   F
  0.1547523877132235  0.7498547721692859  0.3156484409089586   F   F   F
  0.1547523877132235  0.2498547721692859  0.3156484409089586   F   F   F
  0.1550882960689483  0.2451400305012632  0.4874695380426902   T   T   T
  0.1556900918265684  0.1244651281772211  0.4894214539675644   T   T   T
  0.2392126228692878  0.9810334831092308  0.5617439741307725   T   T   T
  0.2443798619924855  0.4342941168459240  0.5731970365111388   T   T   T
  0.2439718716914142  0.8676687516009461  0.5623228822838034   T   T   T
  0.2458975939279751  0.7364130675448488  0.5693672261587682   T   T   T
  0.2471243946556942  0.6104237383738260  0.5510948816906830   T   T   T
  0.2487567453655604  0.3174822481901129  0.5122326384940947   T   T   T
  0.2493090825399449  0.5002621503389325  0.3873989056251408   T   T   T
  0.2493986153019189  0.6249315577338824  0.3870786574494124   T   T   T
  0.2495669659180215  0.7498694840902100  0.3865016995945089   T   T   T
  0.2498360994163403  0.8745939553132411  0.3868520093671162   T   T   T
  0.2499451691274772  0.3746029700472760  0.3886367550414879   T   T   T
  0.2499999997239044  0.0000513585844359  0.1992858820091215   F   F   F
  0.2499999997239044  0.5000513585844431  0.1992858820091215   F   F   F
  0.2499999997239044  0.6250070552811167  0.1993925282102751   F   F   F
  0.2499999997239044  0.7500513587985225  0.1992858820091215   F   F   F
  0.2499999997239044  0.8750070554952032  0.1993925282102751   F   F   F
  0.2499999997239044  0.1250070552811167  0.1993925282102751   F   F   F
  0.2499999997239044  0.2500513587985225  0.1992858820091215   F   F   F
  0.2499999997239044  0.3750070554952032  0.1993925282102751   F   F   F
  0.2505820256975788  0.9998907075470107  0.3863984221370014   T   T   T
  0.2507407478949092  0.2501441937587011  0.3888036901289231   T   T   T
  0.2511115717241988  0.1243386950074556  0.3879607276586230   T   T   T
  0.2675119418352118  0.2216126538955949  0.5660125350648781   T   T   T
  0.2776797520888503  0.1044598737639752  0.5599192520659332   T   T   T
  0.3445828975119642  0.7472099165030756  0.4881724733374994   T   T   T
  0.3456906966955987  0.4979739467035217  0.4867561122723012   T   T   T
  0.3452476122867765  0.9998547719551993  0.3156484409089586   F   F   F
  0.3452476122867765  0.4998547719551993  0.3156484409089586   F   F   F
  0.3452476122867765  0.7498547721692859  0.3156484409089586   F   F   F
  0.3452476122867765  0.2498547721692859  0.3156484409089586   F   F   F
  0.3452917319051139  0.6251230654212776  0.3157550047659328   F   F   F
  0.3452917319051139  0.8751230656353641  0.3157550047659328   F   F   F
  0.3452917319051139  0.1251230654212776  0.3157550047659328   F   F   F
  0.3452917319051139  0.3751230656353641  0.3157550047659328   F   F   F
  0.3462389519950744  0.8751959087819593  0.4869163363783259   T   T   T
  0.3471559227304054  0.6285183517293004  0.4857523886325790   T   T   T
  0.3476971696520227  0.9960875020002948  0.4866295629237162   T   T   T
  0.3524773750610676  0.2451126876234104  0.4902105169035338   T   T   T
  0.3533220833282682  0.3805925737863169  0.4852172943467111   T   T   T
  0.3533355836944708  0.1253967218800820  0.4864970212484223   T   T   T
  0.3862939749256202  0.3621426082224574  0.5720380913829745   T   T   T
  0.3905274114050569  0.5036816045243036  0.5687309705156389   T   T   T
  0.3958604194743971  0.6281851802115918  0.5738765151008550   T   T   T
  0.3995285951912541  0.5009495876025569  0.4013357876079048   T   T   T
  0.3995343479741775  0.7501024712169613  0.4018379396947548   T   T   T
  0.3974150260476509  0.9890309187989061  0.5714696229158052   T   T   T
  0.4000407753404825  0.6250006602064743  0.4017312792916906   T   T   T
  0.4000939704367644  0.8741182051882308  0.4018166100013164   T   T   T
  0.4005958804300402  0.3743533119885285  0.4019306493764779   T   T   T
  0.4009811081805866  0.9992299130765837  0.4016536669224516   T   T   T
  0.4006289221421666  0.2497562492793823  0.4030536896521524   T   T   T
  0.4006797455908003  0.8742712001781776  0.5740706017391813   T   T   T
  0.4023020582585127  0.1241391563682187  0.4025314766369175   T   T   T
  0.4056069476517337  0.9999373617004466  0.2321734905809336   F   F   F
  0.4056069476517337  0.4999373617004466  0.2321734905809336   F   F   F
  0.4056069476517337  0.7499373619145331  0.2321734905809336   F   F   F
  0.4056069476517337  0.2499373619145331  0.2321734905809336   F   F   F
  0.4056495227880106  0.6250779795299195  0.2321437935324795   F   F   F
  0.4056495227880106  0.8750779797440060  0.2321437935324795   F   F   F
  0.4056495227880106  0.1250779795299195  0.2321437935324795   F   F   F
  0.4056495227880106  0.3750779797440060  0.2321437935324795   F   F   F
  0.4063887585460552  0.7426880672015587  0.5707684240987899   T   T   T
  0.4173342615478047  0.2404263905734800  0.5718592337146755   T   T   T
  0.4325070368994064  0.1138886570733283  0.5680436773591542   T   T   T
  0.4967793034391741  0.6252253320088518  0.4740492982538214   T   T   T
  0.4975352026046982  0.5005496195483189  0.4733125680973946   T   T   T
  0.4976614180568149  0.7495516527233361  0.4721238737503138   T   T   T
  0.4983462180862461  0.3746414177791531  0.4744667154417378   T   T   T
  0.4984686713468278  0.8738812358862645  0.4729757751333417   T   T   T
  0.4995121660129035  0.9981269350100946  0.4710534987987042   T   T   T
  0.5000000000000000  0.0000770226766207  0.3028264943543491   F   F   F
  0.5000000000000000  0.5000770226766207  0.3028264943543491   F   F   F
  0.5000000000000000  0.6248851796377153  0.3029475127301708   F   F   F
  0.5000000000000000  0.7500770228907001  0.3028264943543491   F   F   F
  0.5000000000000000  0.8748851798518018  0.3029475127301708   F   F   F
  0.5000000000000000  0.1248851796377153  0.3029475127301708   F   F   F
  0.5000000000000000  0.2500770228907001  0.3028264943543491   F   F   F
  0.5000000000000000  0.3748851798518018  0.3029475127301708   F   F   F
  0.5000976766002824  0.2494244491607762  0.4736232480313434   T   T   T
  0.5058250164910012  0.1214552550777821  0.4783444634710250   T   T   T
  0.0009208501904418  0.7538032654052836  0.5388207912835066   T   T   T
  0.0008905060390231  0.9946354397500311  0.5401291511338314   T   T   T
  0.0201738952890315  0.2395658040046844  0.5367988211015446   T   T   T
  0.6344256950981292  0.5617084348571009  0.5352252357874455   T   T   T
  0.6366191085191303  0.3131072541046207  0.5331128319106235   T   T   T
  0.6397204407959296  0.8127562318538515  0.5355761963336666   T   T   T
  0.7061846104210664  0.0801423892013963  0.5352482076857242   T   T   T
  0.8484447912393166  0.3154704761555241  0.5345438728523136   T   T   T
  0.8583960543153483  0.5624530614239541  0.5344866100358079   T   T   T
  0.8631733334646257  0.8107653876570030  0.5347275772296641   T   T   T
  0.8676117442529681  0.0619251752963635  0.5380070545016717   T   T   T
  0.0001735186372313  0.5130235272992616  0.5428602964209985   T   T   T
  0.1446077685819823  0.3112905822244913  0.5344348463409782   T   T   T
  0.1492948073761573  0.5701157251109502  0.5388763688479370   T   T   T
  0.1772117961159866  0.8030793852648445  0.5755861565339994   T   T   T
  0.2111238749513349  0.0517106007836771  0.5335467048619900   T   T   T
  0.3328915822194900  0.2857161607132084  0.5488398169023494   T   T   T
  0.3427315886024915  0.5668142316841527  0.5360962347482118   T   T   T
  0.3610508117211281  0.0538493096866061  0.5378266733680164   T   T   T
  0.3739133043559419  0.8072757985630504  0.5401883163659508   T   T   T
  0.4822946299946822  0.9835774803373228  0.5370444452391494   T   T   T
  0.4926280350830498  0.5046324730987359  0.5403855100000839   T   T   T
  0.4985248246796160  0.7442021611453082  0.5394502403471108   T   T   T
  0.5025482294558640  0.2568062742665757  0.5410746711851678   T   T   T
  0.0000000000000000  0.9999830748611132  0.1973415402473861   F   F   F
  0.0000000000000000  0.4999830748611132  0.1973415402473861   F   F   F
  0.0000000000000000  0.6250597900044994  0.1972695212469660   F   F   F
  0.0000000000000000  0.7499830750751997  0.1973415402473861   F   F   F
  0.0000000000000000  0.8750597902185859  0.1972695212469660   F   F   F
  0.0000000000000000  0.1250597900044994  0.1972695212469660   F   F   F
  0.0000000000000000  0.2499830750751997  0.1973415402473861   F   F   F
  0.0000000000000000  0.3750597902185859  0.1972695212469660   F   F   F
  0.0006040538609775  0.0000878260776934  0.3695838466716852   T   T   T
  0.0000887290481874  0.3746008480417293  0.3696687020456638   T   T   T
  0.9999623380210414  0.8751912733606573  0.3695065689153126   T   T   T
  0.0011076177170949  0.2498844466143058  0.3696594708842071   T   T   T
 -0.0000152556437885  0.5002031409395211  0.3695115065955911   T   T   T
  0.0004964979190170  0.8700381030145232  0.5443749893356225   T   T   T
  0.0017249087338829  0.1246644482421456  0.3697005703622796   T   T   T
  0.0024956881630017  0.6213254451962822  0.5440547567358162   T   T   T
  0.0123821860004390  0.1270206811077959  0.5443992339811228   T   T   T
  0.5804899434661087  0.4381183985545510  0.4517520033418730   T   T   T
  0.5807168869936676  0.6879903398058737  0.4526982375872705   T   T   T
  0.5819598595576214  0.5627278096327168  0.4545615730038309   T   T   T
  0.5826029050750527  0.9381209034703510  0.4529562853182915   T   T   T
  0.5824959423441172  0.4374754614066489  0.2839355729984092   F   F   F
  0.5824959423441172  0.6874754611925624  0.2839355729984092   F   F   F
  0.5824959423441172  0.9374754614066489  0.2839355729984092   F   F   F
  0.5824959423441172  0.1874754611925624  0.2839355729984092   F   F   F
  0.5832580141613182  0.8127875241465335  0.4550345752882523   T   T   T
  0.5827651808530874  0.5624885324787385  0.2838652796168972   F   F   F
  0.5827651808530874  0.0624885324787385  0.2838652796168972   F   F   F
  0.5827651808530874  0.8124885322646520  0.2838652796168972   F   F   F
  0.5827651808530874  0.3124885322646520  0.2838652796168972   F   F   F
  0.5832729499216329  0.3125098228986112  0.4537496244196655   T   T   T
  0.5838125758302237  0.1862750818550646  0.4533477267219920   T   T   T
  0.5871965850825889  0.0621926206465276  0.4532584067373940   T   T   T
  0.6456817406364955  0.9477965673226776  0.5464149719119084   T   T   T
  0.6540582933607136  0.6860555151804705  0.5434290603024809   T   T   T
  0.6545873686676580  0.4373323853344007  0.5424077363398417   T   T   T
  0.6659163253997278  0.5625456426731574  0.2025671506292426   F   F   F
  0.6659163253997278  0.0625456426731503  0.2025671506292426   F   F   F
  0.6659163253997278  0.8125456424590709  0.2025671506292426   F   F   F
  0.6659163253997278  0.3125456424590709  0.2025671506292426   F   F   F
  0.6659898017733283  0.4375125970341855  0.2025194438276969   F   F   F
  0.6659898017733283  0.6875125968200990  0.2025194438276969   F   F   F
  0.6659898017733283  0.9375125970341855  0.2025194438276969   F   F   F
  0.6659898017733283  0.1875125968200990  0.2025194438276969   F   F   F
  0.6674058781984995  0.5627423641504312  0.3686120415962081   T   T   T
  0.6677782686996117  0.6876747629289036  0.3686981738259847   T   T   T
  0.6675482136772266  0.8126127952693545  0.3687460759378731   T   T   T
  0.6678434392355092  0.3125282002589535  0.3684790451009117   T   T   T
  0.6679925798324955  0.4376863142885418  0.3683508068059028   T   T   T
  0.6682961592010380  0.9372548223828439  0.3683596957191542   T   T   T
  0.6684360265762681  0.1876447274453333  0.3684435450754975   T   T   T
  0.6685038107420765  0.0623426588024400  0.3679222299523624   T   T   T
  0.6708566225595736  0.1966485700979620  0.5439811728185636   T   T   T
  0.7482053417000223  0.5009561183533028  0.4579353707968737   T   T   T
  0.7484397589635527  0.3760601558533465  0.4571081994839002   T   T   T
  0.7486179802554997  0.6250773913917930  0.4583826688249723   T   T   T
  0.7486988768625490  0.8757127866340773  0.4591128213225163   T   T   T
  0.7492682353775597  0.7513702976674761  0.4581111092558079   T   T   T
  0.7499999997239044  0.0001643475558382  0.2779548773829816   F   F   F
  0.7499999997239044  0.5001643475558382  0.2779548773829816   F   F   F
  0.7499999997239044  0.6249264342623420  0.2780286426703711   F   F   F
  0.7499999997239044  0.7501643477699247  0.2779548773829816   F   F   F
  0.7499999997239044  0.8749264344764285  0.2780286426703711   F   F   F
  0.7499999997239044  0.1249264342623420  0.2780286426703711   F   F   F
  0.7499999997239044  0.2501643477699247  0.2779548773829816   F   F   F
  0.7499999997239044  0.3749264344764285  0.2780286426703711   F   F   F
  0.7501577260833736  0.0011288293913684  0.4559754435904725   T   T   T
  0.7507622747593616  0.2502529690757058  0.4570623549974874   T   T   T
  0.7522043025834639  0.1268789238476220  0.4552123708678878   T   T   T
  0.0824638940590828  0.6879221182497708  0.4520826080269624   T   T   T
  0.0830795929027227  0.4384330730058371  0.4531800495991274   T   T   T
  0.0824959423441172  0.4374754614066489  0.2839355729984092   F   F   F
  0.0824959423441172  0.6874754611925624  0.2839355729984092   F   F   F
  0.0824959423441172  0.9374754614066489  0.2839355729984092   F   F   F
  0.0824959423441172  0.1874754611925624  0.2839355729984092   F   F   F
  0.0827651808530874  0.5624885324787385  0.2838652796168972   F   F   F
  0.0827651808530874  0.0624885324787385  0.2838652796168972   F   F   F
  0.0827651808530874  0.8124885322646520  0.2838652796168972   F   F   F
  0.0827651808530874  0.3124885322646520  0.2838652796168972   F   F   F
  0.8315479624447398  0.6876233834248837  0.3685318216226968   T   T   T
  0.8319514012088270  0.5625850576587315  0.3686708438048056   T   T   T
  0.8318986830008210  0.4375497802488917  0.3686550728618172   T   T   T
  0.8319126652492361  0.8127582989345319  0.3686759888079647   T   T   T
  0.8322130982562580  0.9374954827116343  0.3687433527169632   T   T   T
  0.8325021261293918  0.3124969443503690  0.3685177102891724   T   T   T
  0.8327443171132412  0.1875530144585891  0.3680347194763474   T   T   T
  0.8330465017929407  0.0625513747513617  0.3682012720053282   T   T   T
  0.0841058307535188  0.5626165807608380  0.4550326591846762   T   T   T
  0.8340101684082839  0.4375125970341855  0.2025194438276969   F   F   F
  0.8340101684082839  0.6875125968200990  0.2025194438276969   F   F   F
  0.8340101684082839  0.9375125970341855  0.2025194438276969   F   F   F
  0.8340101684082839  0.1875125968200990  0.2025194438276969   F   F   F
  0.8340836447818845  0.5625456426731574  0.2025671506292426   F   F   F
  0.8340836447818845  0.0625456426731503  0.2025671506292426   F   F   F
  0.8340836447818845  0.8125456424590709  0.2025671506292426   F   F   F
  0.8340836447818845  0.3125456424590709  0.2025671506292426   F   F   F
  0.0838737172716909  0.9374251374716613  0.4536256299589708   T   T   T
  0.8389656852653619  0.4421746168228119  0.5442706823732356   T   T   T
  0.8414982753065517  0.6866366118742212  0.5436134109281471   T   T   T
  0.8408698217395305  0.9372162674061434  0.5449728414032640   T   T   T
  0.0859473933721318  0.3120312061384009  0.4553488109761251   T   T   T
  0.0855829147510972  0.8120971920491804  0.4547152400243967   T   T   T
  0.8485196329667306  0.1865058820577073  0.5449356680704094   T   T   T
  0.0865455987005208  0.1859818263941231  0.4547436328390593   T   T   T
  0.0872949173126319  0.0611927438188270  0.4554314791648656   T   T   T
  0.9142057628943322  0.3119231057635972  0.4551013554445165   T   T   T
  0.9157753832508573  0.5626696603709778  0.4547561190023460   T   T   T
  0.9155642229622402  0.8129223093654278  0.4544282374273707   T   T   T
  0.9168755115890436  0.6879918575180849  0.4521766441347425   T   T   T
  0.9174288712758377  0.4372686532419473  0.4534449563120247   T   T   T
  0.9173830180720206  0.0626699284199037  0.4546837519141510   T   T   T
  0.9172348191469126  0.5624885324787385  0.2838652796168972   F   F   F
  0.9172348191469126  0.0624885324787385  0.2838652796168972   F   F   F
  0.9172348191469126  0.8124885322646520  0.2838652796168972   F   F   F
  0.9172348191469126  0.3124885322646520  0.2838652796168972   F   F   F
  0.9175040576558828  0.4374754614066489  0.2839355729984092   F   F   F
  0.9175040576558828  0.6874754611925624  0.2839355729984092   F   F   F
  0.9175040576558828  0.9374754614066489  0.2839355729984092   F   F   F
  0.9175040576558828  0.1874754611925624  0.2839355729984092   F   F   F
  0.9178601532570789  0.9383442237005314  0.4536200374404846   T   T   T
  0.9198704746120405  0.1871274636930681  0.4529394109673535   T   T   T
  0.9917329558426485  0.3496254307052194  0.5468356969906820   T   T   T
  0.9995229457204178  0.6248168946478553  0.3693089791314438   T   T   T
  0.9995798336365815  0.7502925578454720  0.3691668630211587   T   T   T
  0.1515899202348193  0.4373740556023985  0.5446998309477824   T   T   T
  0.1574524197125155  0.9240046981774330  0.5438642309043048   T   T   T
  0.1615605736300560  0.6922283694825054  0.5407004618338943   T   T   T
  0.1659163253997278  0.5625456426731574  0.2025671506292426   F   F   F
  0.1659163253997278  0.0625456426731503  0.2025671506292426   F   F   F
  0.1659163253997278  0.8125456424590709  0.2025671506292426   F   F   F
  0.1659163253997278  0.3125456424590709  0.2025671506292426   F   F   F
  0.1659898017733283  0.4375125970341855  0.2025194438276969   F   F   F
  0.1659898017733283  0.6875125968200990  0.2025194438276969   F   F   F
  0.1659898017733283  0.9375125970341855  0.2025194438276969   F   F   F
  0.1659898017733283  0.1875125968200990  0.2025194438276969   F   F   F
  0.1671021391754142  0.5624575634816412  0.3679421404541289   T   T   T
  0.1673344619307332  0.6874012965595834  0.3679442669629540   T   T   T
  0.1671971603357670  0.8124756372534968  0.3677830213574100   T   T   T