Ta  N  W Cu                             
   1.00000000000000     
    18.1096308199999996    0.0000000000000000    0.0000000000000000
     0.0000000000000000   23.3551997799999995    0.0000000000000000
     0.0000000000000000    0.0000000000000000   30.4818171199999988
   Ta   N    W    Cu
   216   240    24     1
Direct
  0.0000883219655705  0.0000424932112537  0.1977869339406269
  0.3342906638595693  0.0623876117244464  0.2031913076569012
  0.1656618041132916  0.0624100725382348  0.2031950669369778
  0.2499309012473105  0.1248987844407665  0.2783718246791125
  0.0828974344514748  0.0624803045386528  0.2845031403536353
  0.4171189708332648  0.0624691352630435  0.2844320457040226
  0.0000517911486213  0.1251420889656245  0.3701209551572830
  0.3324008216749093  0.0624774717805749  0.3687558670801749
  0.1673768545241074  0.0624770234104162  0.3688487270983103
  0.2498402954192187  0.1253128163440920  0.4555896534141581
  0.0838750880187149  0.0625785065982001  0.4548971259977179
  0.4160505295367969  0.0625997792096769  0.4547011417820315
  0.3365175058147898  0.0625113900847865  0.5417964772512391
  0.1631861547284075  0.0623122127106797  0.5420609736307753
  0.0001802020305419  0.1248455562608228  0.1977212014326568
  0.3341321218238846  0.1873493766646277  0.2028694277671406
  0.1658085614487845  0.1873649922342793  0.2028974275154454
  0.2499159857599906  0.2501552383041314  0.2781647984166113
  0.0826026716650716  0.1874436821653873  0.2843032270979080
  0.4173674180571822  0.1874257931045449  0.2841301701948069
  0.0000221597192791  0.2500504463558144  0.3697871005561382
  0.3323802498452011  0.1874729473706793  0.3688194258660502
  0.1673945774224350  0.1874994820732283  0.3690304300782969
  0.2495896167433571  0.2501926201503579  0.4552588235006709
  0.0834418078262402  0.1876859027358151  0.4548221596068203
  0.4163284600457828  0.1877074774105196  0.4545219250576977
  0.3348089537621632  0.1876243733596112  0.5414210060252103
  0.1674874713610848  0.1872926946357722  0.5415446987879804
  0.0001385357626873  0.2499634498188783  0.1974829114487804
  0.3341982787486799  0.3123425712049936  0.2026769632487486
  0.1657761024825817  0.3123263433085626  0.2027210871927707
  0.2500307357127269  0.3747583839102546  0.2778789588639512
  0.0829117060045945  0.3124376810952540  0.2840436371779589
  0.4170305384162347  0.3124291232217473  0.2838464229791668
  0.0000004499272492  0.3751520194214422  0.3694524503415266
  0.3324178072286088  0.3124706289003498  0.3681363149731141
  0.1674451953209015  0.3125089347979753  0.3683091500085851
  0.2503676975261158  0.3754068020488432  0.4543781410538656
  0.0836500309580828  0.3128775459410988  0.4544001263412696
  0.4157793476651932  0.3126775967750888  0.4541079823365592
  0.3370451004413582  0.3126847007803590  0.5408948476939699
  0.0001427016959070  0.3748081437470319  0.1972405474346317
  0.3341040332929381  0.4374413511015618  0.2024326907430520
  0.1658446092103887  0.4374366730572277  0.2024575749200324
  0.2499658455621585  0.0000964960610190  0.2784257943251376
  0.0825852460568584  0.4374633075475387  0.2837837751894128
  0.4174948399433447  0.4374664989808892  0.2836344356768237
  0.9999669486952811  0.9999305305941277  0.3702277939888958
  0.3325607013036986  0.4374873740808596  0.3682228408921446
  0.1674174975857028  0.4374964034299254  0.3683182630187645
  0.2498118974842143  0.0000435159950811  0.4558454429290819
  0.0834721482341720  0.4377508978815072  0.4537916122280095
  0.4159926927697128  0.4375856560502882  0.4542076910318258
  0.3344109593441402  0.4377542396457983  0.5406859846125442
  0.0001451357502589  0.5001339921905483  0.1971352904981387
  0.3343074539057156  0.5625215004554605  0.2024976134702143
  0.1657112049776188  0.5625298058083033  0.2025139529554636
  0.2500910284967546  0.6247807259692237  0.2778680124876871
  0.0829235618765409  0.5625189791164047  0.2838042168819683
  0.4171221281491455  0.5625069938849023  0.2836871319814662
  0.9999211984238485  0.6250333673452104  0.3694575523321859
  0.3324859160797260  0.5624998149393150  0.3678585293707641
  0.1675166622044770  0.5625210490076853  0.3679358141308384
  0.2503495765421349  0.6248252834901180  0.4544284662861457
  0.0836884181961182  0.5624398898053045  0.4539032205426849
  0.4156481849998173  0.5624226334096605  0.4539831917605497
  0.3360459671139182  0.5624807044419455  0.5407025725526040
  0.0001054847022459  0.6249133224261740  0.1972421632890615
  0.3340135727475939  0.6877014042930512  0.2026410091963839
  0.1659535531745462  0.6876946424914649  0.2026218112287310
  0.2500362836552625  0.7501937233323090  0.2780622192369293
  0.0825980642599973  0.6875589134319142  0.2839556529226357
  0.4174593738826218  0.6875522597977195  0.2838537507703833
  0.9999487434124390  0.7497824846327958  0.3697360281449420
  0.3325045119337418  0.6875108359947575  0.3684895278319473
  0.1674383850433330  0.6874927992191360  0.3684854350512623
  0.2502129559293920  0.7496724109483779  0.4550605303507993
  0.0837827433243916  0.6873246980252077  0.4541272827230713
  0.4163072153037888  0.6872834128914178  0.4543989398337374
  0.3333459902727611  0.6873593408214660  0.5411628232703478
  0.0001248227039667  0.7502127026105043  0.1974206030458916
  0.3342930737278920  0.8125697876499629  0.2030012346178864
  0.1656724791987969  0.8125769029436185  0.2029518114356463
  0.2499807182355340  0.8748201009821202  0.2784537567529952
  0.0828935042631969  0.8125333112294442  0.2842786659946128
  0.4171212926778765  0.8125508529298315  0.2842465162513790
  0.9999343086793928  0.8749582979280603  0.3701090516465513
  0.3323550596903573  0.8125126347858114  0.3685514675125816
  0.1674168158931124  0.8125003516802707  0.3686255118794932
  0.2498315489352052  0.8746412872680978  0.4557006737889253
  0.0839091048847536  0.8121337834661944  0.4545820282649373
  0.4159951650937472  0.8122748785698164  0.4544776002678930
  0.3360717645295352  0.8124973948511069  0.5414129448478988
  0.1634572306625373  0.8111120686206377  0.5418425972099072
  0.0001048720821188  0.8750268713014009  0.1977219390000755
  0.3342622451098052  0.9375937352329728  0.2031192349325224
  0.1657072923250382  0.9375953303819387  0.2030939881400968
  0.2500759376155912  0.5002143745021570  0.2777520368599724
  0.0826246455112241  0.9375040152819167  0.2844482614561343
  0.4173851096446768  0.9375082356032678  0.2844311709402874
  0.9999974857335303  0.4999344700347734  0.3693194512544693
  0.3323951939895693  0.9375138652603852  0.3690979173568252
  0.1674602185589649  0.9375005249303925  0.3691475680572509
  0.2502727892060150  0.4999293442300399  0.4542515920820023
  0.0835210464705867  0.9373314099080758  0.4549534616127602
  0.4165934776713556  0.9374185470217427  0.4549002973349516
  0.3336708275997395  0.9374470508978305  0.5419676146475396
  0.1657189273154174  0.9369664440570773  0.5421166910183786
  0.5000317566878749  0.0000365821181987  0.1977620916927663
  0.8343325104867034  0.0624302241841050  0.2031768931708271
  0.6656651469621693  0.0624105708058735  0.2031076754215349
  0.7499925330732680  0.1248683660027865  0.2782576044090987
  0.5828359440443549  0.0624808974563180  0.2843917335749566
  0.9171755118478515  0.0624657547508249  0.2844228827550381
  0.4999703657600207  0.1251448294109139  0.3700374092054375
  0.8323986874302705  0.0624487487026713  0.3687106264548135
  0.6674295709590936  0.0624746744698825  0.3687091134850320
  0.7498350499778397  0.1253044164365704  0.4554990690328609
  0.5839677931214950  0.0626518952122481  0.4547846242581599
  0.9160018935577838  0.0625493382693350  0.4546815282543974
  0.8362565684674763  0.0624779568320903  0.5417968490129823
  0.6632527023735193  0.0629097053867014  0.5419956038771545
  0.4999739213535648  0.1248322693270296  0.1976658502863771
  0.8341703941200151  0.1873320086514028  0.2028406276470562
  0.6658743234722024  0.1873216375568916  0.2028021660353119
  0.7500672540517144  0.2501464992978484  0.2779918977925675
  0.5825407499620852  0.1874392977143913  0.2841408473690805
  0.9174545874886348  0.1874308076636737  0.2841250230769532
  0.4999502022055324  0.2500417296646376  0.3696792960484956
  0.8323923048884367  0.1874352433147237  0.3687524351374165
  0.6674183406812588  0.1874827003176165  0.3687508764577530
  0.7499819588743151  0.2502053173389172  0.4547477750909152
  0.5835981826038292  0.1876982967298488  0.4545456456049024
  0.9161682985076709  0.1876834379203061  0.4544810067579164
  0.8331712961213569  0.1872504904058587  0.5413128778211060
  0.6654594334468982  0.1887591115149050  0.5416958741735201
  0.4999661787423406  0.2499479748046909  0.1974326594006115
  0.8342687152561723  0.3123789264350734  0.2026116371386735
  0.6658429853647689  0.3123479692419409  0.2026326159692786
  0.7501204224266758  0.3747787076964784  0.2777118985993283
  0.5828796016910616  0.3124380376073645  0.2838767082659714
  0.9171355719060870  0.3124333479367181  0.2838186706903869
  0.4999563005788445  0.3751448680342477  0.3693883338711359
  0.8324896368966819  0.3125121759088643  0.3680123866647307
  0.6674555127123512  0.3125222331456001  0.3680120393438102
  0.7503640679394223  0.3753895778144454  0.4542527820320075
  0.5839401573430081  0.3128246889280462  0.4540493250693771
  0.9156406543678131  0.3127080336842596  0.4540861478277947
  0.8350342966536317  0.3129590804933073  0.5405693329969878
  0.4999345941708739  0.3747990215109809  0.1972061884516094
  0.8341382532244594  0.4374596788847995  0.2023747481038569
  0.6658836403436155  0.4374530276337509  0.2023916165545714
  0.7499300208130890  0.0001264351054360  0.2784090381313220
  0.5825453383960166  0.4374649450546286  0.2836804670047783
  0.9175447075727732  0.4374821354542746  0.2835803435532256
  0.4999672494434506  0.9999831830228629  0.3702178953626998
  0.8326500876093803  0.4375040470881615  0.3681559176043478
  0.6674277686135852  0.4375029072418783  0.3681844885050509
  0.7498360412647642  0.0000653965306441  0.4558035654183215
  0.5836550917518650  0.4376055541411716  0.4537466395726781
  0.9160273503727012  0.4376180602039597  0.4541393044392237
  0.8341786549570642  0.4376414555487855  0.5406128130562564
  0.4999513173392813  0.5001548696997986  0.1971261852668533
  0.8343155944108602  0.5625129866727008  0.2024539926135063
  0.6656879014397887  0.5625252439142585  0.2024928088422797
  0.7500497652002096  0.6247697929597180  0.2778086313107551
  0.5828746611272990  0.5625091118457206  0.2837419968189536
  0.9171679517846485  0.5625089933409910  0.2836208472738377
  0.4999452117965788  0.6249946239519844  0.3694763103438348
  0.8325086364444019  0.5625095460411913  0.3677801194999830
  0.6675191968007113  0.5624803897263746  0.3678422092347020
  0.7503725257238685  0.6247541185624002  0.4543649703400021
  0.5838028642440847  0.5623009843736071  0.4538612610176926
  0.9156932524912449  0.5624701070906610  0.4539345986956675
  0.8359715974364548  0.5623988260327550  0.5405877186976653
  0.4999792834570300  0.6249327093503467  0.1972713992436823
  0.8340132478062756  0.6876963967711447  0.2026106616328391
  0.6659276404269576  0.6876962965585420  0.2026108084311957
  0.7499405807585191  0.7501762501326539  0.2780006485536006
  0.5825450332611410  0.6875503166237422  0.2839503861281258
  0.9174537481384490  0.6875526298127141  0.2837852153339426
  0.4999461083515300  0.7497617792702584  0.3697798492119375
  0.8324668220800291  0.6875147621220989  0.3684055436608205
  0.6673872157853324  0.6874575004739256  0.3684704255773994
  0.7501624690561073  0.7496612774879807  0.4549974172564291
  0.5838552626166731  0.6872586480052618  0.4541536507949928
  0.9162437847283371  0.6873046754168897  0.4543177253829569
  0.8332847533824079  0.6872611839752238  0.5410890147018392
  0.5000347681425055  0.7502236477524633  0.1974480792219211
  0.8342593841986030  0.8125876305531960  0.2029873792726065
  0.6656892390528455  0.8125949960121730  0.2029557431352416
  0.7498852206480819  0.8748396836069503  0.2783721962009054
  0.5828753888262526  0.8125292129266910  0.2842649090643263
  0.9171083800967210  0.8125459233559553  0.2841906222257862
  0.4999368132958466  0.8749857499852425  0.3701331921190487
  0.8322851735150110  0.8125076596085350  0.3684802585516778
  0.6673592059694542  0.8124978249890944  0.3686057211070164
  0.7497532835179044  0.8746223512572513  0.4556721726885797
  0.5839203579539571  0.8121433289199871  0.4545873507709715
  0.9159536872398490  0.8122575877072080  0.4544186707102327
  0.8359663591177124  0.8124606682636824  0.5413515333946251
  0.6634254095706211  0.8111544214943294  0.5418365833388705
  0.5000053549708952  0.8750329524281710  0.1977240098900239
  0.8343035331699298  0.9375837628126362  0.2031107196844673
  0.6656909795857402  0.9375711080116602  0.2030608623159083
  0.7501000276418139  0.5002408602975734  0.2776761141052972
  0.5825779607092159  0.9375008569607246  0.2844177399604462
  0.9173941250068296  0.9375184675370747  0.2844139587448922
  0.4999389477149023  0.4998972071638121  0.3693133633339798
  0.8323715593593448  0.9374884777680350  0.3690646509201017
  0.6674388969395153  0.9375098054573314  0.3691167160097280
  0.7504507374924998  0.4998814470513295  0.4541321918052716
  0.5835881966221379  0.9374216025995636  0.4549631598321469
  0.9165578410322084  0.9373555993475691  0.4548629252388992
  0.8335597214379504  0.9373799678684591  0.5419368130309579
  0.6656694054684138  0.9372271344838836  0.5420997503977318
  0.4057874410147804  0.9999383416462351  0.2327751528778634
  0.2499653723554900  0.9999710435266920  0.1999600042982337
  0.0942740439809882  0.9999471567588429  0.2328211206780821
  0.1549172454138343  0.1250723111499141  0.3163451490231566
  0.0000134489412602  0.1249016341785563  0.3034649382048116
  0.3450601335715149  0.1250465844685493  0.3162264963116712
  0.4010940837124863  0.1250659186918810  0.4026299029660265
  0.2499071570864402  0.1249599027423614  0.3878208626420445
  0.0987992677084719  0.1251099508000095  0.4028609507521779
  0.1515927476688077  0.1254745283488816  0.4883577224113580
  0.9999386926008569  0.1254336335747794  0.4741431054061565
  0.3481466842759886  0.1253514716994033  0.4881195881437748
  0.4062257008961012  0.1262413787527947  0.5693637751182905
  0.2500853678311756  0.1263582087350343  0.5583419733007347
  0.0949648612937040  0.1272027337888844  0.5701941718848218
  0.4057028574927060  0.1249363644204067  0.2326554292130396
  0.2499795953196156  0.1248655992591878  0.2002181063777329
  0.0943206052354526  0.1249850126312282  0.2327765759010205
  0.1547976862812845  0.2498564888826991  0.3160636946726569
  0.9999824743356598  0.2500814203551656  0.3031684419241429
  0.3450910381681069  0.2498234581456984  0.3159172409347804
  0.4010937906946666  0.2501058466705004  0.4022663055654405
  0.2498694549908151  0.2501226970402399  0.3876106187003501
  0.0987967138735399  0.2502320278898296  0.4026178387191450
  0.1514010795537146  0.2512531580949116  0.4885771020246494
  0.9995973136526857  0.2506114888965314  0.4735044696176729
  0.3478678868857017  0.2500315373376623  0.4877362210663136
  0.4061994657375720  0.2503039914531584  0.5690931188290946
  0.2489425731657064  0.2537731125567930  0.5581797636931327
  0.0971924562379343  0.2530395318623349  0.5700885319934414
  0.4056409057331720  0.2497972618905067  0.2323350585678554
  0.2499862466213116  0.2498472152425109  0.1996606999592458
  0.0943386993443340  0.2498091570075971  0.2324723173311725
  0.1547885719419071  0.3750699502716728  0.3157200577394761
  0.9999826986777762  0.3748496868158639  0.3028565453009193
  0.3452092922679952  0.3750775456756728  0.3156274270659978
  0.4010957067816179  0.3751283913341581  0.4020618636671784
  0.2499946849645553  0.3749428002465223  0.3869641664155523
  0.0988102774478321  0.3750797255499947  0.4022065106912294
  0.1526329581002912  0.3760660442764774  0.4871304819431188
  0.0000051121058249  0.3754023583075892  0.4734784363369258
  0.3478859582213545  0.3753641204720211  0.4874914853675349
  0.4063775785198516  0.3761533325884230  0.5684660576691556
  0.2477773566920618  0.3761711792976712  0.5575232244268378
  0.0995508459199286  0.3770893495080685  0.5689419171626469
  0.4056719585228024  0.3749731637141380  0.2321056505962460
  0.2499629187348660  0.3748762976440219  0.1996875702878711
  0.0943676587990652  0.3749308635279576  0.2322260127933333
  0.1549642846960353  0.9999203309598670  0.3164139003243847
  0.0000195069787594  0.0000787471513846  0.3035710477611673
  0.3450549652605801  0.9999186299919600  0.3163605292243545
  0.4010884080152621  0.0000349374458466  0.4027924895083999
  0.2499269996122635  0.0000507104539906  0.3880211171269892
  0.0987783130947690  0.9999804747497905  0.4028911570951408
  0.1515068513138047  0.9997318036331322  0.4884510780282199
  0.9999113329091998  0.0001676631594947  0.4740864678113965
  0.3481858943985685  0.9997951471560427  0.4882727945538932
  0.4057026713049723  0.9995204874367829  0.5697179932806904
  0.2497528412818184  0.0004236454863928  0.5583393072092377
  0.0940012776991139  0.9994530568588900  0.5700053295754302
  0.4056782724085082  0.4999272469605245  0.2320288630697434
  0.2499711597793990  0.5000300772859774  0.1995257652863316
  0.0943762058470270  0.4999382359684716  0.2320988471862080
  0.1548379495112115  0.6251441229850840  0.3156375825979154
  0.9999768720567417  0.6248958145375880  0.3028461421376392
  0.3452742300929330  0.6251939176183399  0.3156493039582884
  0.4010863251755126  0.6249169655340978  0.4021146621819724
  0.2500313822446856  0.6248936562075116  0.3869786081335391
  0.0988287474320586  0.6248585626148966  0.4021012473313590
  0.1526431109610229  0.6245286085745434  0.4871320014430509
  0.0000282614880547  0.6246176895520463  0.4733871667745362
  0.3477563215478057  0.6250078874433385  0.4875747068551846
  0.4060471713103695  0.6246914530261165  0.5685581242992015
  0.2472209344401364  0.6235172062850438  0.5576002819041861
  0.0982989833527910  0.6241789370926583  0.5683615632753813
  0.4056620019134556  0.6251579433393459  0.2321410419111416
  0.2499919045119654  0.6250302517527331  0.1996640688446050
  0.0943639427179903  0.6251510611389932  0.2321801747204546
  0.1549110519494192  0.7499355042139726  0.3159344777895896
  0.9999741974300136  0.7501140917447344  0.3031241800965390
  0.3451817748365613  0.7499340669054533  0.3159708020590699
  0.4011257940791211  0.7498598239858723  0.4024634387102921
  0.2499654436815462  0.7500101325059276  0.3874036158158276
  0.0988222494654352  0.7498263806494379  0.4024020452735684
  0.1521145777108828  0.7487699219919008  0.4878013786171493
  0.9999885341652828  0.7494193815934125  0.4738900275814970
  0.3479537017368841  0.7495426351032179  0.4879039924808737
  0.4061525361252123  0.7488660257984634  0.5687698074210559
  0.2483698874316076  0.7468905461433550  0.5581031195257182
  0.0969221474778976  0.7454006754903943  0.5693322059449244
  0.4057366549437518  0.7500755442310663  0.2323891667678666
  0.2499777138434283  0.7502236952274046  0.1993938289284145
  0.0942800343977268  0.7500673365197201  0.2324154324001739
  0.1548819552809277  0.8750953729228002  0.3163019338791244
  0.9999847354762039  0.8748956127225824  0.3034506812009852
  0.3451308235626485  0.8750988747167554  0.3162886665109568
  0.4010843223510534  0.8748788309174458  0.4026963793481571
  0.2499371681377554  0.8749336047154372  0.3879049602689548
  0.0987462524946920  0.8748850105978079  0.4027467377581999
  0.1515160072264763  0.8744646803178568  0.4883021053402743
  0.9999004990018179  0.8743912723201177  0.4739582368736421
  0.3481049195922310  0.8750363094091682  0.4881408605234938
  0.4058539280869695  0.8748257319285173  0.5693968516420611
  0.2497016295607608  0.8735359656600039  0.5582242107961903
  0.0942012560896259  0.8740637447907389  0.5698398703992851
  0.4057201305849958  0.8751243863078244  0.2327169774547926
  0.2499825865900931  0.8750822042591651  0.2005239365398381
  0.0943017527473273  0.8751161734892179  0.2327327451443324
  0.1547946577265122  0.4998630461951237  0.3155540151608491
  0.9999972973782789  0.5001255227895953  0.3027589766330081
  0.3452732966971936  0.4998375951646707  0.3155167867112141
  0.4010849923191131  0.4999583090296866  0.4019916288852414
  0.2499948898546904  0.5000795568930627  0.3868189918726372
  0.0988393468006947  0.5001005474143696  0.4020202332609202
  0.1526024492656219  0.5001128104274244  0.4870339771606140
  0.9999865368411207  0.4999516894386673  0.4734138596129824
  0.3476222338214399  0.4999386937786596  0.4874125098908877
  0.4063129110380856  0.4997536323789546  0.5682424265111692
  0.2472675928918662  0.4998583441917077  0.5575203131296504
  0.0987942125835062  0.4996932201698172  0.5684467812398850
  0.9058184309041906  0.9999560528245937  0.2327738047513392
  0.7499969870294976  0.9999777863018409  0.2001591163565664
  0.5942492570500946  0.9999328425714324  0.2327681056971542
  0.6549138665195358  0.1250464609653577  0.3161576905675005
  0.4999794477638915  0.1249026199287115  0.3033863241085228
  0.8451170554594185  0.1250314579650293  0.3161820565130853
  0.9011310572808142  0.1250419871006017  0.4026557484361746
  0.7499057357147052  0.1249195225830704  0.3876959420484098
  0.5988447873809264  0.1250863442475136  0.4026596040288553
  0.6516316626447889  0.1257707283913660  0.4882282673217375
  0.4999925452917751  0.1253437469203291  0.4739439392951752
  0.8481078850160273  0.1253946082386719  0.4880870099200649
  0.9060331128881529  0.1264999514774985  0.5692527169212838
  0.7497821463292240  0.1261929193201183  0.5582562165837928
  0.5946032458984618  0.1269150976388289  0.5699347298307984
  0.9058167670066197  0.1249578278072008  0.2326300894011055
  0.7500094208754930  0.1248465506247527  0.1999328736640678
  0.5942407995929244  0.1249664981845342  0.2326063733031205
  0.6548568518107487  0.2498416752199901  0.3157892473512334
  0.4999517494077921  0.2500984773665493  0.3030664385308555
  0.8451981559489212  0.2498161570526705  0.3158386740835368
  0.9010750838197339  0.2501284886401152  0.4022674487573710
  0.7499785246149955  0.2501334750012774  0.3872078766864107
  0.5988409709058757  0.2501892677667925  0.4022850357563996
  0.6520349291985710  0.2509511038050007  0.4875437726721685
  0.4999616486732634  0.2506510776349273  0.4733724250811164
  0.8476553480763869  0.2500378779359664  0.4876816741803154
  0.9052573168740068  0.2502980265063641  0.5689225243433853
  0.7481640868766135  0.2534064188811627  0.5576887957695504
  0.5959794934115337  0.2536497932542190  0.5688653098589640
  0.9057488493428423  0.2498071632784047  0.2323100924197092
  0.7500404187967362  0.2498490942945324  0.1995917616180733
  0.5942913312821432  0.2497903316060572  0.2322918181263844
  0.6548583338321450  0.3751170183618555  0.3155168228053356
  0.4999648980716174  0.3748347908422502  0.3028076661470962
  0.8452788844427133  0.3751020106794130  0.3155463039783299
  0.9011343041704905  0.3751153169045267  0.4020274299073705
  0.7500267816605444  0.3749938258603294  0.3868130861844961
  0.5988629537416159  0.3751064131455379  0.4020058500695782
  0.6527380235740736  0.3757334118965048  0.4870579150024881
  0.5000901575877421  0.3753962878042003  0.4733967104689327
  0.8477901800437451  0.3753808665526037  0.4874085032009106
  0.9064430170432018  0.3755261171615274  0.5683582145268105
  0.7474912633585120  0.3763735969049264  0.5574373111577700
  0.5987729599706668  0.3768513676279710  0.5683821619984570
  0.9057809409935871  0.3749701643608887  0.2320469117282400
  0.7500120462960354  0.3748876862541195  0.1994018475882058
  0.5942914858232911  0.3749540602225068  0.2320581084649618
  0.6548980179663602  0.9999129862114202  0.3163558270540392
  0.4999935305956598  0.0000948669830123  0.3035475581968967
  0.8450555768562609  0.9999093909383703  0.3163237997990507
  0.9010768549209089  0.9999874450621036  0.4027815048945200
  0.7499205737097583  0.0000402853322825  0.3879722929329006
  0.5988290394390532  0.0000284124643812  0.4028295601972616
  0.6516026447162062  0.9998710978772394  0.4884310195754011
  0.4999920376667291  0.0002225071567850  0.4740397370725447
  0.8482086764131083  0.9997569242941893  0.4882499227442096
  0.9057699125695535  0.9994981320002836  0.5696940065783735
  0.7498397407681026  0.0003543280641054  0.5583221320367073
  0.5939558749392688  0.9995880914890307  0.5698826212720576
  0.9057725833752954  0.4999337232449008  0.2319567615591680
  0.7499757013194852  0.5000484699500234  0.1994150809130062
  0.5942792996076278  0.4999396040903790  0.2320010470178033
  0.6547993028204360  0.6251344843096902  0.3155906198493739
  0.4999698209617520  0.6248708869029969  0.3028762409591508
  0.8452672012876192  0.6251943366238919  0.3155693814185128
  0.9010730126613282  0.6249383596780760  0.4020467550946449
  0.7500152346924622  0.6248677569762009  0.3869159641522586
  0.5988477995409909  0.6247953993762749  0.4020910471446868
  0.6527255622130923  0.6244006225527485  0.4870887581641057
  0.5000876500775533  0.6245477638601216  0.4734142959661156
  0.8477776612826631  0.6249722446451216  0.4875120240572173
  0.9060078589791303  0.6246176689255876  0.5685378692925696
  0.7472487834593124  0.6233880718930322  0.5575150438325807
  0.5983195000766415  0.6239997179132217  0.5682428681805831
  0.9057246887126169  0.6251384203291508  0.2320588147947689
  0.7499799341068751  0.6250325939279762  0.1996775104695772
  0.5943085692792422  0.6251647591972045  0.2321447582411764
  0.6548545520119333  0.7499252953169204  0.3159241123659910
  0.4999850439869604  0.7501122734911903  0.3031569015123452
  0.8451052243127606  0.7499379906142778  0.3158881241682678
  0.9010832633747299  0.7498772729929399  0.4023771162976004
  0.7499182175382018  0.7499964631223435  0.3873423266428873
  0.5988207690974576  0.7497904596785219  0.4024176509078075
  0.6521254410657633  0.7487566071721616  0.4878040949457940
  0.5000429651184604  0.7493842255608598  0.4739344722763050
  0.8478967807689344  0.7495128997105382  0.4878271054746790
  0.9061224081798045  0.7487792060009610  0.5686750108420355
  0.7483684135980511  0.7468354510073851  0.5580597768496247
  0.5969836368770416  0.7453330407546090  0.5693319082187784
  0.9057881944368944  0.7500677459710943  0.2323226450935820
  0.7499708242641603  0.7502095727297373  0.1993508092899248
  0.5942395440726074  0.7500620715611817  0.2323981914494269
  0.6548342627700379  0.8750945146418658  0.3162822082911489
  0.4999870538555413  0.8748938297065791  0.3034737268304397
  0.8450522203728426  0.8750903278959683  0.3162231158339139
  0.9010547214484674  0.8748328557081848  0.4026466229908294
  0.7498845072015783  0.8749194096425512  0.3878689921801310
  0.5987456542708500  0.8749159785368334  0.4027556284379088
  0.6514795273638683  0.8745234520459633  0.4883066033341095
  0.4999534802922980  0.8744432723607787  0.4739623186325161
  0.8480307222719574  0.8749845880293350  0.4880939357545202
  0.9058109700724088  0.8747284420399026  0.5693471385985589
  0.7496511514369217  0.8735065425716968  0.5581916022452944
  0.5941490448782858  0.8741449440089895  0.5698003180850506
  0.9057682793518467  0.8751260600113184  0.2326708398075752
  0.7499936543081702  0.8751128421446595  0.2003370731574066
  0.5942411503750975  0.8751215975602307  0.2326981062172138
  0.6547979428545290  0.4998507250697415  0.3154501036867714
  0.4999767901418082  0.5001161309253490  0.3027546637571703
  0.8453269140622126  0.4998485535638011  0.3154393005340665
  0.9011324049314524  0.5000088200811419  0.4019327048318004
  0.7500525335665813  0.5000589933039521  0.3866998230001215
  0.5988619393468966  0.5000260206729834  0.4019350800129544
  0.6528020148450651  0.4998679324356345  0.4869357245989860
  0.5000656305260094  0.4999372809931586  0.4733968026243573
  0.8477765226208476  0.4998737230557566  0.4873391891036292
  0.9063676456770153  0.4995503082646522  0.5682531306453455
  0.7475594101438645  0.4997843158517625  0.5573492324391509
  0.5990391832728719  0.4994381113766693  0.5683007737765848
  0.0004682425752733  0.1337011027046771  0.5409460165661670
  0.9980086742380152  0.2456334714802395  0.5401088760572179
  0.0011350857449557  0.3820038804473356  0.5401013539393276
  0.1661163213424075  0.3154676611093876  0.5392913294890107
  0.9999370873016744  0.9930029506547271  0.5410686101776108
  0.1651790800586781  0.4384925283982071  0.5394041074115208
  0.0004236769215140  0.6304459004913241  0.5401010881575914
  0.1637374512844687  0.5623088646014267  0.5393787827121770
  0.0004784619682496  0.7409608993799637  0.5406433558509676
  0.1648902225659370  0.6864818227286236  0.5397876828726638
  0.9999906613617995  0.8811379155558043  0.5409062689608746
  0.0009137327033955  0.4931079086359489  0.5400136676210252
  0.5005344165056016  0.1332318531096490  0.5408234902855185
  0.5003125184486450  0.2453048673382270  0.5401776172998467
  0.5011087429797598  0.3826798437514682  0.5400445269267635
  0.6629410460260416  0.3137894915367951  0.5394869512496001
  0.4999844127182200  0.9931341535159035  0.5410192707317449
  0.6655727262314528  0.4379565800097254  0.5392775248817614
  0.5004960637940741  0.6305455284038644  0.5401140647204485
  0.6637289259040173  0.5619812780475826  0.5392846696845766
  0.5004812106709267  0.7409532141594752  0.5406911440943745
  0.6649178679895797  0.6864007788675508  0.5397369832737979
  0.5000240807575054  0.8812539469588145  0.5409008687567933
  0.5009722504214267  0.4930594316577839  0.5399877899571734
  0.0936280052294336  0.2548693223647334  0.6291958253952146
 
  0.00000000E+00  0.00000000E+00  0.00000000E+00
  0.00000000E+00  0.00000000E+00  0.00000000E+00
  0.00000000E+00  0.00000000E+00  0.00000000E+00
  0.00000000E+00  0.00000000E+00  0.00000000E+00
  0.00000000E+00  0.00000000E+00  0.00000000E+00
  0.00000000E+00  0.00000000E+00  0.00000000E+00