Ru Ta  N  Cu                            
   1.00000000000000     
    18.1096308199999996    0.0000000000000000    0.0000000000000000
     0.0000000000000000   23.3551997799999995    0.0000000000000000
     0.0000000000000000    0.0000000000000000   30.4818170799999990
   Ru   Ta   N    Cu
    64   240   240     4
Selective dynamics
Direct
  0.0664589119856094  0.0092621106670335  0.5335404732679688   T   T   T
  0.2889961617822483  0.5138429385368498  0.5260534872564928   T   T   T
  0.4418393287457771  0.0627983497230567  0.5193505651531881   T   T   T
  0.0673350802827300  0.2591923696904452  0.5334415747643829   T   T   T
  0.2832604205840826  0.2492997112606957  0.5262800369424774   T   T   T
  0.4324172162320706  0.3101382246162634  0.5191171978428558   T   T   T
  0.0677383820215594  0.1218331662671834  0.5337563438159574   T   T   T
  0.2850319397989560  0.1251370390565072  0.5245443846507887   T   T   T
  0.4486408952012170  0.1838541097652671  0.5213268976429684   T   T   T
  0.0732457070796746  0.3728758869599614  0.5343889406961339   T   T   T
  0.2771568385858642  0.3634717330428154  0.5279914489778136   T   T   T
  0.4233399213976510  0.4373145659417614  0.5214256426233257   T   T   T
  0.1776210997224169  0.4372946546482057  0.5508727017882395   T   T   T
  0.1815174552888366  0.2982817530435365  0.5597429530169384   T   T   T
  0.1763814353897492  0.1822748355121932  0.5482609517413646   T   T   T
  0.1854733956831442  0.0554632339253760  0.5522482543949198   T   T   T
  0.0691132572875957  0.5114556587591952  0.5325069871796462   T   T   T
  0.2878138997941844  0.9994478311691400  0.5241417421511866   T   T   T
  0.4346386352002714  0.5645227995206374  0.5189228470681073   T   T   T
  0.0668179597890395  0.7633386997200277  0.5329156117847658   T   T   T
  0.2855751068796450  0.7498308150280749  0.5247551856558135   T   T   T
  0.4412244076953403  0.8106271513383322  0.5191307562532483   T   T   T
  0.0702707014268612  0.6233358231671456  0.5342417741466025   T   T   T
  0.2751282294430261  0.6285435148740868  0.5270228839120390   T   T   T
  0.4470369984128297  0.6899067684972122  0.5206908210160023   T   T   T
  0.0678934833355812  0.8749607516331237  0.5336121194153355   T   T   T
  0.2849656092924040  0.8762251862253850  0.5245816228066155   T   T   T
  0.4477998327700359  0.9375083569473078  0.5211213066779743   T   T   T
  0.1771194506097885  0.9381617352587683  0.5476201258359624   T   T   T
  0.1853111586723008  0.8106331883314754  0.5519078063636960   T   T   T
  0.1705256338635746  0.6920697677914673  0.5491837845512344   T   T   T
  0.1828741991833130  0.5543761300977434  0.5572415765922220   T   T   T
  0.5692129106103215  0.0032307160216815  0.5333524283673938   T   T   T
  0.7919598132223693  0.4972508249383911  0.5238585106212511   T   T   T
  0.9409439729179883  0.0597457032744054  0.5195108802584865   T   T   T
  0.5667048697922163  0.2433871907554311  0.5354442069321820   T   T   T
  0.7842804874102361  0.2466822303231483  0.5256188266760691   T   T   T
  0.9433874556690298  0.3096660025998659  0.5197937794160941   T   T   T
  0.5660760201332791  0.1138739028775820  0.5329450059018648   T   T   T
  0.7878530447178129  0.1230543655059553  0.5240618848390746   T   T   T
  0.9476307987025573  0.1894826612296355  0.5214380418431169   T   T   T
  0.5661749716656411  0.3521095688924009  0.5358482903773881   T   T   T
  0.7934402436718041  0.3757375444010758  0.5235007327506835   T   T   T
  0.9544889683116373  0.4372191045624468  0.5227058434678936   T   T   T
  0.6797017394826231  0.4350149416827349  0.5446714392882198   T   T   T
  0.6894430368638617  0.3200852709725767  0.5501788720823585   T   T   T
  0.6777002692579216  0.1862281013917321  0.5476769002272696   T   T   T
  0.6844762695987119  0.0697411157626116  0.5531699331807920   T   T   T
  0.5681939926038468  0.5223422394909121  0.5362574088621306   T   T   T
  0.7814536567322794  0.0006229645843602  0.5256860834740769   T   T   T
  0.9434288189454262  0.5619009983247333  0.5195644696061782   T   T   T
  0.5659758628008871  0.7606238645422027  0.5328204432070734   T   T   T
  0.7880759614730116  0.7529136368967948  0.5241499775947033   T   T   T
  0.9401072979026230  0.8117921965612664  0.5190617901339267   T   T   T
  0.5665264089430683  0.6308698104894246  0.5356265657842522   T   T   T
  0.7837136476711839  0.6288348212140871  0.5253432444143339   T   T   T
  0.9484746599203659  0.6877359316738133  0.5217787993385006   T   T   T
  0.5676021327879237  0.8709388161423289  0.5330285699528975   T   T   T
  0.7813803807922270  0.8755797421113033  0.5257300222176162   T   T   T
  0.9459938618033448  0.9378179257156424  0.5209568683891589   T   T   T
  0.6753378479945781  0.9370676779856052  0.5480160808417479   T   T   T
  0.6836682706056342  0.8064424680788183  0.5524268676873998   T   T   T
  0.6773413577883307  0.6895946499702100  0.5476397862543170   T   T   T
  0.6900348698497277  0.5553400128055281  0.5497952884903206   T   T   T
  0.9996246524628063  0.9999635445867767  0.1022212275957983   F   F   F
  0.3339438256838960  0.0624457813299060  0.1075563970202325   F   F   F
  0.1656734882889026  0.0624869619810369  0.1076523577670159   F   F   F
  0.2496380332605455  0.1248777014917124  0.1827535963680589   F   F   F
  0.0820753910794778  0.0624168821917976  0.1887361965005994   F   F   F
  0.4168249566545654  0.0624128089775482  0.1889653308070223   F   F   F
  0.0001076830936018  0.1248931088059232  0.2747476136203160   T   T   T
  0.3320135064250209  0.0624045282901274  0.2731583664328259   T   T   T
  0.1676163917393095  0.0624224296786763  0.2728019392855593   T   T   T
  0.2490044225532501  0.1247615027947597  0.3594985177959065   T   T   T
  0.0835315842812293  0.0624461548846563  0.3591642285074924   T   T   T
  0.4160134930032899  0.0623129661632323  0.3589146341478183   T   T   T
  0.4946981657218562  0.1245336189466384  0.4439350548053473   T   T   T
  0.3317371616527796  0.0618846638770895  0.4446990280487598   T   T   T
  0.1648000242522402  0.0624324116648676  0.4470302513390662   T   T   T
  0.9996175425524214  0.1249358288969233  0.1022184789678420   F   F   F
  0.3339435537114426  0.1874256191358299  0.1075504356733603   F   F   F
  0.1656688965935942  0.1874633245330628  0.1076544484778310   F   F   F
  0.2496428192825420  0.2499248694537357  0.1827745152021549   F   F   F
  0.0820483011947246  0.1874164370395803  0.1887315368489411   F   F   F
  0.4168235962087010  0.1874178821048673  0.1889761876915443   F   F   F
  0.0000730707981231  0.2498833390610905  0.2747620108704824   T   T   T
  0.3320717707463389  0.1874283823021056  0.2731878889201684   T   T   T
  0.1675162271474567  0.1874336797999443  0.2728245110242363   T   T   T
  0.2491358933505582  0.2499375200709402  0.3594355804898701   T   T   T
  0.0834656477093087  0.1873846577989751  0.3593860320771129   T   T   T
  0.4159336436613161  0.1873486691201286  0.3588941554290225   T   T   T
  0.4968131250050361  0.2488856458527338  0.4442884187574094   T   T   T
  0.3313702240240349  0.1869636891944974  0.4442977327628979   T   T   T
  0.1638886568019834  0.1873704283860608  0.4480040429137869   T   T   T
  0.9996247444640574  0.2499647011854407  0.1022230082490267   F   F   F
  0.3339438339619036  0.3124448417397900  0.1075557633545969   F   F   F
  0.1656741876920407  0.3124866150128511  0.1076519504247102   F   F   F
  0.2496342491082189  0.3748782083517597  0.1827543288382500   F   F   F
  0.0820773763724816  0.3124181279228466  0.1887355922833933   F   F   F
  0.4168238893201348  0.3124134579098339  0.1889644027201030   F   F   F
  0.0000719115886165  0.3749362291716197  0.2747603805457346   T   T   T
  0.3320833155757907  0.3124360773990938  0.2731965851283739   T   T   T
  0.1675322969058239  0.3124353193167065  0.2728711517255277   T   T   T
  0.2491490766134750  0.3748082260011267  0.3594513789158958   T   T   T
  0.0833949813623438  0.3124825621471363  0.3592404995051483   T   T   T
  0.4161550858854903  0.3123747254515133  0.3591862901113854   T   T   T
  0.4982583407239996  0.3748243352787072  0.4444980579204758   T   T   T
  0.3326976998028583  0.3118653737855585  0.4450933363645419   T   T   T
  0.1654352709549705  0.3125847586065231  0.4458799825253186   T   T   T
  0.9996196554118555  0.3749345235867736  0.1022175688270863   F   F   F
  0.3339389444248013  0.4374272239936090  0.1075500232538360   F   F   F
  0.1656692123176882  0.4374660331456823  0.1076535614342404   F   F   F
  0.2496367764464793  0.9999279799998888  0.1827742299965678   F   F   F
  0.0820476334098430  0.4374171254006285  0.1887298800136392   F   F   F
  0.4168193524269412  0.4374154383080295  0.1889763507298241   F   F   F
  0.5003395140168638  0.4998178747728929  0.2748783332736913   T   T   T
  0.3321571138206465  0.4373803640135131  0.2732718452154696   T   T   T
  0.1673572228067299  0.4374176176683831  0.2729036027752042   T   T   T
  0.2491868840805390  0.5000027174941380  0.3594694732622120   T   T   T
  0.0835793850691961  0.4374650060777950  0.3597181308822705   T   T   T
  0.4159995279634268  0.4373203815693159  0.3593841696562655   T   T   T
  0.4985323963711171  0.4997228164871448  0.4444800699188639   T   T   T
  0.3321447429965645  0.4372588369291394  0.4451792146463197   T   T   T
  0.1653831376716693  0.4375141115494638  0.4480760549381633   T   T   T
  0.9996246524628063  0.4999635445867767  0.1022212275957983   F   F   F
  0.3339438256838960  0.5624457813299060  0.1075563970202325   F   F   F
  0.1656734882889026  0.5624869619810369  0.1076523577670159   F   F   F
  0.2496380332605455  0.6248777014917124  0.1827535963680589   F   F   F
  0.0820753910794778  0.5624168821917976  0.1887361965005994   F   F   F
  0.4168249566545654  0.5624128089775482  0.1889653308070223   F   F   F
  0.0000614373427706  0.6248414397778310  0.2747724846771340   T   T   T
  0.3320855655997181  0.5623300232952579  0.2731829219587422   T   T   T
  0.1675317548175517  0.5623822113802285  0.2728542538269921   T   T   T
  0.2491070912356757  0.6248708948665639  0.3594331221209036   T   T   T
  0.0834864814632453  0.5624008747461097  0.3592846538465183   T   T   T
  0.4161988828254015  0.5623306597472485  0.3591227675299032   T   T   T
  0.4977405008716497  0.6256947594045832  0.4438053122800272   T   T   T
  0.3327768589802206  0.5627892439949254  0.4448289741385201   T   T   T
  0.1654667128951149  0.5624972073533879  0.4462462173528374   T   T   T
  0.9996175425524214  0.6249358288969233  0.1022184789678420   F   F   F
  0.3339435537114426  0.6874256191358228  0.1075504356733603   F   F   F
  0.1656688965935942  0.6874633245330557  0.1076544484778310   F   F   F
  0.2496428192825420  0.7499248694537357  0.1827745152021549   F   F   F
  0.0820483011947246  0.6874164370395732  0.1887315368489411   F   F   F
  0.4168235962087010  0.6874178821048602  0.1889761876915443   F   F   F
  0.0000869951037413  0.7498663358136599  0.2747541960818006   T   T   T
  0.3320408899471236  0.6873507238217552  0.2731598067427458   T   T   T
  0.1675023350957050  0.6873728293275051  0.2728280439594652   T   T   T
  0.2489877792787452  0.7500049589609605  0.3594733569667179   T   T   T
  0.0834472081244618  0.6874252270608945  0.3594026234615706   T   T   T
  0.4158486215100085  0.6873612813836644  0.3587319396706723   T   T   T
  0.4956050140737530  0.7499855510334086  0.4434548988474463   T   T   T
  0.3317478370138801  0.6875155317952997  0.4444196217073784   T   T   T
  0.1636629783259429  0.6877737129614208  0.4479587667607408   T   T   T
  0.9996247444640574  0.7499647011854407  0.1022230082490267   F   F   F
  0.3339438339619036  0.8124448417397900  0.1075557633545969   F   F   F
  0.1656741876920407  0.8124866150128511  0.1076519504247102   F   F   F
  0.2496342491082189  0.8748782083517597  0.1827543288382500   F   F   F
  0.0820773763724816  0.8124181279228466  0.1887355922833933   F   F   F
  0.4168238893201348  0.8124134579098339  0.1889644027201030   F   F   F
  0.0000938828705121  0.8748896420269544  0.2747334051039814   T   T   T
  0.3319834434012515  0.8123771521234980  0.2731357071773580   T   T   T
  0.1676026400435342  0.8123810636126745  0.2727950269902258   T   T   T
  0.2490501636105920  0.8748288771303040  0.3595497822903284   T   T   T
  0.0835786331727242  0.8124450401456247  0.3591072413115198   T   T   T
  0.4159464584615293  0.8123576489344472  0.3589416158787604   T   T   T
  0.4944508747007063  0.8749992878513151  0.4443910598339558   T   T   T
  0.3317550430202458  0.8123886371563567  0.4449800593937791   T   T   T
  0.1649454697627383  0.8127168164726634  0.4469334951589562   T   T   T
  0.9996196554118555  0.8749345235867736  0.1022175688270863   F   F   F
  0.3339389444248013  0.9374272239936019  0.1075500232538360   F   F   F
  0.1656692123176882  0.9374660331456752  0.1076535614342404   F   F   F
  0.2496367764464793  0.4999279799998888  0.1827742299965678   F   F   F
  0.0820476334098430  0.9374171254006214  0.1887298800136392   F   F   F
  0.4168193524269412  0.9374154383080224  0.1889763507298241   F   F   F
  0.5001332101535345  0.9998850299083900  0.2747284139682525   T   T   T
  0.3320387720462511  0.9373852367141617  0.2732036021855303   T   T   T
  0.1676051750662719  0.9374038411379603  0.2727952827933948   T   T   T
  0.2490174268503058  0.9999424729325789  0.3595382146882829   T   T   T
  0.0835187009185199  0.9374433076005887  0.3592401036995709   T   T   T
  0.4159460399925024  0.9373043658500229  0.3589059548651832   T   T   T
  0.4949300511031808  0.9996222729662778  0.4443322610200367   T   T   T
  0.3315557572564903  0.9373287004361069  0.4441330354489659   T   T   T
  0.1638353718689133  0.9376432300793218  0.4479015003029332   T   T   T
  0.4996261485864011  0.9999638794554073  0.1022212895025945   F   F   F
  0.8339437371848675  0.0624482785398897  0.1075580759875550   F   F   F
  0.6656689243728380  0.0624780056916450  0.1076592327669417   F   F   F
  0.7496377014008289  0.1248750966894079  0.1827574333080477   F   F   F
  0.5820735458319604  0.0624174442172745  0.1887352315057669   F   F   F
  0.9168252921289621  0.0624138005358219  0.1889639379559043   F   F   F
  0.5001841193542780  0.1249142006623820  0.2747556167424570   T   T   T
  0.8320286214274889  0.0624126154921521  0.2731762646232483   T   T   T
  0.6676712838878639  0.0624005018006764  0.2728195548402247   T   T   T
  0.7492906390322431  0.1246729769757911  0.3596602105854920   T   T   T
  0.5835664113599538  0.0623093706671697  0.3590418070504769   T   T   T
  0.9160382043386291  0.0623105321314137  0.3590607350386136   T   T   T
  0.9950891352606345  0.1249188090239871  0.4445564546567143   T   T   T
  0.8327267229198327  0.0622636854332760  0.4452193095799562   T   T   T
  0.6652058987746512  0.0620909044390447  0.4466812399694067   T   T   T
  0.4996213536236240  0.1249348955726433  0.1022183024833154   F   F   F
  0.8339388961320680  0.1874236234033546  0.1075519903559652   F   F   F
  0.6656669566206190  0.1874574838225769  0.1076541056651124   F   F   F
  0.7496375557706187  0.2499211919418656  0.1827775726101990   F   F   F
  0.5820467926301731  0.1874136002736648  0.1887331258771638   F   F   F
  0.9168211714113710  0.1874148173649246  0.1889752459503455   F   F   F
  0.5002790935751537  0.2499881027789471  0.2748261799176115   T   T   T
  0.8320457545113599  0.1874261073456305  0.2732514261692973   T   T   T
  0.6676074581411100  0.1874327175507471  0.2729175635001291   T   T   T
  0.7490242740069959  0.2498000380115676  0.3599185642406188   T   T   T
  0.5836420787141657  0.1873102554728384  0.3595053514446123   T   T   T
  0.9159627610377946  0.1873113095513335  0.3590095930581769   T   T   T
  0.9960281687482111  0.2495701298369747  0.4441166300255091   T   T   T
  0.8322016300034475  0.1872841355896209  0.4446451661300803   T   T   T
  0.6642501745130648  0.1867785705281842  0.4481619777641199   T   T   T
  0.4996265847195431  0.2499624135589542  0.1022211658925301   F   F   F
  0.8339432913754052  0.3124470264806618  0.1075580597257542   F   F   F
  0.6656786166489255  0.3124812578813660  0.1076589101753385   F   F   F
  0.7496359798815462  0.3748756411498491  0.1827578042801292   F   F   F
  0.5820751330297256  0.3124154754956550  0.1887345581865603   F   F   F
  0.9168256971425777  0.3124110138011744  0.1889624020058491   F   F   F
  0.5002985145977401  0.3749251281715322  0.2748834911012176   T   T   T
  0.8320377551161182  0.3124206721755571  0.2733311106724888   T   T   T
  0.6675969039526854  0.3124274279023094  0.2730206598612732   T   T   T
  0.7487530323096957  0.3747061555004256  0.3601386648338580   T   T   T
  0.5838322409992129  0.3123109416431329  0.3597589407858932   T   T   T
  0.9162281850037702  0.3123298596158570  0.3592191214070961   T   T   T
  0.9947917181084553  0.3747372187316179  0.4456338160537049   T   T   T
  0.8323243862963334  0.3120494919530139  0.4451475048011569   T   T   T
  0.6647561007844096  0.3121578342355102  0.4486673560480351   T   T   T
  0.4996231203952064  0.3749337364865255  0.1022171720136171   F   F   F
  0.8339311317052278  0.4374224703005467  0.1075522038351053   F   F   F
  0.6656706818776428  0.4374574332997483  0.1076540871022118   F   F   F
  0.7496383104150084  0.9999213865668750  0.1827756388646549   F   F   F
  0.5820474546648100  0.4374150382907018  0.1887310280212660   F   F   F
  0.9168210958579976  0.4374163027642837  0.1889749839040178   F   F   F
  0.0000527226415726  0.4998735222286922  0.2747843498127011   T   T   T
  0.8321039150022215  0.4373773419953508  0.2734349768925133   T   T   T
  0.6676469919585014  0.4373883545387263  0.2730977429471586   T   T   T
  0.7488886094399246  0.4999004907774818  0.3602094407302079   T   T   T
  0.5837692276274429  0.4373425879942612  0.3600889007124776   T   T   T
  0.9163260773048150  0.4373416461590724  0.3592525513985372   T   T   T
  0.9941706959337048  0.4990401511246226  0.4452834033825319   T   T   T
  0.8319259169992035  0.4372094738724578  0.4438934557697137   T   T   T
  0.6630350181148829  0.4371796752141355  0.4497655184220201   T   T   T
  0.4996261485864011  0.4999638794554073  0.1022212895025945   F   F   F
  0.8339437371848675  0.5624482785398897  0.1075580759875550   F   F   F
  0.6656689243728380  0.5624780056916450  0.1076592327669417   F   F   F
  0.7496377014008289  0.6248750966894079  0.1827574333080477   F   F   F
  0.5820735458319604  0.5624174442172745  0.1887352315057669   F   F   F
  0.9168252921289621  0.5624138005358219  0.1889639379559043   F   F   F
  0.5003293795583815  0.6247846917338240  0.2748029225581364   T   T   T
  0.8321122014401670  0.5623275660538594  0.2733788604253449   T   T   T
  0.6676976980092115  0.5623421014352316  0.2730115613028677   T   T   T
  0.7492095056431840  0.6248042341418584  0.3600370515176388   T   T   T
  0.5839900518994463  0.5623493408673083  0.3596967794120647   T   T   T
  0.9162405077785190  0.5623347003196614  0.3593795597542051   T   T   T
  0.9954142788672423  0.6246642865199380  0.4448833527709306   T   T   T
  0.8325714242289773  0.5624441261637647  0.4457474992624033   T   T   T
  0.6648890908238863  0.5623048592789589  0.4487172978614240   T   T   T
  0.4996213536236240  0.6249348955726433  0.1022183024833154   F   F   F
  0.8339388961320680  0.6874236234033475  0.1075519903559652   F   F   F
  0.6656669566206190  0.6874574838225698  0.1076541056651124   F   F   F
  0.7496375557706187  0.7499211919418656  0.1827775726101990   F   F   F
  0.5820467926301731  0.6874136002736577  0.1887331258771638   F   F   F
  0.9168211714113710  0.6874148173649175  0.1889752459503455   F   F   F
  0.5002270506908142  0.7498304872651290  0.2747388937952673   T   T   T
  0.8321423999483512  0.6873147503050749  0.2732928530164037   T   T   T
  0.6677467272676088  0.6873318573429830  0.2728850290606317   T   T   T
  0.7493723191546275  0.7499749828868061  0.3596978625866380   T   T   T
  0.5837762175239970  0.6873757545724976  0.3593579292623167   T   T   T
  0.9160451067028509  0.6873145412346756  0.3591250082188210   T   T   T
  0.9954755768952188  0.7492948610962766  0.4441102046799033   T   T   T
  0.8321701229335696  0.6871865457236818  0.4446861056646700   T   T   T
  0.6644762989251559  0.6878639212070264  0.4481842662459171   T   T   T
  0.4996265847195431  0.7499624135589542  0.1022211658925301   F   F   F
  0.8339432913754052  0.8124470264806618  0.1075580597257542   F   F   F
  0.6656786166489255  0.8124812578813660  0.1076589101753385   F   F   F
  0.7496359798815462  0.8748756411498491  0.1827578042801292   F   F   F
  0.5820751330297256  0.8124154754956550  0.1887345581865603   F   F   F
  0.9168256971425777  0.8124110138011744  0.1889624020058491   F   F   F
  0.5001240582281210  0.8748562778035374  0.2747238356724404   T   T   T
  0.8320816519357292  0.8123396067179849  0.2731933207572712   T   T   T
  0.6677383121026995  0.8123627338014446  0.2728106356776281   T   T   T
  0.7493046855608922  0.8747949289382038  0.3595974052119203   T   T   T
  0.5836604809380379  0.8124331291766268  0.3590009425114021   T   T   T
  0.9160253197949292  0.8123999932717927  0.3590792550480501   T   T   T
  0.9953738835850298  0.8748836827540851  0.4439850835406552   T   T   T
  0.8327133955074075  0.8123683987434992  0.4452195450853855   T   T   T
  0.6653027886831153  0.8125687683890394  0.4467323814393215   T   T   T
  0.4996231203952064  0.8749337364865255  0.1022171720136171   F   F   F
  0.8339311317052278  0.9374224703005396  0.1075522038351053   F   F   F
  0.6656706818776428  0.9374574332997412  0.1076540871022118   F   F   F
  0.7496383104150084  0.4999213865668750  0.1827756388646549   F   F   F
  0.5820474546648100  0.9374150382906947  0.1887310280212660   F   F   F
  0.9168210958579976  0.9374163027642766  0.1889749839040178   F   F   F
  0.0001051275239848  0.9998909692671124  0.2747415789537094   T   T   T
  0.8320642977360785  0.9373797166431933  0.2731642792022933   T   T   T
  0.6676790239726123  0.9373825452139817  0.2727939994779301   T   T   T
  0.7492694333593950  0.9999047919293519  0.3595776929879783   T   T   T
  0.5834588904479634  0.9373455656135807  0.3592059814253860   T   T   T
  0.9157983683038583  0.9373641596850542  0.3589027075492242   T   T   T
  0.9956193254042849  0.9994134190821844  0.4437889868472584   T   T   T
  0.8317972637531481  0.9372649525218915  0.4449261035544215   T   T   T
  0.6644353914332694  0.9372905173164573  0.4476487111539362   T   T   T
  0.4054220745019208  0.9999222115495812  0.1371706404740110   F   F   F
  0.2498130538845231  0.9999469596221715  0.1043552466225179   F   F   F
  0.0938777968594522  0.9999465964224399  0.1371098030237761   F   F   F
  0.1543635830516692  0.1248899271375592  0.2204647086472562   F   F   F
  0.9995670073461937  0.1248966516782701  0.2080976692853085   F   F   F
  0.3446973568903360  0.1248674306196307  0.2206598414842134   F   F   F
  0.4004736627962812  0.1248859450195519  0.3067309770826783   T   T   T
  0.2495504675972528  0.1249347490564919  0.2919028509983416   T   T   T
  0.0993897527857792  0.1249229200328596  0.3070746111634848   T   T   T
  0.1514824347607178  0.1249713610212586  0.3935323000546701   T   T   T
  0.4994636646532620  0.1247737489999112  0.3761470380710676   T   T   T
  0.3475561356983670  0.1247432140686209  0.3921550835857411   T   T   T
  0.3970261609558116  0.1255470169875736  0.4793023766426172   T   T   T
  0.2497995064250172  0.1245485046873086  0.4629438657636858   T   T   T
  0.0946293468444922  0.1242617190149652  0.4730991311458819   T   T   T
  0.4054214644049878  0.1249282036816339  0.1371697875501496   F   F   F
  0.2498118312390858  0.1249501818115135  0.1042602234590362   F   F   F
  0.0938664600244081  0.1249385922007349  0.1371069089706722   F   F   F
  0.1543560911150905  0.2498790211591952  0.2204709660202369   F   F   F
  0.9995706735895027  0.2499094862395950  0.2080999580462830   F   F   F
  0.3447055266517580  0.2498932390428195  0.2206623926809286   F   F   F
  0.4005314433415242  0.2499904690203552  0.3068565471751404   T   T   T
  0.2495864784595601  0.2499187737950745  0.2918755236253540   T   T   T
  0.0993865713121398  0.2499466071755301  0.3070835691638456   T   T   T
  0.1516007952606398  0.2498885806991767  0.3934356382399398   T   T   T
  0.4996099407217097  0.2496842774805839  0.3764604762165584   T   T   T
  0.3474591295292470  0.2500416029983171  0.3923815994240341   T   T   T
  0.4002150447617481  0.2461147364409989  0.4783293645655360   T   T   T
  0.2500636879271816  0.2496805835413877  0.4638381315630748   T   T   T
  0.0955253964872149  0.2516674418873218  0.4731773527731747   T   T   T
  0.4054229972694188  0.2499207711709062  0.1371716336629376   F   F   F
  0.2498138581555835  0.2499451823925298  0.1043557657097551   F   F   F
  0.0938776901322669  0.2499459403779412  0.1371098843944125   F   F   F
  0.1543617400249389  0.3748920346981564  0.2204674382050342   F   F   F
  0.9995672189247742  0.3748993922795947  0.2080981530608312   F   F   F
  0.3446956533108718  0.3748674624887514  0.2206599019871973   F   F   F
  0.4005951077531034  0.3749500445880663  0.3070295900540022   T   T   T
  0.2495638321927277  0.3749457171380740  0.2918816838766846   T   T   T
  0.0992364184696787  0.3750035290765338  0.3072185842446886   T   T   T
  0.1518948135168931  0.3751120973177862  0.3934468327720735   T   T   T
  0.4997233712697230  0.3747563911874057  0.3766471746110617   T   T   T
  0.3470381076984239  0.3748544856485695  0.3927704109542500   T   T   T
  0.4019761474943919  0.3742729428096185  0.4771687380863421   T   T   T
  0.2502027216806845  0.3740124595597176  0.4644318460459185   T   T   T
  0.0958967648476662  0.3739733489041239  0.4728996694903828   T   T   T
  0.4054204481464510  0.3749288137657416  0.1371674470345781   F   F   F
  0.2498106243523637  0.3749504007233213  0.1042578114000037   F   F   F
  0.0938682935435935  0.3749385903486697  0.1371059653233644   F   F   F
  0.1543531827738107  0.9998787448957458  0.2204712064644667   F   F   F
  0.9995677263797802  0.9999081653989563  0.2081008624749074   F   F   F
  0.3447067510723798  0.9998918897834912  0.2206650007889195   F   F   F
  0.4006146051876468  0.4997490180458237  0.3070100779211321   T   T   T
  0.2495897022871069  0.4998653289061658  0.2918977289530857   T   T   T
  0.0992965966424538  0.4998686677830577  0.3072308628346910   T   T   T
  0.1520459997005918  0.4998947543438095  0.3935475491403778   T   T   T
  0.4997741871792962  0.4999126288482369  0.3766130335344106   T   T   T
  0.3477335009319850  0.9999278116030675  0.3921735932928758   T   T   T
  0.4020290479501271  0.5003827334603251  0.4768744767978299   T   T   T
  0.2510031399630892  0.5008438121176335  0.4643671609119193   T   T   T
  0.0942085954154612  0.0012442767128194  0.4733266114362137   T   T   T
  0.4054220745019208  0.4999222115495883  0.1371706404740110   F   F   F
  0.2498130538845231  0.4999469596221715  0.1043552466225179   F   F   F
  0.0938777968594522  0.4999465964224399  0.1371098030237761   F   F   F
  0.1543635830516692  0.6248899271375592  0.2204647086472562   F   F   F
  0.9995670073461937  0.6248966516782701  0.2080976692853085   F   F   F
  0.3446973568903360  0.6248674306196307  0.2206598414842134   F   F   F
  0.4005261800287227  0.6247284948983715  0.3067554274850566   T   T   T
  0.2495543314755396  0.6248673635729014  0.2918702130479126   T   T   T
  0.0993101674982124  0.6248603841705459  0.3071128114053535   T   T   T
  0.1516212014490365  0.6250723848221881  0.3934300125505599   T   T   T
  0.4997294365821177  0.6249713928367527  0.3760624078304235   T   T   T
  0.3476078758404386  0.6249454374118317  0.3922022645839389   T   T   T
  0.4014884976542862  0.6281217874432650  0.4778007484855130   T   T   T
  0.2497606411971826  0.6254867306236641  0.4637598846304739   T   T   T
  0.0955268403141903  0.6237501046651391  0.4730770760049800   T   T   T
  0.4054214644049878  0.6249282036816339  0.1371697875501496   F   F   F
  0.2498118312390858  0.6249501818115135  0.1042602234590362   F   F   F
  0.0938664600244081  0.6249385922007349  0.1371069089706722   F   F   F
  0.1543560911150905  0.7498790211591952  0.2204709660202369   F   F   F
  0.9995706735895027  0.7499094862395950  0.2080999580462830   F   F   F
  0.3447055266517580  0.7498932390428195  0.2206623926809286   F   F   F
  0.4004359345695684  0.7499010385018320  0.3066713078617224   T   T   T
  0.2495413926968904  0.7498673723540480  0.2918923768983679   T   T   T
  0.0993925540490778  0.7498853146504991  0.3070666396238786   T   T   T
  0.1515404808219452  0.7499678470678446  0.3935469717337111   T   T   T
  0.4995733468527047  0.7499116617933922  0.3757941316748384   T   T   T
  0.3474583351975386  0.7499204495219791  0.3921908640330766   T   T   T
  0.3986153000170747  0.7484707530731828  0.4782001624510447   T   T   T
  0.2500483578974981  0.7499563837082153  0.4631869504988357   T   T   T
  0.0943711189462955  0.7513914519434624  0.4730002601071979   T   T   T
  0.4054229972694188  0.7499207711709062  0.1371716336629376   F   F   F
  0.2498138581555835  0.7499451823925369  0.1043557657097551   F   F   F
  0.0938776901322669  0.7499459403779412  0.1371098843944125   F   F   F
  0.1543617400249389  0.8748920346981564  0.2204674382050342   F   F   F
  0.9995672189247742  0.8748993922795947  0.2080981530608312   F   F   F
  0.3446956533108718  0.8748674624887514  0.2206599019871973   F   F   F
  0.4004394388498683  0.8748316660138762  0.3067619478289986   T   T   T
  0.2495474909509558  0.8748918999629317  0.2919286605480845   T   T   T
  0.0993977217101257  0.8749082708293457  0.3069975863104072   T   T   T
  0.1514733326935902  0.8750989600343164  0.3934643323781416   T   T   T
  0.4995650116337023  0.8749059501064965  0.3764221685599714   T   T   T
  0.3476917732841025  0.8746197267995235  0.3923015761280407   T   T   T