Cu	N	Ru	Ta                              
   1.00000000000000     
    18.1096308199999996    0.0000000000000000    0.0000000000000000
     0.0000000000000000   23.3551997799999995    0.0000000000000000
     0.0000000000000000    0.0000000000000000   30.4818171199999988
   Cu   N    Ru   Ta
     4   240    36   204
Selective dynamics
Direct
  0.5844358715978913  0.4431057417587264  0.6176359152035423   T   T   T
  0.7999570652556393  0.3972935841958760  0.5999306739327865   T   T   T
  0.2371310409185783  0.4280490175905959  0.5929591388839769   T   T   T
  0.4483957970443441  0.4405874023237375  0.6235428357193172   T   T   T
  0.0001183010398909  0.8743994568589936  0.4734852413955652   T   T   T
  0.0007546365873381  0.7508357331636546  0.3024712727493721   F   F   F
  0.0007546365873381  0.2508357331636546  0.3024712727493721   F   F   F
  0.0007971388342227  0.6259226757939587  0.3025555019798603   F   F   F
  0.0007971388342227  0.1259226757939587  0.3025555019798603   F   F   F
  0.0009289261701255  0.8759179472966139  0.3027706837052264   F   F   F
  0.0009289261701255  0.3759179472966139  0.3027706837052264   F   F   F
  0.0009959888293309  0.0008861705399639  0.3028813086718003   F   F   F
  0.0009959888293309  0.5008861705399639  0.3028813086718003   F   F   F
  0.0022942615924715  0.0004135487969292  0.4726528376161557   T   T   T
  0.0031867290771796  0.5006336557414244  0.4726958213466828   T   T   T
  0.5699264686383777  0.2631483979410260  0.5784351948155660   T   T   T
  0.5614027365734150  0.7594226919636766  0.5813350607215413   T   T   T
  0.5944407181460178  0.8759335502460033  0.2316533513143781   F   F   F
  0.5944407181460178  0.3759335502460033  0.2316533513143781   F   F   F
  0.5944879250719026  0.6260651198762730  0.2317376786361365   F   F   F
  0.5944879250719026  0.1260651198762730  0.2317376786361365   F   F   F
  0.5945319922319641  0.7509793277392376  0.2318466107902424   F   F   F
  0.5945319922319641  0.2509793277392376  0.2318466107902424   F   F   F
  0.5946973191803622  0.0011281697544092  0.2317203788144795   F   F   F
  0.5946973191803622  0.5011281697544092  0.2317203788144795   F   F   F
  0.5980288432081282  0.3806705904444018  0.5762509001483704   T   T   T
  0.6046135370990461  0.8748610902976667  0.5688571290103088   T   T   T
  0.5993866061646973  0.2514691966549985  0.4018692586515670   T   T   T
  0.5992679417429468  0.7516155611885382  0.4021086687129041   T   T   T
  0.5999177154463867  0.1260053557006507  0.4011453600079175   T   T   T
  0.6001457917221020  0.8759173935275705  0.4011357223563248   T   T   T
  0.5997098948413235  0.6266570205772508  0.4013144408093170   T   T   T
  0.6001146854382444  0.3755168731635419  0.4011960148983048   T   T   T
  0.6006855735753701  0.0011600117313686  0.4008179179215031   T   T   T
  0.6005580474416304  0.5012450266614982  0.4008409343546033   T   T   T
  0.6034055644776836  0.9959830098640992  0.5692569639180730   T   T   T
  0.6044501367620114  0.4979318016978901  0.5716640683550829   T   T   T
  0.6133604103782051  0.1386311271854803  0.5674726632780065   T   T   T
  0.6156810027021392  0.6401754242783285  0.5667870412310776   T   T   T
  0.6482362866823332  0.7513751898288837  0.4871807994991554   T   T   T
  0.6496151810026857  0.2489851537500254  0.4861814181274835   T   T   T
  0.6522786787993765  0.1248607229102463  0.4847640180009698   T   T   T
  0.6522660341665705  0.6270430747621356  0.4844761109869224   T   T   T
  0.6534065571635689  0.8791720686696084  0.4844617127971224   T   T   T
  0.6525884099423318  0.3792595547535484  0.4846274445636917   T   T   T
  0.6550944148407837  0.9985685235160519  0.4860666791237873   T   T   T
  0.6546129067159021  0.4990623738792216  0.4861831534575720   T   T   T
  0.6549923804575926  0.7511371041673840  0.3152775575080256   F   F   F
  0.6549923804575926  0.2511371041673840  0.3152775575080256   F   F   F
  0.6552059756456146  0.6260466862938543  0.3150601846403305   F   F   F
  0.6552059756456146  0.1260466862938543  0.3150601846403305   F   F   F
  0.6552570788408829  0.8758846061131820  0.3149041322638837   F   F   F
  0.6552570788408829  0.3758846061131820  0.3149041322638837   F   F   F
  0.6554052259801963  0.0012023099894023  0.3149218625060755   F   F   F
  0.6554052259801963  0.5012023099894023  0.3149218625060755   F   F   F
  0.0685735388301749  0.1305629320474110  0.5734402876739660   T   T   T
  0.7308297244999800  0.2558809808323335  0.5580117100111773   T   T   T
  0.7276252674475724  0.7611750312236925  0.5570867299290616   T   T   T
  0.7337308651850841  0.3639589246851977  0.5588460661911206   T   T   T
  0.0730142018226136  0.6310352028963611  0.5733533932780079   T   T   T
  0.7570966832570689  0.8814386640517988  0.5557092638919744   T   T   T
  0.7503033752731617  0.2507138642802487  0.3864214181898766   T   T   T
  0.7502674248630055  0.7508805067927509  0.3868734821459537   T   T   T
  0.7507762505858194  0.1257414394291518  0.3866037433187531   T   T   T
  0.7508573886713439  0.3761741909648043  0.3859772123131790   T   T   T
  0.7509093152117859  0.8761149309407343  0.3858891125434403   T   T   T
  0.7506864964322152  0.6259842150155942  0.3867801388415968   T   T   T
  0.7503837756312706  0.8759246053428527  0.1980143607002915   F   F   F
  0.7503837756312706  0.3759246053428527  0.1980143607002915   F   F   F
  0.7504065850415813  0.0010474442621131  0.1995662990185920   F   F   F
  0.7504065850415813  0.5010474442621131  0.1995662990185920   F   F   F
  0.7504116177228610  0.6259067547141299  0.1982016356247982   F   F   F
  0.7504116177228610  0.1259067547141299  0.1982016356247982   F   F   F
  0.7504539896523426  0.7509563452768688  0.1993173260006742   F   F   F
  0.7504539896523426  0.2509563452768688  0.1993173260006742   F   F   F
  0.7512926331902111  0.0008240254197131  0.3866821616115856   T   T   T
  0.7511105715453921  0.5009575463747747  0.3871886429891961   T   T   T
  0.7652742344434444  0.4894893922414520  0.5533650016093091   T   T   T
  0.7655419356562536  0.9963711684653587  0.5563360060813893   T   T   T
  0.7701106067934244  0.1365261880201789  0.5560980084465950   T   T   T
  0.0789324299956804  0.2406608889407092  0.5718667790553847   T   T   T
  0.7722646668673424  0.6366579495436483  0.5575174652265661   T   T   T
  0.0800276849426092  0.7417035610049932  0.5723952900494281   T   T   T
  0.0854386233945995  0.3607833367823904  0.5741876514065438   T   T   T
  0.8458650408264610  0.2533449719628191  0.4848522988643836   T   T   T
  0.8457971856104365  0.7508865770875488  0.3147238720130474   F   F   F
  0.8457971856104365  0.2508865770875488  0.3147238720130474   F   F   F
  0.8463948955941053  0.7542837316276964  0.4846834954219091   T   T   T
  0.8459094352758285  0.6257770200071491  0.3148105564777453   F   F   F
  0.8459094352758285  0.1257770200071491  0.3148105564777453   F   F   F
  0.8459894799777032  0.8758569369000710  0.3146601051453359   F   F   F
  0.8459894799777032  0.3758569369000710  0.3146601051453359   F   F   F
  0.8462370857983075  0.0009253177109869  0.3148622358114821   F   F   F
  0.8462370857983075  0.5009253177109869  0.3148622358114821   F   F   F
  0.8497103186714223  0.8727444792043807  0.4850088896323379   T   T   T
  0.8478029908170509  0.3729236112885999  0.4861135726968018   T   T   T
  0.8497885254209966  0.1247394769505249  0.4846054883104534   T   T   T
  0.8499528579775025  0.6249508113637765  0.4846638575528243   T   T   T
  0.8520827875304923  0.0006665931815966  0.4858299580477642   T   T   T
  0.8528223085704607  0.5027208429145087  0.4867029837518323   T   T   T
  0.8922956367051973  0.3706949545887324  0.5738195590013169   T   T   T
  0.8962362591606186  0.2480973987086201  0.5663817756174653   T   T   T
  0.8952417069008858  0.8694150689062446  0.5715191499053602   T   T   T
  0.8970440987679651  0.7479729904711130  0.5667962289799076   T   T   T
  0.9006273958089189  0.2505218633426010  0.4007430145444993   T   T   T
  0.9008012657777085  0.7505113935942157  0.4005140050555670   T   T   T
  0.9014333907321539  0.1051864359596043  0.5673924200895314   T   T   T
  0.9013140835031315  0.1256699242328853  0.4012309308081718   T   T   T
  0.9014552420001409  0.3760882336036546  0.4012975629373921   T   T   T
  0.9012930090951798  0.6258867225990392  0.4012193333250781   T   T   T
  0.9019816025553644  0.8758918452116662  0.4007705765523278   T   T   T
  0.9023075845999201  0.0005044067375948  0.4012446042547172   T   T   T
  0.9021209549380813  0.5005649283158629  0.4019024869667119   T   T   T
  0.9046884518890461  0.6065667896464310  0.5678781070318687   T   T   T
  0.9063370116785165  0.7509661375287990  0.2314450664875594   F   F   F
  0.9063370116785165  0.2509661375287990  0.2314450664875594   F   F   F
  0.0866490321165291  0.8614856152626347  0.5743326690716514   T   T   T
  0.9065036119825223  0.6258452416457985  0.2314281613274076   F   F   F
  0.9065036119825223  0.1258452416457985  0.2314281613274076   F   F   F
  0.9065431196901699  0.0009511492176983  0.2315080614196674   F   F   F
  0.9065431196901699  0.5009511492176983  0.2315080614196674   F   F   F
  0.9067333030259945  0.8759844438376305  0.2313964578368939   F   F   F
  0.9067333030259945  0.3759844438376305  0.2313964578368939   F   F   F
  0.9247299475995040  0.9821494527715171  0.5699869481268198   T   T   T
  0.9390866500209095  0.4882332811912534  0.5778078505336472   T   T   T
  0.0952407101582224  0.7510020395980561  0.2320892091881959   F   F   F
  0.0952407101582224  0.2510020395980561  0.2320892091881959   F   F   F
  0.0953260277450525  0.0008979764762245  0.2323666739458474   F   F   F
  0.0953260277450525  0.5008979764762245  0.2323666739458474   F   F   F
  0.0953735919394063  0.6258547564434522  0.2322437075234305   F   F   F
  0.0953735919394063  0.1258547564434522  0.2322437075234305   F   F   F
  0.0955543013107132  0.8759987254538473  0.2323923499085652   F   F   F
  0.0955543013107132  0.3759987254538473  0.2323923499085652   F   F   F
  0.0991952984742670  0.2511079013747561  0.4019415829731888   T   T   T
  0.0994368922756548  0.1253483958727266  0.4016805281426728   T   T   T
  0.0996593093575987  0.7510881911760217  0.4018469887537688   T   T   T
  0.0995244953222790  0.6251355707815038  0.4015713479531944   T   T   T
  0.0998554098789460  0.3755199332660610  0.4027018913684212   T   T   T
  0.9980582549051293  0.2506519844621403  0.4725107990389363   T   T   T
  0.1003905140308284  0.8756412247628311  0.4029033636948792   T   T   T
  0.9986829180751577  0.1244621195967235  0.4721367792230465   T   T   T
  0.9987737850957250  0.7505952117234009  0.4724275221739352   T   T   T
  0.9990592960998462  0.6250440810244572  0.4722141074310545   T   T   T
  0.9996654126089390  0.3742492621025155  0.4742343486120184   T   T   T
  0.1008487619562478  0.0012653469693034  0.4028318376219142   T   T   T
  0.1007089032309421  0.5013775211107956  0.4023661252912411   T   T   T
  0.1049779491944731 -0.0001964681279872  0.5671096696930783   T   T   T
  0.1121583348445731  0.5014020328835525  0.5642847786606643   T   T   T
  0.1484183053283478  0.2463570193678898  0.4872417684679143   T   T   T
  0.1486412053387938  0.1284418073765781  0.4858405617264880   T   T   T
  0.1484564558979212  0.6282728858691655  0.4858314324851583   T   T   T
  0.1486869965193570  0.7459919176661743  0.4874787523637778   T   T   T
  0.1531453478024833  0.3765085214208334  0.4869674781646933   T   T   T
  0.1534168140185939  0.8767179650890876  0.4878994794258240   T   T   T
  0.1554278840897965  0.7509669489112838  0.3157714680232928   F   F   F
  0.1554278840897965  0.2509669489112767  0.3157714680232928   F   F   F
  0.1550121540567846  0.0017775331846852  0.4871391801143349   T   T   T
  0.1555300833018336  0.8760083006234964  0.3161854069282626   F   F   F
  0.1555300833018336  0.3760083006234964  0.3161854069282626   F   F   F
  0.1556347359045702  0.6258770940815310  0.3158690852351640   F   F   F
  0.1556347359045702  0.1258770940815310  0.3158690852351640   F   F   F
  0.1557688557010550  0.0008265358541948  0.3160543218953578   F   F   F
  0.1557688557010550  0.5008265358541948  0.3160543218953578   F   F   F
  0.1565975858004461  0.5011264371044288  0.4856103983492013   T   T   T
  0.2084799058176066  0.1114907332025669  0.5664774181783864   T   T   T
  0.2173187209765246  0.6138940396946917  0.5629001608915273   T   T   T
  0.2232237817178944  0.2485327337853617  0.5619097142876237   T   T   T
  0.2211564441196893  0.7505048549316901  0.5638670859396967   T   T   T
  0.2500798891588944  0.2512920173957865  0.3879197793662669   T   T   T
  0.2504532579544332  0.1256330849420847  0.3887624176656189   T   T   T
  0.2502180647833617  0.7513024239909596  0.3877101579969581   T   T   T
  0.2505709528947327  0.6255454568407670  0.3887038956527916   T   T   T
  0.2509322540340169  0.3754778445214341  0.3887499145068878   T   T   T
  0.2509128867275844  0.8756715116512966  0.3887619501183104   T   T   T
  0.2510989658310383  0.0014119480861886  0.3880478751950155   T   T   T
  0.2506886730670530  0.7509740783728773  0.1986783637654739   F   F   F
  0.2506886730670530  0.2509740783728773  0.1986783637654739   F   F   F
  0.2507303928573421  0.8760426103278647  0.2004520155719618   F   F   F
  0.2507303928573421  0.3760426103278647  0.2004520155719618   F   F   F
  0.2507787477911734  0.6260460958471867  0.2004465916827201   F   F   F
  0.2507787477911734  0.1260460958471867  0.2004465916827201   F   F   F
  0.2507842901460080  0.0010521164550710  0.1987081864626035   F   F   F
  0.2507842901460080  0.5010521164550710  0.1987081864626035   F   F   F
  0.2513439758387420  0.5012920935636886  0.3878905146147923   T   T   T
  0.2809183553212637  0.4980826167490004  0.5672869254738604   T   T   T
  0.2821916610247955  0.0002276774933829  0.5651648909554700   T   T   T
  0.2896159954945691  0.8643593094748792  0.5646081876033718   T   T   T
  0.2890666753954937  0.3660110793500329  0.5681208012462906   T   T   T
  0.3456162527506529  0.2512818099138736  0.4865452289329102   T   T   T
  0.3457709857389588  0.7509801434034244  0.3160634932646005   F   F   F
  0.3457709857389588  0.2509801434034244  0.3160634932646005   F   F   F
  0.3458124879654534  0.8762438730036024  0.3160546332285037   F   F   F
  0.3458124879654534  0.3762438730036024  0.3160546332285037   F   F   F
  0.3458692307014104  0.0011300682609701  0.3160825482309733   F   F   F
  0.3458692307014104  0.5011300682609701  0.3160825482309733   F   F   F
  0.3458914509224655  0.6260993829100983  0.3163092197569100   F   F   F
  0.3458914509224655  0.1260993829100983  0.3163092197569100   F   F   F
  0.3453340384988508  0.7528374478159843  0.4857432100660651   T   T   T
  0.3480929814715875  0.1268635221733419  0.4885340770332826   T   T   T
  0.3481051508735731  0.6272441208388690  0.4880135396168195   T   T   T
  0.3523579361301025  0.9971039589214780  0.4878212950054487   T   T   T
  0.3531290404988310  0.8788514856266796  0.4865766645764864   T   T   T
  0.3533598838317733  0.3776913739118826  0.4871225004287998   T   T   T
  0.3534464707449909  0.4970159690061151  0.4889676367095483   T   T   T
  0.3933294202092242  0.2556435810338064  0.5659021517347113   T   T   T
  0.3872868288990172  0.7507462314573576  0.5653656409796028   T   T   T
  0.4008619357964921  0.2515632264775015  0.4027620884170158   T   T   T
  0.4012528139153202  0.1259444853932810  0.4030766093216671   T   T   T
  0.4007516472548046  0.7516188059209911  0.4026467025327916   T   T   T
  0.4012214635385756  0.6260376520426475  0.4033341349562553   T   T   T
  0.4017702060889373  0.0016172655254549  0.4022071570642050   T   T   T
  0.4016299376765801  0.5017211754308049  0.4025516544911154   T   T   T
  0.4019252285535403  0.3753539076066350  0.4021206074643105   T   T   T
  0.4020214475643658  0.8758729432227862  0.4020493066748880   T   T   T
  0.4059113337573805  0.8760558925948985  0.2324750129594619   F   F   F
  0.4059113337573805  0.3760558925948985  0.2324750129594619   F   F   F
  0.4059234726022964  0.6261621252550071  0.2326545521246786   F   F   F
  0.4059234726022964  0.1261621252550071  0.2326545521246786   F   F   F
  0.4060644417929637  0.7510364413590125  0.2325227387887452   F   F   F
  0.4060644417929637  0.2510364413590125  0.2325227387887452   F   F   F
  0.4061374416245584  0.0011248655651599  0.2324172293308493   F   F   F
  0.4061374416245584  0.5011248655651599  0.2324172293308493   F   F   F
  0.4165167377407339  0.1144319204280955  0.5722680716502649   T   T   T
  0.4192796853051117  0.6122339322182849  0.5736056952784445   T   T   T
  0.4247715639236407  0.9949817370969005  0.5721996632089532   T   T   T
  0.4278549803853657  0.4930178327647526  0.5758264738188024   T   T   T
  0.4352831909802712  0.8875361631271456  0.5749059529527097   T   T   T
  0.4368050070653573  0.3842070108695254  0.5788033893997317   T   T   T
  0.4999946274625441  0.2513765854373569  0.4732454021866775   T   T   T
  0.4984267763791924  0.7518905507564322  0.4735154540418473   T   T   T
  0.5004630585837617  0.7510598909550410  0.3031888444713573   F   F   F
  0.5004630585837617  0.2510598909550410  0.3031888444713573   F   F   F
  0.5004977600090044  0.6261199205207575  0.3031516629609641   F   F   F
  0.5004977600090044  0.1261199205207575  0.3031516629609641   F   F   F
  0.5005209432535551  0.8761149809355189  0.3028206587442455   F   F   F
  0.5005209432535551  0.3761149809355189  0.3028206587442455   F   F   F
  0.5006083602757840  0.0011215981985515  0.3028334437431965   F   F   F
  0.5006083602757840  0.5011215981985515  0.3028334437431965   F   F   F
  0.5018651513678291  0.1267146907584745  0.4738886567263184   T   T   T
  0.5024174847874529  0.8768737689669311  0.4728287324768271   T   T   T
  0.5028288066184193  0.0015513930268422  0.4725820191645412   T   T   T
  0.5024557741408143  0.3761247874259943  0.4721039129941227   T   T   T
  0.5016996296452471  0.6273350953444768  0.4743995401981048   T   T   T
  0.5028643093032877  0.5015578291002725  0.4719440300264437   T   T   T
  0.0042195512318317  0.9973105461148905  0.5406092833191780   T   T   T
  0.0144473690913791  0.5025729307195186  0.5409372681081738   T   T   T
  0.6263615806746267  0.0652775646322469  0.5393030130889997   T   T   T
  0.6304372041270757  0.5660277199339246  0.5368265303452968   T   T   T
  0.6383541882388334  0.3077923799825162  0.5501364239530013   T   T   T
  0.6249008847410037  0.7977857325303426  0.5470028406162901   T   T   T
  0.6968319222758185  0.1862198336864465  0.5371359256606471   T   T   T
  0.7004511380745291  0.6869986294336355  0.5381148867304716   T   T   T
  0.8045554124336927  0.5637036532953027  0.5369166802992448   T   T   T
  0.8064561090858938  0.0649994389964492  0.5367771942895545   T   T   T
  0.8457460901147822  0.9363924258584155  0.5364659487322282   T   T   T
  0.8723412274524365  0.1758495685608228  0.5420257150471376   T   T   T
  0.8715137274033804  0.4544346538261885  0.5428886832708877   T   T   T
  0.8729074919860084  0.6760065040643111  0.5423060515433076   T   T   T
  0.9949636098557038  0.2540354077077973  0.5394734307553496   T   T   T
  0.9952872230275073  0.1154142998538475  0.5396332482094194   T   T   T
  0.9959990475837073  0.7536152575983076  0.5394445677112614   T   T   T
  0.9976682356533325  0.6177231957643257  0.5401002197921714   T   T   T
  0.1229504786578640  0.4251695775368299  0.5415547957414542   T   T   T
  0.1201944724614588  0.9278761907026380  0.5431320460128863   T   T   T
  0.1404495556946515  0.3014199201103931  0.5423774659016450   T   T   T
  0.1399463471116189  0.8026601925254914  0.5417715724127500   T   T   T
  0.2021729816277548  0.0402499218760422  0.5431677857259487   T   T   T
  0.2050849317388815  0.5429456714981699  0.5409924878223038   T   T   T
  0.3000027209515376  0.2942283952120383  0.5418240081133976   T   T   T
  0.2984665354717343  0.7936272079347665  0.5413697070984645   T   T   T
  0.3619893947491112  0.0548211870622175  0.5413291840312052   T   T   T
  0.3662003759535506  0.5522358889762878  0.5453419178005334   T   T   T
  0.3797734873794780  0.1819887127549970  0.5422381797072706   T   T   T
  0.3756179769332401  0.6760877292251514  0.5430021341251778   T   T   T
  0.4935787027288934  0.2541313419182659  0.5413057476411388   T   T   T
  0.4867777877116152  0.7498461189408312  0.5416840195243242   T   T   T
  0.5113145344730113  0.8813401493893864  0.5402916678794042   T   T   T
  0.5087406959570370  0.9971510664733312  0.5399098951143821   T   T   T
  0.5104278251490947  0.4964839265673294  0.5385213417938368   T   T   T
  0.5119816591339621  0.3808864347848955  0.5393135838918375   T   T   T
  0.0004559282657503  0.1255939497966605  0.3691500969064611   T   T   T
  0.0005193491367142  0.6256081045638836  0.3691207051452488   T   T   T
  0.0010926908092405  0.3757587072526851  0.3695929380573270   T   T   T
  0.0017883494988132  0.8758175534490397  0.3694205505508983   T   T   T
  0.0010343750342656  0.7509675273691911  0.1970340395507222   F   F   F
  0.0010343750342656  0.2509675273691911  0.1970340395507222   F   F   F
  0.0019491838164211  0.0006703558471791  0.3695907668769617   T   T   T
  0.0014605111395525  0.5006595778708340  0.3696975474384161   T   T   T
  0.0013074606674977  0.0009931951008113  0.1970949867046485   F   F   F
  0.0013074606674977  0.5009931951008113  0.1970949867046485   F   F   F
  0.0014056432322107  0.6258753569951239  0.1970772590869743   F   F   F
  0.0014056432322107  0.1258753569951239  0.1970772590869743   F   F   F
  0.0016300205284878  0.8760244032474702  0.1970602374639512   F   F   F
  0.0016300205284878  0.3760244032474702  0.1970602374639512   F   F   F
  0.5828489970288615  0.8134981673875430  0.2835797008416634   F   F   F
  0.5828489970288615  0.3134981673875430  0.2835797008416634   F   F   F
  0.5829043521053947  0.6885407361734863  0.2836251512160501   F   F   F
  0.5829043521053947  0.1885407361734863  0.2836251512160501   F   F   F
  0.5829602019462925  0.4385545752758304  0.2833243807611936   F   F   F
  0.5829602019462925  0.9385545752758304  0.2833243807611936   F   F   F
  0.5830265959005345  0.5635893986773652  0.2835447360626375   F   F   F
  0.5830265959005345  0.0635893986773652  0.2835447360626375   F   F   F
  0.5855380444356043  0.9389608981475658  0.4523962049250542   T   T   T
  0.5850034257326261  0.1887567090191051  0.4531462542257454   T   T   T
  0.5851180055210723  0.4388633558037092  0.4525436078405974   T   T   T
  0.5844167516958394  0.8144657331985223  0.4551481083786572   T   T   T
  0.5844849191686678  0.6894583517630379  0.4536364670882507   T   T   T
  0.5864488326806041  0.0629707786513109  0.4532261271980473   T   T   T
  0.5857845357735831  0.3135760505709970  0.4556319701765169   T   T   T
  0.5864518893522966  0.5635001313140664  0.4532712322469664   T   T   T
  0.6662453414939336  0.5635923628994988  0.2021068355520654   F   F   F
  0.6662453414939336  0.0635923628994988  0.2021068355520654   F   F   F
  0.6663404610475681  0.8134949072998268  0.2022484366903115   F   F   F
  0.6663404610475681  0.3134949072998268  0.2022484366903115   F   F   F
  0.6663750951053373  0.6883939277525641  0.2022233082671292   F   F   F
  0.6663750951053373  0.1883939277525641  0.2022233082671292   F   F   F
  0.6663864277493872  0.4383644600106251  0.2021335334354930   F   F   F
  0.6663864277493872  0.9383644600106251  0.2021335334354930   F   F   F
  0.6680777839306726  0.3135254999992532  0.3677259391961545   T   T   T
  0.6682703550523446  0.1885370921404982  0.3674640843094101   T   T   T
  0.6681517396645136  0.8135350059062715  0.3678455650156188   T   T   T
  0.6681335510024845  0.6887172183799319  0.3675902846198231   T   T   T
  0.6688011847352239  0.9385318285931334  0.3669512757892421   T   T   T
  0.6687263678332112  0.4385325188725568  0.3672277106641448   T   T   T
  0.6688558817509449  0.0635567916306435  0.3673819279527181   T   T   T
  0.6686488723342738  0.5636972290264828  0.3675526563963609   T   T   T
  0.6734261591034587  0.4356583615458086  0.5398257128205572   T   T   T
  0.6753896554318178  0.9344929766923485  0.5400206720780160   T   T   T
  0.7474777599607416  0.2512637003671717  0.4542092035834818   T   T   T
  0.7475745772893559  0.7522051808503757  0.4550189186131648   T   T   T
  0.7504042855433701  0.1252396932482445  0.4545859075387525   T   T   T
  0.7501730562611186  0.7507079098083409  0.2774330469442816   F   F   F
  0.7501730562611186  0.2507079098083409  0.2774330469442816   F   F   F
  0.7504750055418299  0.6259680682551618  0.2773981497465243   F   F   F
  0.7504750055418299  0.1259680682551618  0.2773981497465243   F   F   F
  0.7514635288098439  0.8754995732461526  0.4535084403652109   T   T   T
  0.7505173338481086  0.8759365097582545  0.2770578193141517   F   F   F
  0.7505173338481086  0.3759365097582545  0.2770578193141517   F   F   F
  0.7507214605353588  0.6263044718860870  0.4546269194201357   T   T   T
  0.7507337004896470  0.0010587017123740  0.2774432067716575   F   F   F
  0.7507337004896470  0.5010587017123740  0.2774432067716575   F   F   F
  0.7511312204249500  0.3755476834914778  0.4533893273816196   T   T   T
  0.7537460587992771  0.0003390501795737  0.4546465312116443   T   T   T
  0.7535617036907633  0.5003987806207185  0.4553692727272999   T   T   T
  0.0813842136420791  0.1878859410776721  0.4528558100337636   T   T   T
  0.0814624865163885  0.6877211317656439  0.4526294020637293   T   T   T
  0.8240144061807323  0.3112389036382428  0.5394934982420327   T   T   T
  0.8260101322298447  0.8136837926453889  0.5402908685030000   T   T   T
  0.8325070314716018  0.1882005505107437  0.3670640168260622   T   T   T
  0.8325344500125549  0.6882767192419059  0.3671557334560296   T   T   T
  0.8327733461880830  0.3133419559798455  0.3670341180616685   T   T   T
  0.8324117826645666  0.8133041505188592  0.3669173081523946   T   T   T
  0.8330118426611746  0.0632630900966733  0.3673266842733863   T   T   T
  0.8331614579447643  0.5633080575656956  0.3676327938370355   T   T   T
  0.8332662028395379  0.9383048052938430  0.3671386795725545   T   T   T
  0.8336040358128384  0.4384284606933721  0.3676044675270166   T   T   T
  0.8344344719226058  0.6883603527882158  0.2020465356692611   F   F   F
  0.8344344719226058  0.1883603527882158  0.2020465356692611   F   F   F
  0.8344691253071090  0.4383027932291981  0.2021423465583752   F   F   F
  0.8344691253071090  0.9383027932291981  0.2021423465583752   F   F   F
  0.8345236995836203  0.8136019065986346  0.2020593032807980   F   F   F
  0.8345236995836203  0.3136019065986346  0.2020593032807980   F   F   F
  0.8345432068835521  0.5635442939465207  0.2020614199525141   F   F   F
  0.8345432068835521  0.0635442939465207  0.2020614199525141   F   F   F
  0.0835181835032017  0.8134609632527869  0.2839000862688721   F   F   F
  0.0835181835032017  0.3134609632527869  0.2839000862688721   F   F   F
  0.0836480050342630  0.5633752300961916  0.2839758639034855   F   F   F
  0.0836480050342630  0.0633752300961916  0.2839758639034855   F   F   F
  0.0841241803407323  0.3127109220523431  0.4550274570174064   T   T   T
  0.0836768758602418  0.6884091217994310  0.2837888281379435   F   F   F
  0.0836768758602418  0.1884091217994310  0.2837888281379435   F   F   F
  0.0836920180794749  0.4383888699923588  0.2841732146708722   F   F   F
  0.0836920180794749  0.9383888699923588  0.2841732146708722   F   F   F
  0.0850840034828721  0.8127525001249812  0.4548424921181289   T   T   T
  0.0858591908875131  0.0636864360220794  0.4552842843489674   T   T   T
  0.0859060562745314  0.4383993361873861  0.4543387262759622   T   T   T
  0.0858613350373798  0.5634992540081767  0.4551516841702013   T   T   T
  0.0862902388469765  0.9382772821545172  0.4551465971830430   T   T   T
  0.9147220531396570  0.1887340327381047  0.4537989650919267   T   T   T
  0.9146315839793580  0.6889388123349131  0.4539456060616222   T   T   T
  0.9151364651816026  0.3129591111065120  0.4524166411605355   T   T   T
  0.9169723770311998  0.8125550885511948  0.4517848110606196   T   T   T
  0.9172609659869571  0.4377661863385633  0.4550891022312371   T   T   T
  0.9179970238706692  0.9374645055863672  0.4533799468746250   T   T   T
  0.9177100755499289  0.0626076093536302  0.4529801121579277   T   T   T
  0.9181839152478091  0.6884040565462470  0.2831378587445599   F   F   F
  0.9181839152478091  0.1884040565462470  0.2831378587445599   F   F   F
  0.9183135271256552  0.5631026337622638  0.4531285995398990   T   T   T
  0.9183594213103916  0.8134327656776748  0.2832265145484243   F   F   F
  0.9183594213103916  0.3134327656776748  0.2832265145484243   F   F   F
  0.9184058656586132  0.5633566590711467  0.2833389507587185   F   F   F
  0.9184058656586132  0.0633566590711467  0.2833389507587185   F   F   F
  0.9185001265531056  0.4384185648785746  0.2832681567508857   F   F   F
  0.9185001265531056  0.9384185648785746  0.2832681567508857   F   F   F
  0.9883524969938421  0.3670531854199864  0.5428298361390566   T   T   T
  0.9901759759899044  0.8657656924180183  0.5417594516534420   T   T   T
  0.0001955576966668  0.2509334404352481  0.3691124174487572   T   T   T
  0.0006004506963095  0.7509505061138023  0.3690124603684842   T   T   T
  0.1527122587563878  0.1792638270279775  0.5440461134182893   T   T   T
  0.1533818920537667  0.6809529236507352  0.5435324042753693   T   T   T
  0.1667765378554549  0.5633392265506032  0.2026421323795375   F   F   F
  0.1667765378554549  0.0633392265506032  0.2026421323795375   F   F   F
  0.1668059973185052  0.6886073834303943  0.2025943133799615   F   F   F
  0.1668059973185052  0.1886073834303943  0.2025943133799615   F   F   F
  0.1668155121452699  0.8133424731509606  0.2025799106952988   F   F   F
  0.1668155121452699  0.3133424731509606  0.2025799106952988   F   F   F