Ta  N Cu                                
   1.00000000000000     
    18.1096308199999996    0.0000000000000000    0.0000000000000000
     0.0000000000000000   23.3551997799999995    0.0000000000000000
     0.0000000000000000    0.0000000000000000   30.4818170799999990
   Ta   N    Cu
   240   240     3
Selective dynamics
Direct
  0.0000000000000000  0.0000000000000000  0.1962037549895328   F   F   F
  0.3335422814544131  0.0625000001605613  0.2032829710819826   F   F   F
  0.1664576892793903  0.0625000001605613  0.2032829710819826   F   F   F
  0.2499999997239044  0.1249999998929567  0.2787808134173062   F   F   F
  0.0825353920715628  0.0625000001605613  0.2838315333135668   F   F   F
  0.4174646079284372  0.0625000001605613  0.2838315333135668   F   F   F
  0.0000054039242414  0.1250076664673194  0.3695576324049499   T   T   T
  0.3322345289334986  0.0624745885664236  0.3683647643323787   T   T   T
  0.1676654581405133  0.0624721934369600  0.3684724056829872   T   T   T
  0.2495935184896992  0.1250210496384561  0.4557839133563575   T   T   T
  0.0835231976716550  0.0624319022034288  0.4545137979831610   T   T   T
  0.4160863078278126  0.0624134634265692  0.4543290565385272   T   T   T
  0.9994433073041806  0.1249072007428069  0.5402093418815661   T   T   T
  0.3365588662213735  0.0623383780951986  0.5425300706985055   T   T   T
  0.1689676329192450  0.0625415350895091  0.5409831899849867   T   T   T
  0.0000000000000000  0.1249999998929567  0.1962037549895328   F   F   F
  0.3335422814544131  0.1875000000535181  0.2032829710819826   F   F   F
  0.1664576892793903  0.1875000000535181  0.2032829710819826   F   F   F
  0.2499999997239044  0.2500000002140865  0.2787808134173062   F   F   F
  0.0825353920715628  0.1875000000535181  0.2838315333135668   F   F   F
  0.4174646079284372  0.1875000000535181  0.2838315333135668   F   F   F
  0.9999739173098539  0.2499444164004459  0.3695591837025461   T   T   T
  0.3322410762954907  0.1874906694201421  0.3684002884051477   T   T   T
  0.1677871004254001  0.1874674983965856  0.3684708187881790   T   T   T
  0.2496608727736815  0.2498979100051243  0.4556249342004713   T   T   T
  0.0836622514219988  0.1874931668241444  0.4543708101911875   T   T   T
  0.4160857816342927  0.1873622880994699  0.4542296490718959   T   T   T
  0.0000379844198502  0.2499836620790724  0.5404592404813304   T   T   T
  0.3355989424536348  0.1873187178078325  0.5423113830855043   T   T   T
  0.1652848277359317  0.1888221708441165  0.5428866713367874   T   T   T
  0.0000000000000000  0.2500000002140865  0.1962037549895328   F   F   F
  0.3335422814544131  0.3124999999464819  0.2032829710819826   F   F   F
  0.1664576892793903  0.3124999999464819  0.2032829710819826   F   F   F
  0.2499999997239044  0.3750000001070433  0.2787808134173062   F   F   F
  0.0825353920715628  0.3124999999464819  0.2838315333135668   F   F   F
  0.4174646079284372  0.3124999999464819  0.2838315333135668   F   F   F
  0.9999316865404624  0.3750231041429495  0.3695595762763028   T   T   T
  0.3322688550919992  0.3125214554734476  0.3684481308635198   T   T   T
  0.1678319442132546  0.3124895947956645  0.3683829665460992   T   T   T
  0.2497144932571174  0.3749298687940907  0.4557302938314387   T   T   T
  0.0837671528359633  0.3124495986710214  0.4541990519937529   T   T   T
  0.4160824895204978  0.3124004481029985  0.4544579182950240   T   T   T
  0.9997720259723449  0.3750501236905648  0.5402109976480762   T   T   T
  0.3339882139041534  0.3119565877126632  0.5423443399634074   T   T   T
  0.1635464854044918  0.3132118190666250  0.5423036220787971   T   T   T
  0.0000000000000000  0.3750000001070433  0.1962037549895328   F   F   F
  0.3335422814544131  0.4375000002676046  0.2032829710819826   F   F   F
  0.1664576892793903  0.4375000002676046  0.2032829710819826   F   F   F
  0.2499999997239044  0.0000000000000000  0.2787808134173062   F   F   F
  0.0825353920715628  0.4375000002676046  0.2838315333135668   F   F   F
  0.4174646079284372  0.4375000002676046  0.2838315333135668   F   F   F
  0.0000192285622248  0.9999374559034168  0.3695768041331366   T   T   T
  0.3326381343093200  0.4374899811290214  0.3685619474268442   T   T   T
  0.1679137223937682  0.4374963808164374  0.3682986570652465   T   T   T
  0.2496643887319313  0.9998482005845878  0.4558063641914143   T   T   T
  0.0835351196272547  0.4375513062904237  0.4541719067774698   T   T   T
  0.4161422308147233  0.4374811657727893  0.4549033225119949   T   T   T
  0.9994779226061490  0.0001298877613993  0.5402616653807766   T   T   T
  0.3311219759601581  0.4375444684016175  0.5408767647984958   T   T   T
  0.1630306961991511  0.4376779211920353  0.5422260463098229   T   T   T
  0.0000000000000000  0.5000000000000000  0.1962037549895328   F   F   F
  0.3335422814544131  0.5625000001605613  0.2032829710819826   F   F   F
  0.1664576892793903  0.5625000001605613  0.2032829710819826   F   F   F
  0.2499999997239044  0.6249999998929567  0.2787808134173062   F   F   F
  0.0825353920715628  0.5625000001605613  0.2838315333135668   F   F   F
  0.4174646079284372  0.5625000001605613  0.2838315333135668   F   F   F
  0.9999497156270828  0.6250587867708534  0.3695482041276942   T   T   T
  0.3322763759312125  0.5624627812847477  0.3684644783438134   T   T   T
  0.1678937581395767  0.5625114427439978  0.3683659696532124   T   T   T
  0.2497531725486840  0.6250481958170422  0.4556328437162216   T   T   T
  0.0837706989968300  0.5626343877048445  0.4541343484580914   T   T   T
  0.4160494678537368  0.5625554427279588  0.4544425601657245   T   T   T
  0.9998616580631697  0.6249934439681865  0.5405111254518613   T   T   T
  0.3338528963654809  0.5632120943547765  0.5424610625784546   T   T   T
  0.1637847971432375  0.5622530663260618  0.5423298151094110   T   T   T
  0.0000000000000000  0.6249999998929567  0.1962037549895328   F   F   F
  0.3335422814544131  0.6875000000535181  0.2032829710819826   F   F   F
  0.1664576892793903  0.6875000000535181  0.2032829710819826   F   F   F
  0.2499999997239044  0.7500000002140865  0.2787808134173062   F   F   F
  0.0825353920715628  0.6875000000535181  0.2838315333135668   F   F   F
  0.4174646079284372  0.6875000000535181  0.2838315333135668   F   F   F
  0.9999700568976059  0.7500427980797628  0.3695536835867611   T   T   T
  0.3322526338149128  0.6874869715271335  0.3683918112589554   T   T   T
  0.1678098205683804  0.6875290891018548  0.3683657117045306   T   T   T
  0.2498967419751268  0.7500612363538227  0.4556653294062301   T   T   T
  0.0837599317603874  0.6875608277973562  0.4542637495509851   T   T   T
  0.4160741742895963  0.6875789263687380  0.4543046335175260   T   T   T
  0.9998826423047864  0.7499460711952384  0.5406042328097882   T   T   T
  0.3349991961946962  0.6876669645124900  0.5425136457949138   T   T   T
  0.1645719433558337  0.6871612034670338  0.5424826328210343   T   T   T
  0.0000000000000000  0.7500000002140865  0.1962037549895328   F   F   F
  0.3335422814544131  0.8124999999464819  0.2032829710819826   F   F   F
  0.1664576892793903  0.8124999999464819  0.2032829710819826   F   F   F
  0.2499999997239044  0.8750000001070433  0.2787808134173062   F   F   F
  0.0825353920715628  0.8124999999464819  0.2838315333135668   F   F   F
  0.4174646079284372  0.8124999999464819  0.2838315333135668   F   F   F
  0.0000071982912697  0.8750013662345512  0.3695727265309937   T   T   T
  0.3322366375712295  0.8125018765998776  0.3683792173382009   T   T   T
  0.1677439417901622  0.8125089439722071  0.3683996445789323   T   T   T
  0.2499011168996437  0.8750130662397527  0.4556872057901902   T   T   T
  0.0838420061271803  0.8124703274235839  0.4543483242655794   T   T   T
  0.4161342401045457  0.8125285160851714  0.4543509646726493   T   T   T
  0.0001502973875723  0.8750423974764919  0.5406489211008351   T   T   T
  0.3352552067476887  0.8123763134346961  0.5425076283328087   T   T   T
  0.1645904569130543  0.8118597663589135  0.5425586546951634   T   T   T
  0.0000000000000000  0.8750000001070433  0.1962037549895328   F   F   F
  0.3335422814544131  0.9375000002676046  0.2032829710819826   F   F   F
  0.1664576892793903  0.9375000002676046  0.2032829710819826   F   F   F
  0.2499999997239044  0.5000000000000000  0.2787808134173062   F   F   F
  0.0825353920715628  0.9375000002676046  0.2838315333135668   F   F   F
  0.4174646079284372  0.9375000002676046  0.2838315333135668   F   F   F
  0.9999194733930981  0.4999839748370763  0.3695604832902332   T   T   T
  0.3322135557106956  0.9374964438941064  0.3684000465999430   T   T   T
  0.1677481980667924  0.9374928026328889  0.3684962793984422   T   T   T
  0.2497353334995058  0.5000506864656884  0.4557356443251416   T   T   T
  0.0837111348983620  0.9373663533135976  0.4544645135811444   T   T   T
  0.4161381411154964  0.9374732291907859  0.4542822070232233   T   T   T
  0.9998153784062148  0.4999585387578693  0.5402098022429176   T   T   T
  0.3357107906696803  0.9373529705633020  0.5423865135569442   T   T   T
  0.1656099913960347  0.9362431976659675  0.5430188962727193   T   T   T
  0.5000000000000000  0.0000000000000000  0.1962037549895328   F   F   F
  0.8335422809022219  0.0625000001605613  0.2032829710819826   F   F   F
  0.6664576892793903  0.0625000001605613  0.2032829710819826   F   F   F
  0.7499999997239044  0.1249999998929567  0.2787808134173062   F   F   F
  0.5825353920715628  0.0625000001605613  0.2838315333135668   F   F   F
  0.9174646079284372  0.0625000001605613  0.2838315333135668   F   F   F
  0.4999822133392305  0.1249117505200205  0.3695721848290254   T   T   T
  0.8321486730435279  0.0624774853933218  0.3683414965547578   T   T   T
  0.6676506841732944  0.0624811110831838  0.3683449077580013   T   T   T
  0.7498480100746892  0.1249858764349644  0.4555887465934813   T   T   T
  0.5836774645617990  0.0624268388414555  0.4543698805871806   T   T   T
  0.9159511827873108  0.0624415474315958  0.4541800524234038   T   T   T
  0.5004535510331831  0.1250161220207625  0.5406720971256083   T   T   T
  0.8346809483120494  0.0625724157892255  0.5420713157423747   T   T   T
  0.6649126259088119  0.0623727050052080  0.5425866198679504   T   T   T
  0.5000000000000000  0.1249999998929567  0.1962037549895328   F   F   F
  0.8335422809022219  0.1875000000535181  0.2032829710819826   F   F   F
  0.6664576892793903  0.1875000000535181  0.2032829710819826   F   F   F
  0.7499999997239044  0.2500000002140865  0.2787808134173062   F   F   F
  0.5825353920715628  0.1875000000535181  0.2838315333135668   F   F   F
  0.9174646079284372  0.1875000000535181  0.2838315333135668   F   F   F
  0.4999490984565866  0.2500195711541922  0.3695807748222923   T   T   T
  0.8320725367080464  0.1874851337484374  0.3683250666202462   T   T   T
  0.6676878242301693  0.1875146254559259  0.3683767410930595   T   T   T
  0.7499639077764325  0.2499153214967895  0.4556051017064031   T   T   T
  0.5836999408864548  0.1873997255457573  0.4542892911466468   T   T   T
  0.9159594556370096  0.1874389904323397  0.4541125687477501   T   T   T
  0.4999701256382231  0.2500656771581136  0.5405743822851442   T   T   T
  0.8352454017229267  0.1877062161345471  0.5422053957475309   T   T   T
  0.6650631148992305  0.1874346459002775  0.5425014912421823   T   T   T
  0.5000000000000000  0.2500000002140865  0.1962037549895328   F   F   F
  0.8335422809022219  0.3124999999464819  0.2032829710819826   F   F   F
  0.6664576892793903  0.3124999999464819  0.2032829710819826   F   F   F
  0.7499999997239044  0.3750000001070433  0.2787808134173062   F   F   F
  0.5825353920715628  0.3124999999464819  0.2838315333135668   F   F   F
  0.9174646079284372  0.3124999999464819  0.2838315333135668   F   F   F
  0.4999335495017030  0.3749812407861688  0.3696288575456115   T   T   T
  0.8320254885494474  0.3125016292597237  0.3683445077143970   T   T   T
  0.6676316055311694  0.3125358404397865  0.3684723303979664   T   T   T
  0.7499419244886212  0.3749246209619374  0.4557606589764733   T   T   T
  0.5837131806943063  0.3124315338385972  0.4544515583720340   T   T   T
  0.9159686724630498  0.3124134295001977  0.4541548454767026   T   T   T
  0.4997993757064751  0.3760277442470606  0.5415651022788185   T   T   T
  0.8359794862399116  0.3127130048161709  0.5423126965215127   T   T   T
  0.6658620065767741  0.3118975716993594  0.5424275684438209   T   T   T
  0.5000000000000000  0.3750000001070433  0.1962037549895328   F   F   F
  0.8335422809022219  0.4375000002676046  0.2032829710819826   F   F   F
  0.6664576892793903  0.4375000002676046  0.2032829710819826   F   F   F
  0.7499999997239044  0.0000000000000000  0.2787808134173062   F   F   F
  0.5825353920715628  0.4375000002676046  0.2838315333135668   F   F   F
  0.9174646079284372  0.4375000002676046  0.2838315333135668   F   F   F
  0.4999924867284127  0.9999876137488787  0.3695686092589204   T   T   T
  0.8319869618863944  0.4375060060828673  0.3682991409291907   T   T   T
  0.6672655431310968  0.4374971595477655  0.3685682451720053   T   T   T
  0.7498067101385840  0.9999152032185181  0.4556138122873572   T   T   T
  0.5836117546904432  0.4374941836814082  0.4548953158256138   T   T   T
  0.9161667887415362  0.4375337258335815  0.4542023011480967   T   T   T
  0.5005186239786764  0.9999682073783114  0.5406885639461187   T   T   T
  0.8365791960669140  0.4374985636729029  0.5422627102583802   T   T   T
  0.6684747589857842  0.4374859220700552  0.5409238913585154   T   T   T
  0.5000000000000000  0.5000000000000000  0.1962037549895328   F   F   F
  0.8335422809022219  0.5625000001605613  0.2032829710819826   F   F   F
  0.6664576892793903  0.5625000001605613  0.2032829710819826   F   F   F
  0.7499999997239044  0.6249999998929567  0.2787808134173062   F   F   F
  0.5825353920715628  0.5625000001605613  0.2838315333135668   F   F   F
  0.9174646079284372  0.5625000001605613  0.2838315333135668   F   F   F
  0.4999599161866606  0.6249562013722199  0.3695742464093137   T   T   T
  0.8320446995491482  0.5625116703688690  0.3683656046783514   T   T   T
  0.6676596600231216  0.5624621372330869  0.3684826930013826   T   T   T
  0.7500435139703218  0.6250407013726101  0.4556661818135971   T   T   T
  0.5837564010578628  0.5625427049625153  0.4544474430482695   T   T   T
  0.9159759190407558  0.5626467071045613  0.4541794021110820   T   T   T
  0.4998935551517600  0.6249271576731866  0.5405949566341007   T   T   T
  0.8359132378774391  0.5622691397111452  0.5423722047907079   T   T   T
  0.6658606782568022  0.5631782527469900  0.5425039480209721   T   T   T
  0.5000000000000000  0.6249999998929567  0.1962037549895328   F   F   F
  0.8335422809022219  0.6875000000535181  0.2032829710819826   F   F   F
  0.6664576892793903  0.6875000000535181  0.2032829710819826   F   F   F
  0.7499999997239044  0.7500000002140865  0.2787808134173062   F   F   F
  0.5825353920715628  0.6875000000535181  0.2838315333135668   F   F   F
  0.9174646079284372  0.6875000000535181  0.2838315333135668   F   F   F
  0.4999746206505681  0.7500513712016157  0.3695706909320435   T   T   T
  0.8321059060273270  0.6875251127816162  0.3683600482975090   T   T   T
  0.6676919563333398  0.6874781454784568  0.3683982086792524   T   T   T
  0.7499647388632470  0.7500623995478474  0.4556906631180025   T   T   T
  0.5837738048848254  0.6875577078499980  0.4543119963288965   T   T   T
  0.9160804663934248  0.6876049413600955  0.4542639253919681   T   T   T
  0.5000106302880900  0.7498736176677514  0.5407081617907253   T   T   T
  0.8352277543153682  0.6873561380537463  0.5425080944066776   T   T   T
  0.6648623608770358  0.6876597807935364  0.5425343343910572   T   T   T
  0.5000000000000000  0.7500000002140865  0.1962037549895328   F   F   F
  0.8335422809022219  0.8124999999464819  0.2032829710819826   F   F   F
  0.6664576892793903  0.8124999999464819  0.2032829710819826   F   F   F
  0.7499999997239044  0.8750000001070433  0.2787808134173062   F   F   F
  0.5825353920715628  0.8124999999464819  0.2838315333135668   F   F   F
  0.9174646079284372  0.8124999999464819  0.2838315333135668   F   F   F
  0.4999705610359292  0.8750000613706264  0.3695662564011267   T   T   T
  0.8321539469383636  0.8125059954078900  0.3683682367409428   T   T   T
  0.6677126637298587  0.8124944810606590  0.3684046704475797   T   T   T
  0.7498730904931874  0.8750329989638909  0.4556648589279259   T   T   T
  0.5837929620001799  0.8125124100552708  0.4543522920876139   T   T   T
  0.9160721273400509  0.8125250633927283  0.4542758556720372   T   T   T
  0.5000918673647203  0.8749179090709075  0.5407093182640292   T   T   T
  0.8351531012312842  0.8124656165012327  0.5425592564419928   T   T   T
  0.6649144046762130  0.8124029096333424  0.5425484702001069   T   T   T
  0.5000000000000000  0.8750000001070433  0.1962037549895328   F   F   F
  0.8335422809022219  0.9375000002676046  0.2032829710819826   F   F   F
  0.6664576892793903  0.9375000002676046  0.2032829710819826   F   F   F
  0.7499999997239044  0.5000000000000000  0.2787808134173062   F   F   F
  0.5825353920715628  0.9375000002676046  0.2838315333135668   F   F   F
  0.9174646079284372  0.9375000002676046  0.2838315333135668   F   F   F
  0.4999454026460569  0.4999836564642761  0.3696260794595645   T   T   T
  0.8321420242527116  0.9374860803780528  0.3683578006810613   T   T   T
  0.6677247013240950  0.9374849043114777  0.3683757653390569   T   T   T
  0.7499650036963091  0.5000529379009996  0.4557708686858543   T   T   T
  0.5837288796004839  0.9374587792799739  0.4543347300873281   T   T   T
  0.9160045458154131  0.9374518520624110  0.4542014797135726   T   T   T
  0.4998100112820176  0.4988993171621992  0.5415432964790673   T   T   T
  0.8351006063360584  0.9374785393272289  0.5423023479814206   T   T   T
  0.6650726848645825  0.9372519618910007  0.5425698515919398   T   T   T
  0.4070505905542277  0.0000000000000000  0.2321160648471405   F   F   F
  0.2499999997239044  0.0000000000000000  0.1975324349659786   F   F   F
  0.0929494094457723  0.0000000000000000  0.2321160648471405   F   F   F
  0.1544227962345630  0.1249999998929567  0.3158353176496362   F   F   F
  0.0000000000000000  0.1249999998929567  0.3028242704748862   F   F   F
  0.3455772037654370  0.1249999998929567  0.3158353176496362   F   F   F
  0.4009659927637640  0.1249247668803783  0.4020374364912985   T   T   T
  0.2499292455846977  0.1249023831323573  0.3876867613054306   T   T   T
  0.0989703170920464  0.1249560985522911  0.4021576291868446   T   T   T
  0.1508620999617151  0.1252540001031619  0.4883157231585533   T   T   T
  0.9996790028158971  0.1249950647443810  0.4722074971535478   T   T   T
  0.3485012329841451  0.1249508762367361  0.4875986548344135   T   T   T
  0.4033965625902526  0.1251416150740758  0.5702264971214478   T   T   T
  0.2505322258877376  0.1247851412148583  0.5577240126402641   T   T   T
  0.0971876531422882  0.1258291203947172  0.5724972949347827   T   T   T
  0.4070505905542277  0.1249999998929567  0.2321160648471405   F   F   F
  0.2499999997239044  0.1249999998929567  0.1975324349659786   F   F   F
  0.0929494094457723  0.1249999998929567  0.2321160648471405   F   F   F
  0.1544227962345630  0.2500000002140865  0.3158353176496362   F   F   F
  0.0000000000000000  0.2500000002140865  0.3028242704748862   F   F   F
  0.3455772037654370  0.2500000002140865  0.3158353176496362   F   F   F
  0.4010287052501165  0.2500121190469084  0.4021040990825277   T   T   T
  0.2500336792239233  0.2499480800660404  0.3875457218046472   T   T   T
  0.0989811078622907  0.2499277917177178  0.4020673951430879   T   T   T
  0.1512012143896321  0.2498740466546620  0.4878353744812352   T   T   T
  0.9998304449335732  0.2498832321925219  0.4723071402186368   T   T   T
  0.3482978235345299  0.2497346384663722  0.4875791062721558   T   T   T
  0.4027052827895664  0.2502585924770968  0.5700843892499231   T   T   T
  0.2496108127397602  0.2498471585332440  0.5575583385821559   T   T   T
  0.0967454500445005  0.2500087702532593  0.5705353551025835   T   T   T
  0.4070505905542277  0.2500000002140865  0.2321160648471405   F   F   F
  0.2499999997239044  0.2500000002140865  0.1975324349659786   F   F   F
  0.0929494094457723  0.2500000002140865  0.2321160648471405   F   F   F
  0.1544227962345630  0.3750000001070433  0.3158353176496362   F   F   F
  0.0000000000000000  0.3750000001070433  0.3028242704748862   F   F   F
  0.3455772037654370  0.3750000001070433  0.3158353176496362   F   F   F
  0.4011183568232037  0.3749746779863393  0.4023366451107066   T   T   T
  0.2501369673438237  0.3750515250945660  0.3876610360690564   T   T   T
  0.0990132894440613  0.3749877052300785  0.4019409427867522   T   T   T
  0.1509366074110694  0.3749737153905044  0.4876316341157202   T   T   T
  0.9998303633714748  0.3748666135434927  0.4720521216522789   T   T   T
  0.3484387755343383  0.3745576281533544  0.4880688511795418   T   T   T
  0.3995416118193423  0.3746880544221242  0.5716144136983774   T   T   T
  0.2480926045833757  0.3749337786205824  0.5578764551992565   T   T   T
  0.0958548245175267  0.3750894363196140  0.5703590040701549   T   T   T
  0.4070505905542277  0.3750000001070433  0.2321160648471405   F   F   F
  0.2499999997239044  0.3750000001070433  0.1975324349659786   F   F   F
  0.0929494094457723  0.3750000001070433  0.2321160648471405   F   F   F
  0.1544227962345630  0.0000000000000000  0.3158353176496362   F   F   F
  0.0000000000000000  0.0000000000000000  0.3028242704748862   F   F   F
  0.3455772037654370  0.0000000000000000  0.3158353176496362   F   F   F
  0.4009529768236799  0.9999708695190510  0.4020348053693710   T   T   T
  0.2499272358340777  0.0000439890350056  0.3877078470366729   T   T   T
  0.0989804781936408  0.9999582588489004  0.4021823976650826   T   T   T
  0.1509101837792850  0.9996294114296620  0.4883707517047245   T   T   T
  0.9997068650026453  0.9998666103806690  0.4722326175843460   T   T   T
  0.3485628366086923  0.9998628900165212  0.4876345732307615   T   T   T
  0.4034819708426453  0.9997757142272937  0.5702537670110470   T   T   T
  0.2505358598248827  0.0002244530918160  0.5577559449964156   T   T   T
  0.0972259798952843  0.9991558514734243  0.5725467874284014   T   T   T
  0.4070505905542277  0.5000000000000000  0.2321160648471405   F   F   F
  0.2499999997239044  0.5000000000000000  0.1975324349659786   F   F   F
  0.0929494094457723  0.5000000000000000  0.2321160648471405   F   F   F
  0.1544227962345630  0.6249999998929567  0.3158353176496362   F   F   F
  0.0000000000000000  0.6249999998929567  0.3028242704748862   F   F   F
  0.3455772037654370  0.6249999998929567  0.3158353176496362   F   F   F
  0.4010505187372576  0.6249572063039741  0.4021276321129204   T   T   T
  0.2500522128674676  0.6250640102048332  0.3875469988250904   T   T   T
  0.0989897040642457  0.6250782651292559  0.4019821210768904   T   T   T
  0.1512587725889427  0.6251534391923984  0.4876687441928994   T   T   T
  0.9998931942199412  0.6251063592321259  0.4723270398120745   T   T   T
  0.3483155543695498  0.6251871808480335  0.4876304120655042   T   T   T
  0.4027901751163763  0.6248449050194119  0.5701310609055792   T   T   T
  0.2497163076491768  0.6246194705048267  0.5577001863623483   T   T   T
  0.0965083871674331  0.6250798608002197  0.5702526346632043   T   T   T
  0.4070505905542277  0.6249999998929567  0.2321160648471405   F   F   F
  0.2499999997239044  0.6249999998929567  0.1975324349659786   F   F   F
  0.0929494094457723  0.6249999998929567  0.2321160648471405   F   F   F
  0.1544227962345630  0.7500000002140865  0.3158353176496362   F   F   F
  0.0000000000000000  0.7500000002140865  0.3028242704748862   F   F   F
  0.3455772037654370  0.7500000002140865  0.3158353176496362   F   F   F
  0.4010041597760413  0.7500329674359275  0.4020963152305429   T   T   T
  0.2500110889508153  0.7500167999835184  0.3875883030511205   T   T   T
  0.0989855227163093  0.7500294953127689  0.4020611767635949   T   T   T
  0.1513365546323641  0.7499500383998012  0.4877099850132532   T   T   T
  0.9999091658326995  0.7501110663221248  0.4724286027588118   T   T   T
  0.3484794592592750  0.7500474937772020  0.4877311616653661   T   T   T
  0.4029361189552244  0.7499633261399674  0.5702243414967127   T   T   T
  0.2499223126494840  0.7499915709115914  0.5577870588144997   T   T   T
  0.0967840533189655  0.7497763670353985  0.5702298658130976   T   T   T
  0.4070505905542277  0.7500000002140865  0.2321160648471405   F   F   F
  0.2499999997239044  0.7500000002140865  0.1975324349659786   F   F   F
  0.0929494094457723  0.7500000002140865  0.2321160648471405   F   F   F
  0.1544227962345630  0.8750000001070433  0.3158353176496362   F   F   F
  0.0000000000000000  0.8750000001070433  0.3028242704748862   F   F   F
  0.3455772037654370  0.8750000001070433  0.3158353176496362   F   F   F
  0.4009817341111388  0.8750099608393799  0.4020692415516057   T   T   T
  0.2500118905871459  0.8749905660523937  0.3876109188095886   T   T   T
  0.0989971799429181  0.8749965963775618  0.4021434157236419   T   T   T
  0.1513595793017687  0.8749103919830936  0.4878967127859423   T   T   T
  0.9999007369118333  0.8750316593881008  0.4724731679533777   T   T   T
  0.3485444262619881  0.8750016897903947  0.4877137845704875   T   T   T
  0.4029784540617691  0.8748240898545901  0.5702273875451238   T   T   T
  0.2498023413551197  0.8754259140534377  0.5576407123335417   T   T   T
  0.0971223022330932  0.8747663153560676  0.5705018733704481   T   T   T
  0.4070505905542277  0.8750000001070433  0.2321160648471405   F   F   F
  0.2499999997239044  0.8750000001070433  0.1975324349659786   F   F   F
  0.0929494094457723  0.8750000001070433  0.2321160648471405   F   F   F
  0.1544227962345630  0.5000000000000000  0.3158353176496362   F   F   F
  0.0000000000000000  0.5000000000000000  0.3028242704748862   F   F   F
  0.3455772037654370  0.5000000000000000  0.3158353176496362   F   F   F
  0.4011332622364454  0.4999723007875290  0.4023338871479958   T   T   T
  0.2501581612123179  0.4999239431794875  0.3876584915543120   T   T   T
  0.0990196491243151  0.5000415560449035  0.4019136732392194   T   T   T
  0.1509703121693292  0.5001855004857233  0.4876112118723076   T   T   T
  0.9998545889220547  0.5001696226574128  0.4720660144267032   T   T   T
  0.3484644495013867  0.5004362718217811  0.4880571935927214   T   T   T
  0.3995931826039956  0.5003183074413461  0.5716268328828158   T   T   T
  0.2481176676121347  0.4999176237481843  0.5578387300775528   T   T   T
  0.0958725824927997  0.5001175274814890  0.5703181576363260   T   T   T
  0.9070505905542277  0.0000000000000000  0.2321160648471405   F   F   F
  0.7499999997239044  0.0000000000000000  0.1975324349659786   F   F   F
  0.5929494094457723  0.0000000000000000  0.2321160648471405   F   F   F
  0.6544227962345630  0.1249999998929567  0.3158353176496362   F   F   F
  0.5000000000000000  0.1249999998929567  0.3028242704748862   F   F   F
  0.8455772037654370  0.1249999998929567  0.3158353176496362   F   F   F
  0.9008782829479974  0.1249681145182287  0.4019398802630498   T   T   T
  0.7498750478647329  0.1249527194505783  0.3875318287475217   T   T   T
  0.5989384814614285  0.1249745303708446  0.4020908973562724   T   T   T
  0.6513233175186700  0.1249024318087820  0.4877144119853551   T   T   T
  0.4999476284377452  0.1249820495353959  0.4724624793755222   T   T   T
  0.8483977353307971  0.1249909788309675  0.4875527406888438   T   T   T
  0.9034439512601168  0.1248058229231204  0.5698858360519392   T   T   T
  0.7501152720383328  0.1250246419008275  0.5576368347962245   T   T   T
  0.5972053580756326  0.1250186522672715  0.5702977351898912   T   T   T
  0.9070505905542277  0.1249999998929567  0.2321160648471405   F   F   F
  0.7499999997239044  0.1249999998929567  0.1975324349659786   F   F   F
  0.5929494094457723  0.1249999998929567  0.2321160648471405   F   F   F
  0.6544227962345630  0.2500000002140865  0.3158353176496362   F   F   F
  0.5000000000000000  0.2500000002140865  0.3028242704748862   F   F   F
  0.8455772037654370  0.2500000002140865  0.3158353176496362   F   F   F
  0.9008764317831459  0.2499649727262616  0.4019419308795681   T   T   T
  0.7498537032833332  0.2499522702752789  0.3875170403424260   T   T   T
  0.5988397231297319  0.2500172720928890  0.4021297155721298   T   T   T
  0.6514589867196926  0.2497582895168194  0.4876552667443235   T   T   T
  0.4999026776143636  0.2498542739951349  0.4725647195851226   T   T   T
  0.8485020573524806  0.2498053385103740  0.4876218789208654   T   T   T
  0.9034293322202077  0.2497496705730174  0.5701532792775517   T   T   T
  0.7500882201045477  0.2502773277221022  0.5576700826820205   T   T   T
  0.5969570209219127  0.2501457486177885  0.5701024560410768   T   T   T
  0.9070505905542277  0.2500000002140865  0.2321160648471405   F   F   F
  0.7499999997239044  0.2500000002140865  0.1975324349659786   F   F   F
  0.5929494094457723  0.2500000002140865  0.2321160648471405   F   F   F
  0.6544227962345630  0.3750000001070433  0.3158353176496362   F   F   F
  0.5000000000000000  0.3750000001070433  0.3028242704748862   F   F   F
  0.8455772037654370  0.3750000001070433  0.3158353176496362   F   F   F
  0.9008380817631971  0.3749818835531095  0.4019364794323085   T   T   T
  0.7497367968456594  0.3750730282602983  0.3876702493671795   T   T   T
  0.5987269557124557  0.3749957647138213  0.4023410447371029   T   T   T
  0.6512274104276317  0.3745645663639109  0.4880907867497269   T   T   T
  0.4998651773381959  0.3747481009030590  0.4735106024656299   T   T   T
  0.8487138511027742  0.3748538431151406  0.4876442493125322   T   T   T
  0.9037882072671448  0.3748640487077379  0.5703338307385333   T   T   T
  0.7515395388374905  0.3749987095671944  0.5578793636337666   T   T   T
  0.5999608276155227  0.3746634905557721  0.5716374928223340   T   T   T
  0.9070505905542277  0.3750000001070433  0.2321160648471405   F   F   F