Ta  N Co Cu                             
   1.00000000000000     
    18.1096308199999996    0.0000000000000000    0.0000000000000000
     0.0000000000000000   23.3551997799999995    0.0000000000000000
     0.0000000000000000    0.0000000000000000   30.4818171199999988
   Ta   N    Co   Cu
   216   240    24     4
Direct
  0.0004797811379476  0.0000352073853662  0.1974803232938456
  0.3346429630970960  0.0627186562794719  0.2025812209934514
  0.1665381323944430  0.0627780822940025  0.2025039028528752
  0.2507713923490442  0.1249240403125782  0.2779218857034849
  0.0834766090191437  0.0625242885993131  0.2838047622394626
  0.4180311509480177  0.0625369492968701  0.2839114975477131
  0.0010131582000383  0.1248990006015021  0.3694674172327481
  0.3333896953777042  0.0624080520201247  0.3683855034345100
  0.1686968274986214  0.0624218111028085  0.3682568772192241
  0.2521004009313472  0.1244099990583791  0.4559159495445400
  0.0843213626338368  0.0621172405066943  0.4539056497394114
  0.4196500111696011  0.0621859001584539  0.4535264585663583
  0.3393449821294539  0.0618012949132165  0.5414012057517539
  0.1654076001413927  0.0645225906981537  0.5420809452768225
  0.0001534199954421  0.1251525006716534  0.1975428665046977
  0.3344938432348741  0.1876393451217737  0.2029317462184608
  0.1665292407033974  0.1876523951243954  0.2027913849946046
  0.2504687616340746  0.2501743513057448  0.2784177598417301
  0.0832545456774838  0.1875880767989955  0.2840767457925324
  0.4178530932311375  0.1876294541570758  0.2843154983021776
  0.0004935850420438  0.2499202407408490  0.3699685348217656
  0.3331988287419421  0.1873499070996942  0.3688371306692275
  0.1684253508958022  0.1873505264973119  0.3684899622060698
  0.2517937873580820  0.2469674350071145  0.4552924278221013
  0.0842540276912729  0.1861273764707150  0.4537217369884132
  0.4188987904412400  0.1866653469771151  0.4538256821509350
  0.3431982281845194  0.1851665554995208  0.5425546333143458
  0.1716710800037760  0.1938315402696063  0.5416313607240255
  0.0000647299657928  0.2504650838072706  0.1979152260106360
  0.3348094549541898  0.3128200606125660  0.2032099723017353
  0.1659914423860727  0.3127995643741741  0.2031396201913935
  0.2499976901558512  0.3751280390539904  0.2789066497932708
  0.0828365311715800  0.3125681663800606  0.2844833238313811
  0.4174529757111500  0.3126336072567213  0.2849031104113351
  0.9990862465414807  0.3748035640917848  0.3703781103542099
  0.3322438702175177  0.3126963153004567  0.3691653904718848
  0.1676612957153623  0.3126561857069845  0.3688962040061057
  0.2476305365766933  0.3743969054516896  0.4620281467071976
  0.0833087301163005  0.3115870794467170  0.4554464773611500
  0.4178956597797168  0.3121130544970256  0.4546209799922707
  0.3381043644230530  0.3087648719741907  0.5437895305861957
  0.9996146309032099  0.3751562907082047  0.1983270656680034
  0.3343520553117258  0.4375434187059994  0.2035443449574927
  0.1661001437489631  0.4376307364282184  0.2034963860691263
  0.2508605822515761  0.0000318033862854  0.2780989194253749
  0.0825901815787304  0.4375473574250819  0.2847947806960107
  0.4169799407435875  0.4375452804428122  0.2852674655720833
  0.0012173588826485  0.0000040512610298  0.3693637402004271
  0.3306501799909611  0.4373519009539990  0.3699277679844499
  0.1677268382909816  0.4373871233516979  0.3694644927444060
  0.2516069329157062  0.9999839389268885  0.4557733445985264
  0.0793420751988805  0.4376922021305276  0.4536065022329367
  0.4185579157039641  0.4371938827505133  0.4535345655844267
  0.3338259166013557  0.4386848270180721  0.5397593113239054
  0.9996908884467146  0.5000229537232173  0.1984885363792444
  0.3343593596706285  0.5624604800707687  0.2035346480734361
  0.1661185891429255  0.5624194911883649  0.2035081921727837
  0.2499819660330118  0.6249073948053692  0.2789064316271350
  0.0825933366076228  0.5624912639066793  0.2848098110083797
  0.4169830803581149  0.5624680478622182  0.2852658815055875
  0.9991124866372303  0.6252796401869318  0.3703693657122145
  0.3306079989968609  0.5626553338413061  0.3699352771429076
  0.1677310252913600  0.5626426313807684  0.3694957005786677
  0.2475611092496095  0.6251214975986983  0.4617073669814502
  0.0794538372685736  0.5625206524168860  0.4535176471545768
  0.4186538300217109  0.5629190793612793  0.4534002166919322
  0.3320031727072958  0.5621248360105469  0.5393162568661438
  0.9996193707960686  0.6248950261844115  0.1983351938328681
  0.3348430701378007  0.6871825354938323  0.2031740181649866
  0.1659897002022106  0.6872167267955831  0.2031261297736293
  0.2504516710533409  0.7498210362398581  0.2784106621650366
  0.0828165793594806  0.6874732629064297  0.2844789117619584
  0.4174743948006281  0.6873864112769610  0.2848671936651783
  0.0004898766076522  0.7500972395596932  0.3699557863742555
  0.3322342251902981  0.6873579275921315  0.3690759805550670
  0.1676513810325417  0.6874209328883651  0.3688486347740465
  0.2517773823313547  0.7532145142815310  0.4551931002117513
  0.0835064389431324  0.6885085191277867  0.4555542981578142
  0.4179548839180356  0.6879172209814755  0.4544527329912214
  0.3376893246382053  0.6907816276381027  0.5433837557832177
  0.0000535798944838  0.7495514160259305  0.1979163319738717
  0.3344941103696186  0.8123893155239088  0.2029163507710905
  0.1665784224380857  0.8123840746324618  0.2027986338523746
  0.2507644738028887  0.8750938269840631  0.2778853085538486
  0.0832511396886488  0.8124361403204503  0.2840667249087474
  0.4178689491341743  0.8124040825894454  0.2842833062630348
  0.0009830490661642  0.8751286563638416  0.3694604613180630
  0.3331894079639426  0.8126927321994941  0.3687762416957128
  0.1683863193146848  0.8126920406207319  0.3684436418648573
  0.2521206451701445  0.8755227292603109  0.4558756897033263
  0.0841609715634561  0.8139067660024466  0.4536582038951380
  0.4189171547022923  0.8133188788536216  0.4537486833013560
  0.3432817241083796  0.8145170933123893  0.5424225953300592
  0.1715519013486713  0.8061093206883498  0.5415047013645307
  0.0001552377902101  0.8748917103919425  0.1975296354390963
  0.3346443896925564  0.9373249636330172  0.2025773089888787
  0.1665913697205426  0.9372423543130068  0.2025102163267007
  0.2498911109047341  0.5000257943857846  0.2790196796362707
  0.0834645034851391  0.9375187007753212  0.2837952059050295
  0.4180442993298357  0.9374909404590213  0.2838902837788027
  0.9981374833617096  0.5000258566950322  0.3703128952215806
  0.3334047995851463  0.9376144260404118  0.3683794308429711
  0.1686800332843248  0.9375989368105024  0.3682508216893297
  0.2462726288891730  0.5001458249872286  0.4609339032207416
  0.0843052974956748  0.9378835862294466  0.4539057238263524
  0.4196531365681793  0.9377894430062312  0.4535233904909148
  0.3393155903947616  0.9378646289111927  0.5413408313974770
  0.1655038825536153  0.9354036692307304  0.5420139411035976
  0.5006642557710848  0.0000478829069124  0.1974580773953392
  0.8344790442394014  0.0625209582723656  0.2028008529424667
  0.6663596916658250  0.0626009333699997  0.2027483673373709
  0.7507263886132733  0.1249146514148478  0.2784682856567144
  0.5835303471856079  0.0625326132604727  0.2840948659915767
  0.9179701723533782  0.0625342433964136  0.2840912327642826
  0.5012442069893055  0.1248795536013318  0.3695216345927577
  0.8333261876780256  0.0624213819083010  0.3686769238436867
  0.6687708786408280  0.0624195015351816  0.3685724036327613
  0.7520171156420261  0.1247406985916015  0.4564636847711299
  0.5843493429064139  0.0621460228540442  0.4541071599973634
  0.9194865121833899  0.0622007636250785  0.4537461158859557
  0.8395051754270000  0.0622992301670351  0.5418187265448040
  0.6652898593939085  0.0641043413226967  0.5422279299983970
  0.5007760372978822  0.1252210473397923  0.1975757613306826
  0.8342457923325028  0.1877301572232994  0.2031189625598344
  0.6663819155534298  0.1878227392920877  0.2031026132721649
  0.7502981051601694  0.2500615467409020  0.2787602781979501
  0.5833031954754233  0.1875940875268043  0.2844971208989620
  0.9177275623521268  0.1875611102310799  0.2844706051907337
  0.5009519788976675  0.2500207067687370  0.3703133813101687
  0.8329816027160390  0.1873282873657658  0.3691977160381299
  0.6684526806435187  0.1873376705951486  0.3689970738007062
  0.7513380844351829  0.2482300493154455  0.4567973232316547
  0.5840189145909918  0.1862502000298534  0.4541153880111537
  0.9192484324555750  0.1867066309510861  0.4542100156190472
  0.8436199752593865  0.1866818861704331  0.5426153436306365
  0.6714185147635021  0.1926619962250058  0.5420550958285730
  0.5003955897746550  0.2505063480048690  0.1980562492018692
  0.8344924320716984  0.3125477458267838  0.2033785579372491
  0.6657753916624074  0.3126232593018301  0.2034228239806097
  0.7497871802122162  0.3749669029854772  0.2792674217218689
  0.5830633257145692  0.3125613765465687  0.2850581037120463
  0.9171253013719038  0.3125295172262454  0.2850227106625951
  0.5007014333709350  0.3745797904999790  0.3707713002418558
  0.8319808679399969  0.3123626711105061  0.3695356226121120
  0.6677968159075078  0.3122769400261234  0.3697536186617114
  0.7470928875385496  0.3750268987657535  0.4595776576124493
  0.5842602730553565  0.3116686946681497  0.4571324408349398
  0.9168996908811380  0.3115741493017836  0.4546035113730511
  0.8398048205711817  0.3109838313008879  0.5455054748489445
  0.5004247544635589  0.3751584894486797  0.1984771926274718
  0.8340909151359668  0.4376297706306289  0.2037172009699333
  0.6658580611367952  0.4376376826651907  0.2037482363244294
  0.7508839188431153  0.0000369222986407  0.2783451135721222
  0.5829411619063194  0.4374791266342228  0.2852921725633593
  0.9166909532417620  0.4374810116102381  0.2853144012401003
  0.5014349324520211  0.0000175317690037  0.3693684916663358
  0.8310782648896122  0.4373467388036616  0.3699184151863477
  0.6676419715573161  0.4373045294349964  0.3698755577946571
  0.7516591096308787  0.9999930392456307  0.4561745051434087
  0.5831783219925200  0.4372068800735178  0.4546566618204437
  0.9145114470629210  0.4369489955984136  0.4549812187899889
  0.8477396759506419  0.4356079239124568  0.5466855126675725
  0.5001549992668046  0.5000014461313214  0.1985707881608079
  0.8340604149507982  0.5623835295677964  0.2037248930696265
  0.6658666198973862  0.5623531508200799  0.2037461851766622
  0.7497676121265116  0.6250408465407133  0.2792494757337209
  0.5829438256535795  0.5625174122569945  0.2852765489430666
  0.9166868595301736  0.5625382402014196  0.2853083205079940
  0.5007619347154630  0.6254384984871422  0.3706887488545547
  0.8310590228487271  0.5626771535509647  0.3699032616011593
  0.6676248259268647  0.5626911881204180  0.3698598805739906
  0.7470230781502920  0.6250569899531797  0.4595755484534578
  0.5831974623434277  0.5628122768461097  0.4546467592388694
  0.9145173610693433  0.5631099099308301  0.4549295985883717
  0.8474625513169798  0.5642586627976272  0.5465216276942328
  0.5004604766024556  0.6248527557151533  0.1984427435289930
  0.8344895288340624  0.6874584665163965  0.2033709461598647
  0.6657698637829199  0.6873844922166725  0.2033935498637760
  0.7502994391799263  0.7499482293375763  0.2787338486946283
  0.5830827901825728  0.6874545153816172  0.2850313149639447
  0.9171267989010161  0.6874901079311755  0.2850199239758595
  0.5009596196068813  0.7500160408212295  0.3702419560827792
  0.8319345950316830  0.6876606631117923  0.3695089793266320
  0.6677849085262082  0.6877283553488596  0.3697377164762230
  0.7513350902584222  0.7517580895036247  0.4567743602295238
  0.5842897438768162  0.6883810328037967  0.4570866593687839
  0.9169285703701036  0.6884665226401339  0.4545284349833310
  0.8395583422831976  0.6889602116376068  0.5454010364381574
  0.5004207855874654  0.7494980769814319  0.1980245704261492
  0.8342476191801751  0.8123015465389543  0.2031388748411018
  0.6664319051868546  0.8122094554392163  0.2031032193311901
  0.7507244798496870  0.8751236784228311  0.2784465652242289
  0.5833131949810380  0.8124393068339799  0.2844651566047531
  0.9177337473116580  0.8124594455693241  0.2844707512724867
  0.5012619957446205  0.8751551260025607  0.3694948656940795
  0.8329458012781927  0.8126926606199092  0.3691672025731378
  0.6684194702324788  0.8126967128085951  0.3689611746265697
  0.7519916782165197  0.8752486872401022  0.4564598215166882
  0.5840047096897649  0.8137852866615276  0.4540666714488140
  0.9192064758932759  0.8132709356916337  0.4541821218716962
  0.8437409896783876  0.8132260002156499  0.5426556186468190
  0.6714519356468500  0.8073588307901574  0.5420725514149893
  0.5008248959478578  0.8748248813932165  0.1975530727760884
  0.8344760207549200  0.9374902345485410  0.2028090129893556
  0.6664090551383595  0.9374430041849990  0.2027607245433174
  0.7497400669395873  0.4999984349325004  0.2791763049532321
  0.5835331636423433  0.9374995791584837  0.2840976213059747
  0.9179766420266233  0.9375062421407492  0.2840913202891144
  0.5002159716626906  0.5000010937351433  0.3704263740503251
  0.8333119997460017  0.9375943254781589  0.3686831676691611
  0.6687535375883158  0.9376067648233857  0.3685928862129799
  0.7465309305868573  0.4999909089317782  0.4587495147997060
  0.5843447132897097  0.9378902082033989  0.4541259265261530
  0.9194728313205758  0.9377454972395043  0.4537572495281026
  0.8395411814193352  0.9375509105671895  0.5418086157545403
  0.6653564924984394  0.9358873592673405  0.5422037958607362
  0.4061784037237786  0.0000254602619307  0.2321699024972901
  0.2505721246032664  0.0000273504158486  0.1999854565728967
  0.0951681964407527  0.0000150824137890  0.2320707714551702
  0.1556874599454545  0.1250081175281039  0.3156742512577679
  0.0007468249884255  0.1250455139200710  0.3028381395185988
  0.3458179130139101  0.1250096680261450  0.3158282820395186
  0.4024890771414604  0.1247063913616344  0.4019702352980872
  0.2509962417888758  0.1246052318271751  0.3878358844089718
  0.0997864684581202  0.1245918062813800  0.4019401958363247
  0.1522884442424797  0.1249656753349342  0.4868104988574942
  0.0019235458814606  0.1243670924826219  0.4750937556756440
  0.3528047406739034  0.1235016636193862  0.4870702723122946
  0.4109671524650835  0.1214854564297809  0.5662414330304202
  0.2536850020011130  0.1216656609995184  0.5558428403757247
  0.1009379396008754  0.1301519022196445  0.5656130742316847
  0.4062376220186081  0.1252328986451730  0.2323111006072125
  0.2505624625999303  0.1251844421051729  0.1986207039568981
  0.0948263295104468  0.1252077803897649  0.2321426953271768
  0.1554347209298399  0.2501065650153365  0.3160750795117124
  0.0003908812440656  0.2500654886425338  0.3033351244628122
  0.3453117147920040  0.2500784161768337  0.3163444462556697
  0.4015951630090058  0.2500255463972962  0.4023500780039271
  0.2504413578739246  0.2501544705663648  0.3880194030553099
  0.0995479428279751  0.2497754866500799  0.4021262315276246
  0.1534169142887052  0.2459984387394556  0.4853051851811045
  0.0010664968715446  0.2484898389153258  0.4746434376278188
  0.3508682962492244  0.2483868342259825  0.4877372674171454
  0.4109311858188960  0.2461579625703649  0.5674688195075035
  0.2603935840474421  0.2392923352776464  0.5618005938545636
  0.0937195203206258  0.2598757209825848  0.5603634272943623
  0.4060008182262109  0.2503224190270714  0.2328980275665842
  0.2504571302895329  0.2504091546461567  0.2004257755812517
  0.0946435549456623  0.2502382000172787  0.2325657186019896
  0.1549750914796491  0.3751520715535293  0.3165222562638945
  0.9998742633438411  0.3750170268915696  0.3037662851419540
  0.3447499508601553  0.3751480687751894  0.3168197118753113
  0.4008454211264834  0.3745514576976703  0.4022948571950309
  0.2492376018291296  0.3747655104493361  0.3903987058711991
  0.0983459936108702  0.3742295219370959  0.4021448277530055
  0.1432310999360524  0.3765122062929223  0.4857500444359815
  0.9978530165292980  0.3741979467562544  0.4729848990857448
  0.3527301763524662  0.3754317569415448  0.4872827018104289
  0.3893028471599465  0.3741913821097569  0.5716249843444317
  0.2416381225746775  0.3521096083674067  0.5330364307967557
  0.0804519491428337  0.3821915184622711  0.5634131423810231
  0.4058533943702543  0.3751724553444262  0.2332909838083879
  0.2502711891961482  0.3750873258947394  0.2001448527644953
  0.0943235714384514  0.3751491408807226  0.2329130657571667
  0.1556729889859128  0.0000137963026106  0.3156471571817221
  0.0008597996785014  0.0000205541335845  0.3027125881878945
  0.3459684350951591  0.0000083298378257  0.3157244656526714
  0.4027232418598246  0.0000093552162781  0.4018261403175174
  0.2510647816685463  0.0000045718310062  0.3877799726916535
  0.0999625526773897  0.0000116346397760  0.4019800823856698
  0.1520168582316401  0.0000053750399047  0.4871992542127899
  0.0019011821594432  0.9999399845034489  0.4752406221456127
  0.3521095353930690  0.9999565989775689  0.4867654988480723
  0.4106771723546530  0.9997826777362775  0.5646671999315913
  0.2527355955011288  0.9998226215638581  0.5563117329984806
  0.0971022858356037  0.9998432218366560  0.5651346684014555
  0.4056049100285293  0.5000059926834837  0.2334124283732351
  0.2502887049511031  0.5000166801245243  0.2001146987412667
  0.0943515934671382  0.5000216414648477  0.2330763061437437
  0.1549550639211859  0.6248767388076075  0.3165338713602850
  0.9998708210283951  0.6250091369205109  0.3037632558558983
  0.3447614580323446  0.6248608258750963  0.3167841872249682
  0.4008773453030869  0.6254878331807916  0.4021742918685973
  0.2492646710521456  0.6253462833728207  0.3903533910232326
  0.0984374325086392  0.6259222705137404  0.4021721512756500
  0.1435507357094892  0.6236586528024191  0.4860026064977063
  0.9979310746122962  0.6259873324725334  0.4728708871123217
  0.3525177346792248  0.6246369608212419  0.4869927786654458
  0.3901657620768120  0.6255102819381122  0.5710561850375129
  0.2430493226744446  0.6438749902772685  0.5347593990827022
  0.0795881660189650  0.6183397625180191  0.5638106316341052
  0.4058794258133176  0.6248407209984990  0.2332623341276303
  0.2502958751882076  0.6249451073558134  0.2001124303927284
  0.0943382369448287  0.6248919626413851  0.2329240715642129
  0.1554051046074321  0.7499394108131412  0.3160520584431907
  0.0003834586306439  0.7499735541654715  0.3033334328813808
  0.3453362652613663  0.7499593803636273  0.3162889651248975
  0.4015839095109257  0.7500259404161369  0.4022583349495719
  0.2504346715832710  0.7498899527062193  0.3879326281687128
  0.0995538173292232  0.7502482734982863  0.4021083570681157
  0.1534826501507993  0.7541397233886755  0.4851143060494323
  0.0011177217785843  0.7515268741982268  0.4746072571332149
  0.3509016270428020  0.7514567541273749  0.4875836751663201
  0.4108379861701152  0.7533411140255240  0.5672932658331575
  0.2601892188345403  0.7598473277297444  0.5610518800413828
  0.0939238787571526  0.7401015553781392  0.5603005781245258
  0.4060372031549733  0.7497017357242086  0.2328646159689214
  0.2504864707498200  0.7496012039790045  0.2004765453303321
  0.0946395839160203  0.7497955280541859  0.2325537213512092
  0.1556882960754677  0.8750472675244012  0.3156506465048494
  0.0007431719523225  0.8749880583371450  0.3028286085288983
  0.3458139079245797  0.8750341610213468  0.3157940790419360
  0.4024822668156034  0.8753026748128860  0.4019294068837098
  0.2509896957566156  0.8754172160360980  0.3877910025565541
  0.0997596496695152  0.8754420019440943  0.4019053593710638
  0.1522929642705080  0.8749995076518928  0.4867551787036817
  0.0018726178485338  0.8756625822993840  0.4750470543958443
  0.3528356485869821  0.8763422821586886  0.4870345021855584
  0.4108464834423557  0.8781892434345266  0.5662534199988940
  0.2537278249953232  0.8778236301801741  0.5557930275618972
  0.1009997524466826  0.8697728866432755  0.5655904613267779
  0.4062802155009848  0.8748088573424226  0.2322761819484214
  0.2506059034714525  0.8748392246564762  0.1985583313960433
  0.0948235987714270  0.8748320871566619  0.2321333243954200
  0.1549176802227947  0.5000155136720750  0.3166908907788368
  0.9996401980200318  0.5000102622573408  0.3038083494196613
  0.3443793550563257  0.5000098657600205  0.3169837439091339
  0.4004234647222020  0.5000041549609335  0.4017764394094598
  0.2488376884070149  0.4999656000612873  0.3905051077901618
  0.0978126951108251  0.5000221991401830  0.4016816520102395
  0.1430105825749806  0.5001687562216404  0.4863692080001414
  0.9958491355573997  0.5001519119971363  0.4728071069693200
  0.3519550441202313  0.5003593887516828  0.4854489694116992
  0.3958537710858252  0.5004214374315268  0.5670653141819457
  0.2512141015643294  0.4988824869764059  0.5434695303743737
  0.0773820908937850  0.5006496846750963  0.5642408138142088
  0.9060872172229466  0.0000161431535020  0.2323575629594572
  0.7503713690674445  0.0000226344337904  0.1994541584683915
  0.5950417853259111  0.0000173064589859  0.2323667261586166
  0.6556312865421603  0.1249991453706372  0.3160914506592576
  0.5006853622046989  0.1250695780581950  0.3029200098815465
  0.8458724480387403  0.1250077025405503  0.3161642923606749
  0.9024130536877450  0.1247334527473001  0.4022572187519202
  0.7509813490106509  0.1247663114148452  0.3883137237171539
  0.5998874312684919  0.1245573006812748  0.4022782020468085
  0.6521596985626772  0.1249992062935590  0.4872704638075973
  0.5017583144749764  0.1242164371812464  0.4751074084371467
  0.8526569369309271  0.1239090863607046  0.4874533788074302
  0.9105026716420284  0.1223403208250815  0.5662264200338996
  0.7529480266120245  0.1231754729795256  0.5560771307358507
  0.6002810909424880  0.1295062302698611  0.5657752500965856
  0.9059178309402398  0.1251770177216613  0.2325536915966353
  0.7503547918928604  0.1251242479872516  0.1999821060025724
  0.5949976052605734  0.1252110450009525  0.2325748587748038
  0.6553996709057373  0.2500393110385204  0.3166534482005119
  0.5003853322327529  0.2500878641502808  0.3036287486213212
  0.8452483789820988  0.2499314653962728  0.3166199352788368
  0.9015617760003209  0.2497747871244016  0.4026547710719868
  0.7504369267518811  0.2499356688328547  0.3888448339887205
  0.5998163292971554  0.2497408282719746  0.4030080519826598
  0.6519678567224645  0.2460283507690519  0.4867612078676515
  0.5008452570698907  0.2484531909009675  0.4746838683211791
  0.8510652093444619  0.2493554081597082  0.4882508310063614
  0.9119954118981752  0.2477159041139174  0.5664421365395071
  0.7588961862668882  0.2425247899373275  0.5593711709194835
  0.5862623232546227  0.2547815424867466  0.5630472219169675
  0.9057695820716489  0.2502108352191925  0.2329941159876583
  0.7502251174277177  0.2503648655460040  0.1998139656110212
  0.5947553651319666  0.2502649935021068  0.2330545684693490
  0.6550402172995717  0.3748976395467309  0.3172300060922311
  0.5001294622989079  0.3750255546242940  0.3040940587234786
  0.8446207938631503  0.3749421780067692  0.3170906898289516
  0.8998096853546329  0.3746613812547821  0.4030206961095146
  0.7493511997152851  0.3747254765046577  0.3905413546747525
  0.5998848010633324  0.3738250323571464  0.4036847568217823
  0.6471228328520766  0.3755060631406479  0.4908810679520883
  0.4991272781102225  0.3742514127763812  0.4741346386493817
  0.8487086232814960  0.3736692681103335  0.4886236665435817
  0.9118934553282756  0.3711300059026286  0.5686207108724659
  0.7666997039256600  0.3742844357870752  0.5622600330478633
  0.5657422733440427  0.3819112349477010  0.5702551556047624
  0.9053414922310097  0.3750973359632255  0.2334407491747186
  0.7500810245030394  0.3750470520262255  0.2011299122324814
  0.5946777963608909  0.3751008579339086  0.2335138178540248
  0.6557267889301386  0.0000204248375013  0.3159586561554732
  0.5007923811887309  0.0000161907352876  0.3027483125307029
  0.8459905567304915  0.0000097286385241  0.3160026650238521
  0.9026372349964475  0.9999928765675463  0.4020789207869697
  0.7511183080849690  0.0000147299546995  0.3881658251926581
  0.6001118161213554  0.0000221558897380  0.4022352606022608
  0.6520428256045392  0.0000393336954687  0.4875306945328930
  0.5019310532593977  0.9999478558791068  0.4752655186946413
  0.8520270616970791  0.9999818608185649  0.4871712453747250
  0.9101697487070126  0.9998679579989584  0.5647589585571708
  0.7525031981419730  0.9999379240772157  0.5568273366241385
  0.5965696771454887  0.9999506436021548  0.5652683563035339
  0.9052865005808641  0.5000071290963248  0.2335208906683803
  0.7500127687990528  0.4999959204358646  0.1998476123744339
  0.5944908463151322  0.4999929661356717  0.2335214433268007
  0.6550357038396442  0.6251075465760394  0.3172160235206931
  0.5001441575136027  0.6249910206098477  0.3040363395568662
  0.8445885074181518  0.6250631750155264  0.3170683889638539
  0.8998059795463220  0.6253790708776990  0.4029662550170414
  0.7493144957675639  0.6252860802597979  0.3905417568658436
  0.5998820843057970  0.6261924048793830  0.4036515203688680
  0.6470242834370339  0.6245372019676907  0.4908883457715376
  0.4991275649468960  0.6257929933742759  0.4740464050288367
  0.8487215926454397  0.6263877272664189  0.4885136879922101
  0.9116238163268804  0.6288244540355450  0.5685016250484907
  0.7664851929766954  0.6256711672453150  0.5619674961928780
  0.5655661350406049  0.6180496755720739  0.5703833057912888
  0.9053394487323487  0.6249147854319048  0.2334377634511142
  0.7500938787809162  0.6249792836534880  0.2011320880794258
  0.5946856995951393  0.6249015466084131  0.2334950597947199
  0.6553984667378359  0.7499781765042073  0.3166266856934001
  0.5004005809343255  0.7499409155253076  0.3035821151036089
  0.8452256886094389  0.7500842516539876  0.3165962776516480
  0.9015278869351704  0.7502508114388959  0.4026166173508230
  0.7504085023292788  0.7500834808519485  0.3888287517808564
  0.5998008406723727  0.7502904462516256  0.4029609111650956
  0.6519685965786834  0.7540499270355312  0.4867100759101533
  0.5008205381255522  0.7515448502755220  0.4746095284519782
  0.8511043155041307  0.7506095309065586  0.4882370150787878
  0.9121508090224353  0.7521117369105781  0.5663946712528514
  0.7589147593186354  0.7574147972959864  0.5593968991471741
  0.5861316262990499  0.7452315652606885  0.5629812180038130
  0.9057811927977681  0.7498122722192093  0.2330120641409223
  0.7502396107490981  0.7496469215272441  0.1998206541007832
  0.5947733007227569  0.7497594803926972  0.2330297279514681
  0.6556333510920069  0.8750425368125363  0.3160823486081838
  0.5006920402597643  0.8749587379131896  0.3028979934039100
  0.8458495357891138  0.8750329398259922  0.3161570452227096
  0.9023614422534791  0.8752499817215309  0.4022372852199041
  0.7509512639895917  0.8752491984989135  0.3883047025462147
  0.5998763713542417  0.8754746023871505  0.4022592604445592
  0.6521456692144980  0.8749780467034327  0.4872441632593123
  0.5017490403617657  0.8757941751031950  0.4750581092375867
  0.8526509684262393  0.8759966011985654  0.4874607606488865
  0.9103351162330782  0.8775023759073122  0.5663642665008908
  0.7529068993529293  0.8766711355294703  0.5560417962975421
  0.6004181202327672  0.8704773464631259  0.5658400128159116
  0.9059573453651097  0.8748568342204095  0.2325596128193936
  0.7503792231471067  0.8749027774347482  0.1999096339776756
  0.5950241646371666  0.8748339301424153  0.2325657899114404
  0.6550913731913255  0.4999992014453980  0.3171330836113881
  0.4999342270472695  0.4999980402129722  0.3039552025322081
  0.8443832175825179  0.5000040241758370  0.3172571383921508
  0.8986612746357920  0.5000213894381602  0.4032626643081514
  0.7490408215661972  0.5000106952524206  0.3902525024001662
  0.5996851934016050  0.4999921525506537  0.4027845019811522
  0.6475249816846684  0.5000349857024133  0.4896261296389994
  0.4991525098736673  0.5000408108837817  0.4721493124694334
  0.8463177256256884  0.5000115815828536  0.4900133170636281
  0.9155530688236553  0.5000337991082162  0.5705672715777226
  0.7814501090070536  0.4999712634860458  0.5753896759927599
  0.5682735876921967  0.4999783189129801  0.5661647662671498
  0.0049640252540328  0.1293579615055194  0.5433284964451843
  0.0037702225556728  0.2455444105051896  0.5398019389445281
  0.9955278417884301  0.3789939400571640  0.5368974438438983
  0.1317740991741232  0.3263769936679850  0.5389597080713955
  0.0034079982266775  0.9988923157618572  0.5421915258160581
  0.1185396759817579  0.4427151708411117  0.5368338893385527
  0.9950461521445533  0.6210902054248280  0.5367529161360309
  0.1183021656884975  0.5585838097301234  0.5364940506241282
  0.0037651973658441  0.7543878977327410  0.5398049309749879
  0.1320313102494524  0.6732393744529688  0.5396498424373064
  0.0050139440309849  0.8717112826681443  0.5432901513017470
  0.9942533304472647  0.5011347684525305  0.5361004298817491
  0.5047030951935483  0.1289880404064334  0.5432331255221712
  0.4989368198972954  0.2443529932354167  0.5393778545558376
  0.4804366950606962  0.3784873153791821  0.5400619379865361
  0.6106822553582418  0.3226062796214109  0.5436236130712828
  0.5031151544536812  0.9990845200119054  0.5420564199375875
  0.6086662571826622  0.4370124056231646  0.5356292305669541
  0.4804379428892460  0.6214056399187200  0.5398931696357181
  0.6082925160387589  0.5631137475429639  0.5356947322615397
  0.4988310403000256  0.7552699559235450  0.5392998495723731
  0.6101869277590524  0.6773788537197589  0.5435455121610602
  0.5047962490661817  0.8717330449454934  0.5432105813451429
  0.4816018829349105  0.5000796200170399  0.5359500245395594
  0.7162185606483717  0.5618639787849347  0.5872395219539754
  0.5814915282458060  0.4448081483511004  0.6137319747640859
  0.5820777544142004  0.5548632402962852  0.6138480570829401
  0.7163120525638149  0.4380851110824793  0.5874759294748273
 
  0.00000000E+00  0.00000000E+00  0.00000000E+00
  0.00000000E+00  0.00000000E+00  0.00000000E+00
  0.00000000E+00  0.00000000E+00  0.00000000E+00