Ru Cu                                   
   1.00000000000000     
    10.8623999999999992    0.0000000000000000    0.0000000000000000
    -5.4311999999999969    9.4071143460680844    0.0000000000000000
     0.0000000000000000    0.0000000000000000   22.7112499999999962
   Ru   Cu
    96     2
Direct
  0.0833017159621799  0.1664557995785615  0.3581890702184101
  0.1667736827246916  0.0834649771268549  0.2676694217162447
  0.0836170141097751  0.1666441871050011  0.5478681802692172
  0.1668681366363609  0.0834667437904221  0.4520683489979799
  0.0839352650982156  0.1667989916890780  0.7324571327043758
  0.1667873969159308  0.0832418052086116  0.6423626928069167
  0.0833944025461233  0.4165887249532805  0.3581581571266018
  0.1669636061130594  0.3332146174441483  0.2677536956318338
  0.0834183977419540  0.4165192286651807  0.5478191537695026
  0.1671097329589374  0.3332248297507264  0.4519876604145596
  0.0832770619851494  0.4163176418525046  0.7326114781616619
  0.1660772809123214  0.3324167680453837  0.6420253210515851
  0.0833402530309012  0.6664941968027729  0.3581494664574861
  0.1667673517952860  0.5833400747701265  0.2676354668766779
  0.0834449150193225  0.6665647737675178  0.5483208735136363
  0.1669149795156663  0.5834928156805556  0.4520896779798015
  0.0874517013935145  0.6683088613510099  0.7324353191991599
  0.1666730644398867  0.5828226356034434  0.6413343715331586
  0.0834151176652745  0.9166277544549345  0.3581581855473984
  0.1668479080689432  0.8329840934468431  0.2677070845782990
  0.0834324078495118  0.9166888712372793  0.5478098249296363
  0.1667166823613179  0.8328728038263973  0.4518899925393358
  0.0836367376854776  0.9167722824743532  0.7323888079493742
  0.1674394532060283  0.8340590722955596  0.6415868999947916
  0.3334214055872410  0.1666009159319825  0.3582008628327744
  0.4168208197172146  0.0834324044340463  0.2675388949657171
  0.3332154582276768  0.1666659153416164  0.5479557219282256
  0.4167010746125783  0.0833166094026604  0.4521122047744241
  0.3335303363237594  0.1669896760778570  0.7324534963363929
  0.4168014990965292  0.0830876161803278  0.6420308702000266
  0.3335795915326280  0.4166997255523127  0.3581648025588208
  0.4166767669370453  0.3333250324913674  0.2676453346518596
  0.3333694080648131  0.4164116617494281  0.5482744333301212
  0.4166308319712523  0.3332853103041575  0.4521241777286437
  0.3318964563432333  0.4132217012490433  0.7328284995400038
  0.4168594183243337  0.3327168586614491  0.6421094955576521
  0.3334212565618909  0.6666009354077345  0.3581956158037192
  0.4167472861055819  0.5832527921805108  0.2676586368429739
  0.3334049750045307  0.6665890009717448  0.5485429064426256
  0.4167158415290213  0.5832829889881606  0.4521900827116779
  0.3316039908380120  0.6683280830696721  0.7325769441800053
  0.4168060804643281  0.5831458444108939  0.6422822366739407
  0.3335697151936693  0.9167633136446964  0.3582022016831080
  0.4166206410756225  0.8332019855674825  0.2676556205586446
  0.3333446463197033  0.9164500438970312  0.5478901168250719
  0.4164908627075499  0.8329072990514503  0.4520221176178538
  0.3331774998493122  0.9157297742025151  0.7322056034807041
  0.4171156303247015  0.8340475779592202  0.6415620320768719
  0.5833052101265671  0.1665013921606154  0.3581970988269084
  0.6668014347277714  0.0834943505622841  0.2676717691626853
  0.5835764591157567  0.1666189590172178  0.5478683951942123
  0.6668746053262838  0.0834690756625335  0.4520543393748586
  0.5840476660238062  0.1668766055688939  0.7324342682958920
  0.6667914301639798  0.0832111840706787  0.6422980191428277
  0.5833975497522302  0.4165984112532270  0.3581603790443034
  0.6669693267884043  0.3332157240294369  0.2677457603379778
  0.5833981712994109  0.4165456598419323  0.5478419231989513
  0.6670900704264231  0.3332625905288611  0.4520037478758160
  0.5833076374909021  0.4162992400909574  0.7326654038466713
  0.6660431037961098  0.3324180632715898  0.6420129646757198
  0.5833554044958384  0.6665041279003420  0.3581375415797596
  0.6667693598623456  0.5833406041876465  0.2676390215606616
  0.5835207861394457  0.6665865768321692  0.5482977791821121
  0.6669195260568999  0.5834822538964016  0.4520884700322139
  0.5872953782384752  0.6682624773928811  0.7324618452923198
  0.6667037037414051  0.5828009708598241  0.6413873638696383
  0.5834141607395487  0.9166365528585861  0.3581502518179467
  0.6668711864265594  0.8329908204862092  0.2677043984593658
  0.5834927670199302  0.9166611714948982  0.5477868613686603
  0.6667349545572339  0.8328808210165535  0.4518636927889249
  0.5836219637144345  0.9167548417028423  0.7323629274854430
  0.6674331518696167  0.8339971003223905  0.6415893999291983
  0.8334336560312136  0.1666202328042866  0.3582010060388177
  0.9168219200748822  0.0834212479388046  0.2675388872549069
  0.8332490980331555  0.1666363849775615  0.5479037770221828
  0.9167311194169623  0.0833087580925889  0.4520940467564473
  0.8334748910131702  0.1669318096606230  0.7324171653178777
  0.9168101769476585  0.0830418247230750  0.6420292486477319
  0.8335689961217779  0.4167244634835733  0.3581703298205193
  0.9166952613838787  0.3333454041158554  0.2676527733341249
  0.8333772994003281  0.4164568206977353  0.5482894895178633
  0.9166166318434447  0.3333060154118352  0.4521198770796143
  0.8317110513998118  0.4127034100465044  0.7328031597672341
  0.9169330042407721  0.3326757750959902  0.6420562015117519
  0.8334375974318124  0.6666099226710890  0.3582039762819452
  0.9167413300931158  0.5832716460015596  0.2676596466277505
  0.8334146601817763  0.6665937093740164  0.5485394238008414
  0.9167241727874860  0.5832810545878726  0.4521904197623662
  0.8316920538373084  0.6682632648839807  0.7326700261018010
  0.9167477810951881  0.5831409037192700  0.6423333927729862
  0.8335907291678829  0.9167624622445053  0.3581855764393210
  0.9165936026732113  0.8331713823476831  0.2676494431220440
  0.8333557637595456  0.9164570629966474  0.5478928409168174
  0.9164836356532111  0.8328850066588254  0.4520260055410989
  0.8332017207601201  0.9156894318238172  0.7322057067886841
  0.9170558962232924  0.8339774780432038  0.6416076629921548
  0.4185316833390336  0.5843311176772130  0.8192066924089172
  0.9189350026719184  0.5829615922975868  0.8190936005650677
 
  0.00000000E+00  0.00000000E+00  0.00000000E+00
  0.00000000E+00  0.00000000E+00  0.00000000E+00
  0.00000000E+00  0.00000000E+00  0.00000000E+00
  0.00000000E+00  0.00000000E+00  0.00000000E+00
  0.00000000E+00  0.00000000E+00  0.00000000E+00
  0.00000000E+00  0.00000000E+00  0.00000000E+00
  0.00000000E+00  0.00000000E+00  0.00000000E+00
  0.00000000E+00  0.00000000E+00  0.00000000E+00
  0.00000000E+00  0.00000000E+00  0.00000000E+00
  0.00000000E+00  0.00000000E+00  0.00000000E+00
  0.00000000E+00  0.00000000E+00  0.00000000E+00
  0.00000000E+00  0.00000000E+00  0.00000000E+00
  0.00000000E+00  0.00000000E+00  0.00000000E+00
  0.00000000E+00  0.00000000E+00  0.00000000E+00
  0.00000000E+00  0.00000000E+00  0.00000000E+00
  0.00000000E+00  0.00000000E+00  0.00000000E+00
  0.00000000E+00  0.00000000E+00  0.00000000E+00
  0.00000000E+00  0.00000000E+00  0.00000000E+00
  0.00000000E+00  0.00000000E+00  0.00000000E+00
  0.00000000E+00  0.00000000E+00  0.00000000E+00
  0.00000000E+00  0.00000000E+00  0.00000000E+00
  0.00000000E+00  0.00000000E+00  0.00000000E+00
  0.00000000E+00  0.00000000E+00  0.00000000E+00
  0.00000000E+00  0.00000000E+00  0.00000000E+00
  0.00000000E+00  0.00000000E+00  0.00000000E+00
  0.00000000E+00  0.00000000E+00  0.00000000E+00
  0.00000000E+00  0.00000000E+00  0.00000000E+00
  0.00000000E+00  0.00000000E+00  0.00000000E+00
  0.00000000E+00  0.00000000E+00  0.00000000E+00
  0.00000000E+00  0.00000000E+00  0.00000000E+00
  0.00000000E+00  0.00000000E+00  0.00000000E+00
  0.00000000E+00  0.00000000E+00  0.00000000E+00
  0.00000000E+00  0.00000000E+00  0.00000000E+00
  0.00000000E+00  0.00000000E+00  0.00000000E+00
  0.00000000E+00  0.00000000E+00  0.00000000E+00
  0.00000000E+00  0.00000000E+00  0.00000000E+00
  0.00000000E+00  0.00000000E+00  0.00000000E+00
  0.00000000E+00  0.00000000E+00  0.00000000E+00
  0.00000000E+00  0.00000000E+00  0.00000000E+00
  0.00000000E+00  0.00000000E+00  0.00000000E+00
  0.00000000E+00  0.00000000E+00  0.00000000E+00
  0.00000000E+00  0.00000000E+00  0.00000000E+00
  0.00000000E+00  0.00000000E+00  0.00000000E+00
  0.00000000E+00  0.00000000E+00  0.00000000E+00
  0.00000000E+00  0.00000000E+00  0.00000000E+00
  0.00000000E+00  0.00000000E+00  0.00000000E+00
  0.00000000E+00  0.00000000E+00  0.00000000E+00
  0.00000000E+00  0.00000000E+00  0.00000000E+00
  0.00000000E+00  0.00000000E+00  0.00000000E+00
  0.00000000E+00  0.00000000E+00  0.00000000E+00
  0.00000000E+00  0.00000000E+00  0.00000000E+00
  0.00000000E+00  0.00000000E+00  0.00000000E+00
  0.00000000E+00  0.00000000E+00  0.00000000E+00
  0.00000000E+00  0.00000000E+00  0.00000000E+00
  0.00000000E+00  0.00000000E+00  0.00000000E+00
  0.00000000E+00  0.00000000E+00  0.00000000E+00
  0.00000000E+00  0.00000000E+00  0.00000000E+00
  0.00000000E+00  0.00000000E+00  0.00000000E+00
  0.00000000E+00  0.00000000E+00  0.00000000E+00
  0.00000000E+00  0.00000000E+00  0.00000000E+00
  0.00000000E+00  0.00000000E+00  0.00000000E+00
  0.00000000E+00  0.00000000E+00  0.00000000E+00
  0.00000000E+00  0.00000000E+00  0.00000000E+00
  0.00000000E+00  0.00000000E+00  0.00000000E+00
  0.00000000E+00  0.00000000E+00  0.00000000E+00
  0.00000000E+00  0.00000000E+00  0.00000000E+00
  0.00000000E+00  0.00000000E+00  0.00000000E+00
  0.00000000E+00  0.00000000E+00  0.00000000E+00
  0.00000000E+00  0.00000000E+00  0.00000000E+00
  0.00000000E+00  0.00000000E+00  0.00000000E+00
  0.00000000E+00  0.00000000E+00  0.00000000E+00
  0.00000000E+00  0.00000000E+00  0.00000000E+00
  0.00000000E+00  0.00000000E+00  0.00000000E+00
  0.00000000E+00  0.00000000E+00  0.00000000E+00
  0.00000000E+00  0.00000000E+00  0.00000000E+00
  0.00000000E+00  0.00000000E+00  0.00000000E+00
  0.00000000E+00  0.00000000E+00  0.00000000E+00
  0.00000000E+00  0.00000000E+00  0.00000000E+00
  0.00000000E+00  0.00000000E+00  0.00000000E+00
  0.00000000E+00  0.00000000E+00  0.00000000E+00
  0.00000000E+00  0.00000000E+00  0.00000000E+00
  0.00000000E+00  0.00000000E+00  0.00000000E+00
  0.00000000E+00  0.00000000E+00  0.00000000E+00
  0.00000000E+00  0.00000000E+00  0.00000000E+00
  0.00000000E+00  0.00000000E+00  0.00000000E+00
  0.00000000E+00  0.00000000E+00  0.00000000E+00
  0.00000000E+00  0.00000000E+00  0.00000000E+00
  0.00000000E+00  0.00000000E+00  0.00000000E+00
  0.00000000E+00  0.00000000E+00  0.00000000E+00
  0.00000000E+00  0.00000000E+00  0.00000000E+00
  0.00000000E+00  0.00000000E+00  0.00000000E+00
  0.00000000E+00  0.00000000E+00  0.00000000E+00
  0.00000000E+00  0.00000000E+00  0.00000000E+00
  0.00000000E+00  0.00000000E+00  0.00000000E+00
  0.00000000E+00  0.00000000E+00  0.00000000E+00
  0.00000000E+00  0.00000000E+00  0.00000000E+00
  0.00000000E+00  0.00000000E+00  0.00000000E+00
  0.00000000E+00  0.00000000E+00  0.00000000E+00
