Ru Ta N                                 
   1.00000000000000     
    18.1096308199999996    0.0000000000000000    0.0000000000000000
     0.0000000000000000   23.3551997799999995    0.0000000000000000
     0.0000000000000000    0.0000000000000000   30.4818170799999990
   Ru   Ta   N 
   128   240   240
Direct
  0.0468128438798729  0.0064001623103600  0.6350628094614530
  0.2842884386168260  0.4959606064475628  0.6208041322445613
  0.4238188654632274  0.0673250426649403  0.6197246765293289
  0.0467874083567680  0.2563766620490048  0.6350679825342102
  0.2842594059711346  0.2459648299810095  0.6208011072961984
  0.4237781976248357  0.3172905067021198  0.6197082669997954
  0.0520428833705216  0.1223305037391129  0.6363315198646802
  0.2763395296521497  0.1305173945823265  0.6256719599434981
  0.4240377012374305  0.1859195010436315  0.6192343291315575
  0.0520952783337588  0.3723176411227091  0.6363491911855418
  0.2763031693989098  0.3805222984105984  0.6256607377260576
  0.4240728277754735  0.4359360051459775  0.6192285448593711
  0.1631696752746165  0.4458953612335424  0.6404902059530131
  0.1737177064815686  0.3080979830172814  0.6463964938568432
  0.1631936787352089  0.1958940299574123  0.6404838571761839
  0.1736925199053141  0.0581110528263723  0.6463876071857159
  0.0696335369918892  0.4408178458660559  0.7001368687894600
  0.3287777911561845  0.4431479845581519  0.6897848795666203
  0.4448580163975220  0.0089684237563638  0.6909339974290288
  0.0696400726830000  0.1907663743573822  0.7001487173758323
  0.3287758933558727  0.1931234621158797  0.6897665451395110
  0.4448617183114384  0.2589653557163335  0.6909502991392652
  0.0718457408753213  0.0611368004562546  0.7039771358215231
  0.3169532125911680  0.0579448363053827  0.6866608184736926
  0.4436563837869840  0.1216693893956201  0.6904792366201594
  0.0718543096191969  0.3111463617256433  0.7039579635297629
  0.3169202301743202  0.3079113107150828  0.6866310182254565
  0.4436524132249177  0.3716671296290022  0.6904774555057315
  0.2085563490762664  0.3843880426366871  0.7018102622206256
  0.1981729873214257  0.2419502503722334  0.7111726121279583
  0.2085241822148096  0.1343723715295909  0.7017978294454774
  0.1981699588269064  0.4919797805952660  0.7111600955512207
  0.0468128438798729  0.5064001623103528  0.6350628094614530
  0.2842884386168260  0.9959606064475630  0.6208041322445613
  0.4238188654632274  0.5673250426649403  0.6197246765293289
  0.0467874083567680  0.7563766620490050  0.6350679825342102
  0.2842594059711346  0.7459648299810093  0.6208011072961984
  0.4237781976248357  0.8172905067021200  0.6197082669997954
  0.0520428833705216  0.6223305037391129  0.6363315198646802
  0.2763395296521497  0.6305173945823266  0.6256719599434981
  0.4240377012374305  0.6859195010436244  0.6192343291315575
  0.0520952783337588  0.8723176411227092  0.6363491911855418
  0.2763031693989098  0.8805222984105984  0.6256607377260576
  0.4240728277754735  0.9359360051459773  0.6192285448593711
  0.1631696752746165  0.9458953612335425  0.6404902059530131
  0.1737177064815686  0.8080979830172813  0.6463964938568432
  0.1631936787352089  0.6958940299574122  0.6404838571761839
  0.1736925199053141  0.5581110528263723  0.6463876071857159
  0.0696335369918892  0.9408178458660559  0.7001368687894600
  0.3287777911561845  0.9431479845581517  0.6897848795666203
  0.4448580163975220  0.5089684237563639  0.6909339974290288
  0.0696400726830000  0.6907663743573819  0.7001487173758323
  0.3287758933558727  0.6931234621158797  0.6897665451395110
  0.4448617183114384  0.7589653557163336  0.6909502991392652
  0.0718457408753213  0.5611368004562616  0.7039771358215231
  0.3169532125911680  0.5579448363053826  0.6866608184736926
  0.4436563837869840  0.6216693893956202  0.6904792366201594
  0.0718543096191969  0.8111463617256433  0.7039579635297629
  0.3169202301743202  0.8079113107150827  0.6866310182254565
  0.4436524132249177  0.8716671296290021  0.6904774555057315
  0.2085563490762664  0.8843880426366871  0.7018102622206256
  0.1981729873214257  0.7419502503722335  0.7111726121279583
  0.2085241822148096  0.6343723715295908  0.7017978294454774
  0.1981699588269064  0.9919797805952660  0.7111600955512207
  0.5468128438798656  0.0064001623103600  0.6350628094614530
  0.7842884386168257  0.4959606064475628  0.6208041322445613
  0.9238188654632274  0.0673250426649403  0.6197246765293289
  0.5467874083567684  0.2563766620490048  0.6350679825342102
  0.7842594059711345  0.2459648299810095  0.6208011072961984
  0.9237781976248283  0.3172905067021198  0.6197082669997954
  0.5520428833705217  0.1223305037391129  0.6363315198646802
  0.7763395296521497  0.1305173945823265  0.6256719599434981
  0.9240377012374305  0.1859195010436315  0.6192343291315575
  0.5520952783337587  0.3723176411227091  0.6363491911855418
  0.7763031693989094  0.3805222984105984  0.6256607377260576
  0.9240728277754732  0.4359360051459775  0.6192285448593711
  0.6631696752746165  0.4458953612335424  0.6404902059530131
  0.6737177064815687  0.3080979830172814  0.6463964938568432
  0.6631936787352019  0.1958940299574123  0.6404838571761839
  0.6736925199053144  0.0581110528263723  0.6463876071857159
  0.5696335369918895  0.4408178458660559  0.7001368687894600
  0.8287777911561844  0.4431479845581519  0.6897848795666203
  0.9448580163975221  0.0089684237563638  0.6909339974290288
  0.5696400726830002  0.1907663743573822  0.7001487173758323
  0.8287758933558727  0.1931234621158797  0.6897665451395110
  0.9448617183114382  0.2589653557163335  0.6909502991392652
  0.5718457408753213  0.0611368004562546  0.7039771358215231
  0.8169532125911680  0.0579448363053827  0.6866608184736926
  0.9436563837869845  0.1216693893956201  0.6904792366201594
  0.5718543096191970  0.3111463617256433  0.7039579635297629
  0.8169202301743201  0.3079113107150828  0.6866310182254565
  0.9436524132249173  0.3716671296290022  0.6904774555057315
  0.7085563490762665  0.3843880426366871  0.7018102622206256
  0.6981729873214260  0.2419502503722334  0.7111726121279583
  0.7085241822148095  0.1343723715295909  0.7017978294454774
  0.6981699588269062  0.4919797805952660  0.7111600955512207
  0.5468128438798656  0.5064001623103528  0.6350628094614530
  0.7842884386168257  0.9959606064475630  0.6208041322445613
  0.9238188654632274  0.5673250426649403  0.6197246765293289
  0.5467874083567684  0.7563766620490050  0.6350679825342102
  0.7842594059711345  0.7459648299810093  0.6208011072961984
  0.9237781976248283  0.8172905067021200  0.6197082669997954
  0.5520428833705217  0.6223305037391129  0.6363315198646802
  0.7763395296521497  0.6305173945823266  0.6256719599434981
  0.9240377012374305  0.6859195010436244  0.6192343291315575
  0.5520952783337587  0.8723176411227092  0.6363491911855418
  0.7763031693989094  0.8805222984105984  0.6256607377260576
  0.9240728277754732  0.9359360051459773  0.6192285448593711
  0.6631696752746165  0.9458953612335425  0.6404902059530131
  0.6737177064815687  0.8080979830172813  0.6463964938568432
  0.6631936787352019  0.6958940299574122  0.6404838571761839
  0.6736925199053144  0.5581110528263723  0.6463876071857159
  0.5696335369918895  0.9408178458660559  0.7001368687894600
  0.8287777911561844  0.9431479845581517  0.6897848795666203
  0.9448580163975221  0.5089684237563639  0.6909339974290288
  0.5696400726830002  0.6907663743573819  0.7001487173758323
  0.8287758933558727  0.6931234621158797  0.6897665451395110
  0.9448617183114382  0.7589653557163336  0.6909502991392652
  0.5718457408753213  0.5611368004562616  0.7039771358215231
  0.8169532125911680  0.5579448363053826  0.6866608184736926
  0.9436563837869845  0.6216693893956202  0.6904792366201594
  0.5718543096191970  0.8111463617256433  0.7039579635297629
  0.8169202301743201  0.8079113107150827  0.6866310182254565
  0.9436524132249173  0.8716671296290021  0.6904774555057315
  0.7085563490762665  0.8843880426366871  0.7018102622206256
  0.6981729873214260  0.7419502503722335  0.7111726121279583
  0.7085241822148095  0.6343723715295908  0.7017978294454774
  0.6981699588269062  0.9919797805952660  0.7111600955512207
  0.0002112439569966  0.0001379294448533  0.1972677240099328
  0.3342257926208002  0.0625994154237505  0.2026515622841732
  0.1660626269271419  0.0626581163633856  0.2026594851059174
  0.2502202084754793  0.1252178855354383  0.2779233679106414
  0.0828588434925747  0.0627073156657233  0.2839211349674117
  0.4176999472490392  0.0627059576615431  0.2838815486578931
  0.0008256087930842  0.1253252994739400  0.3697188324564011
  0.3326402487023006  0.0628659378563744  0.3681571575942079
  0.1679381750598425  0.0628343981417447  0.3682529820347616
  0.2493032059545949  0.1254477121728796  0.4546317043659679
  0.0841471472971338  0.0629017276456048  0.4547896947659248
  0.4174037978377793  0.0630029789519457  0.4539700107441442
  0.0025403515119216  0.1258373234739814  0.5405294942360097
  0.3329515419696540  0.0632298344754110  0.5393382892782002
  0.1650363593131291  0.0630412858027127  0.5429567566875054
  0.0001993579241444  0.1251124241418715  0.1972900291084592
  0.3342248374093927  0.1876083518869607  0.2026721444463678
  0.1660568042752593  0.1876606967942057  0.2026685649794543
  0.2502332970886721  0.2502158349488469  0.2779089314309309
  0.0828712378028127  0.1877169521294750  0.2839231052536363
  0.4176644359050929  0.1877065482458227  0.2839173569189230
  0.0008154674247176  0.2503506241094978  0.3697152587958862
  0.3327027888175155  0.1878628641542135  0.3681200084088513
  0.1679686603769877  0.1878193432405946  0.3682141341623229
  0.2493113160207494  0.2504855037395750  0.4546391296869020
  0.0840097430994860  0.1879475357312396  0.4547513156570488
  0.4174160238021656  0.1880206094262795  0.4539443987362153
  0.0011679361841835  0.2505302105888862  0.5412335555672959
  0.3334237951884169  0.1883859710671605  0.5387945251512172
  0.1655448307325935  0.1878310301219214  0.5416939290254086
  0.0002122078768245  0.2501392066830743  0.1972669375768594
  0.3342232035055144  0.3125992309382534  0.2026494954709076
  0.1660586660861359  0.3126582257413517  0.2026596105994354
  0.2502173161139034  0.3752178897059963  0.2779235816643145
  0.0828568376004247  0.3127060748111881  0.2839213627112301
  0.4176984722473521  0.3127078846600205  0.2838844144124695
  0.0008307809772267  0.3753227998381820  0.3697182262765081
  0.3326390595810932  0.3128672039732933  0.3681556011264032
  0.1679405372932328  0.3128331023142423  0.3682540607136363
  0.2493005992875079  0.3754477587540298  0.4546346996674380
  0.0841491243633144  0.3129002952235730  0.4547969413335105
  0.4173993880942233  0.3130032659092313  0.4539720520325602
  0.0025356872318840  0.3758339469019397  0.5405336014812603
  0.3329684397691098  0.3132370199806629  0.5393439650233268
  0.1650426706507503  0.3130441767537483  0.5429687862167804
  0.0001993469486297  0.3751125453592742  0.1972895059590362
  0.3342265491584668  0.4376091382735584  0.2026735806812298
  0.1660559599480934  0.4376604044393972  0.2026696193801886
  0.2502327017382025  0.0002164962773511  0.2779087039156056
  0.0828707196508898  0.4377156099338596  0.2839238402589589
  0.4176643738564062  0.4377089816271385  0.2839181227673833
  0.0008122003724897  0.0003494144855508  0.3697164876672497
  0.3327048619031747  0.4378656112192185  0.3681206547182131
  0.1679705427566298  0.4378234620421677  0.3682133283607803
  0.2493131956369093  0.0004845145982211  0.4546407955129566
  0.0840136393263442  0.4379500662922086  0.4547537195012795
  0.4174090157583452  0.4380252965459213  0.4539450782481039
  0.0011703139407161  0.0005258724026636  0.5412292402137329
  0.3334164024364231  0.4383857357155205  0.5387974174741370
  0.1655445550501033  0.4378355424459900  0.5416991189944349
  0.0002112439569966  0.5001379294448531  0.1972677240099328
  0.3342257926208002  0.5625994154237506  0.2026515622841732
  0.1660626269271419  0.5626581163633857  0.2026594851059174
  0.2502202084754793  0.6252178855354382  0.2779233679106414
  0.0828588434925747  0.5627073156657231  0.2839211349674117
  0.4176999472490392  0.5627059576615431  0.2838815486578931
  0.0008256087930842  0.6253252994739401  0.3697188324564011
  0.3326402487023006  0.5628659378563743  0.3681571575942079
  0.1679381750598425  0.5628343981417446  0.3682529820347616
  0.2493032059545949  0.6254477121728795  0.4546317043659679
  0.0841471472971338  0.5629017276455975  0.4547896947659248
  0.4174037978377793  0.5630029789519458  0.4539700107441442
  0.0025403515119216  0.6258373234739887  0.5405294942360097
  0.3329515419696540  0.5632298344754111  0.5393382892782002
  0.1650363593131291  0.5630412858027128  0.5429567566875054
  0.0001993579241444  0.6251124241418712  0.1972900291084592
  0.3342248374093927  0.6876083518869536  0.2026721444463678
  0.1660568042752593  0.6876606967941988  0.2026685649794543
  0.2502332970886721  0.7502158349488471  0.2779089314309309
  0.0828712378028127  0.6877169521294680  0.2839231052536363
  0.4176644359050929  0.6877065482458155  0.2839173569189230
  0.0008154674247176  0.7503506241094976  0.3697152587958862
  0.3327027888175155  0.6878628641542135  0.3681200084088513
  0.1679686603769877  0.6878193432405946  0.3682141341623229
  0.2493113160207494  0.7504855037395748  0.4546391296869020
  0.0840097430994860  0.6879475357312396  0.4547513156570488
  0.4174160238021656  0.6880206094262795  0.4539443987362153
  0.0011679361841835  0.7505302105888860  0.5412335555672959
  0.3334237951884169  0.6883859710671603  0.5387945251512172
  0.1655448307325935  0.6878310301219214  0.5416939290254086
  0.0002122078768245  0.7501392066830741  0.1972669375768594
  0.3342232035055144  0.8125992309382534  0.2026494954709076
  0.1660586660861359  0.8126582257413515  0.2026596105994354
  0.2502173161139034  0.8752178897059962  0.2779235816643145
  0.0828568376004247  0.8127060748111883  0.2839213627112301
  0.4176984722473521  0.8127078846600205  0.2838844144124695
  0.0008307809772267  0.8753227998381895  0.3697182262765081
  0.3326390595810932  0.8128672039732935  0.3681556011264032
  0.1679405372932328  0.8128331023142424  0.3682540607136363
  0.2493005992875079  0.8754477587540294  0.4546346996674380
  0.0841491243633144  0.8129002952235730  0.4547969413335105
  0.4173993880942233  0.8130032659092313  0.4539720520325602
  0.0025356872318840  0.8758339469019397  0.5405336014812603
  0.3329684397691098  0.8132370199806631  0.5393439650233268
  0.1650426706507503  0.8130441767537487  0.5429687862167804
  0.0001993469486297  0.8751125453592745  0.1972895059590362
  0.3342265491584668  0.9376091382735512  0.2026735806812298
  0.1660559599480934  0.9376604044393900  0.2026696193801886
  0.2502327017382025  0.5002164962773512  0.2779087039156056
  0.0828707196508898  0.9377156099338525  0.2839238402589589
  0.4176643738564062  0.9377089816271318  0.2839181227673833
  0.0008122003724897  0.5003494144855507  0.3697164876672497
  0.3327048619031747  0.9378656112192185  0.3681206547182131
  0.1679705427566298  0.9378234620421678  0.3682133283607803
  0.2493131956369093  0.5004845145982137  0.4546407955129566
  0.0840136393263442  0.9379500662922087  0.4547537195012795
  0.4174090157583452  0.9380252965459213  0.4539450782481039
  0.0011703139407161  0.5005258724026637  0.5412292402137329
  0.3334164024364231  0.9383857357155205  0.5387974174741370
  0.1655445550501033  0.9378355424459901  0.5416991189944349
  0.5002112439569966  0.0001379294448533  0.1972677240099328
  0.8342257926208003  0.0625994154237505  0.2026515622841732
  0.6660626269271419  0.0626581163633856  0.2026594851059174
  0.7502202084754792  0.1252178855354383  0.2779233679106414
  0.5828588434925748  0.0627073156657233  0.2839211349674117
  0.9176999472490392  0.0627059576615431  0.2838815486578931
  0.5008256087930844  0.1253252994739400  0.3697188324564011
  0.8326402487023005  0.0628659378563744  0.3681571575942079
  0.6679381750598354  0.0628343981417447  0.3682529820347616
  0.7493032059545948  0.1254477121728796  0.4546317043659679
  0.5841471472971338  0.0629017276456048  0.4547896947659248
  0.9174037978377861  0.0630029789519457  0.4539700107441442
  0.5025403515119217  0.1258373234739814  0.5405294942360097
  0.8329515419696542  0.0632298344754110  0.5393382892782002
  0.6650363593131292  0.0630412858027127  0.5429567566875054
  0.5001993579241442  0.1251124241418715  0.1972900291084592
  0.8342248374093929  0.1876083518869607  0.2026721444463678
  0.6660568042752592  0.1876606967942057  0.2026685649794543
  0.7502332970886720  0.2502158349488469  0.2779089314309309
  0.5828712378028126  0.1877169521294750  0.2839231052536363
  0.9176644359050931  0.1877065482458227  0.2839173569189230
  0.5008154674247247  0.2503506241094978  0.3697152587958862
  0.8327027888175157  0.1878628641542135  0.3681200084088513
  0.6679686603769878  0.1878193432405946  0.3682141341623229
  0.7493113160207493  0.2504855037395750  0.4546391296869020
  0.5840097430994858  0.1879475357312396  0.4547513156570488
  0.9174160238021657  0.1880206094262795  0.4539443987362153
  0.5011679361841836  0.2505302105888862  0.5412335555672959
  0.8334237951884170  0.1883859710671605  0.5387945251512172
  0.6655448307325933  0.1878310301219214  0.5416939290254086
  0.5002122078768244  0.2501392066830743  0.1972669375768594
  0.8342232035055146  0.3125992309382534  0.2026494954709076
  0.6660586660861361  0.3126582257413517  0.2026596105994354
  0.7502173161139034  0.3752178897059963  0.2779235816643145
  0.5828568376004246  0.3127060748111881  0.2839213627112301
  0.9176984722473522  0.3127078846600205  0.2838844144124695
  0.5008307809772268  0.3753227998381820  0.3697182262765081
  0.8326390595810935  0.3128672039732933  0.3681556011264032
  0.6679405372932330  0.3128331023142423  0.3682540607136363
  0.7493005992875079  0.3754477587540298  0.4546346996674380
  0.5841491243633145  0.3129002952235730  0.4547969413335105
  0.9173993880942231  0.3130032659092313  0.4539720520325602
  0.5025356872318908  0.3758339469019397  0.5405336014812603
  0.8329684397691097  0.3132370199806629  0.5393439650233268
  0.6650426706507432  0.3130441767537483  0.5429687862167804
  0.5001993469486297  0.3751125453592742  0.1972895059590362
  0.8342265491584665  0.4376091382735584  0.2026735806812298
  0.6660559599480933  0.4376604044393972  0.2026696193801886
  0.7502327017382027  0.0002164962773511  0.2779087039156056
  0.5828707196508897  0.4377156099338596  0.2839238402589589
  0.9176643738564062  0.4377089816271385  0.2839181227673833
  0.5008122003724825  0.0003494144855508  0.3697164876672497
  0.8327048619031746  0.4378656112192185  0.3681206547182131
  0.6679705427566296  0.4378234620421677  0.3682133283607803
  0.7493131956369092  0.0004845145982211  0.4546407955129566
  0.5840136393263368  0.4379500662922086  0.4547537195012795
  0.9174090157583382  0.4380252965459213  0.4539450782481039
  0.5011703139407159  0.0005258724026636  0.5412292402137329
  0.8334164024364235  0.4383857357155205  0.5387974174741370
  0.6655445550501032  0.4378355424459900  0.5416991189944349
  0.5002112439569966  0.5001379294448531  0.1972677240099328
  0.8342257926208003  0.5625994154237506  0.2026515622841732
  0.6660626269271419  0.5626581163633857  0.2026594851059174
  0.7502202084754792  0.6252178855354382  0.2779233679106414
  0.5828588434925748  0.5627073156657231  0.2839211349674117
  0.9176999472490392  0.5627059576615431  0.2838815486578931
  0.5008256087930844  0.6253252994739401  0.3697188324564011
  0.8326402487023005  0.5628659378563743  0.3681571575942079
  0.6679381750598354  0.5628343981417446  0.3682529820347616
  0.7493032059545948  0.6254477121728795  0.4546317043659679
  0.5841471472971338  0.5629017276455975  0.4547896947659248
  0.9174037978377861  0.5630029789519458  0.4539700107441442
  0.5025403515119217  0.6258373234739887  0.5405294942360097
  0.8329515419696542  0.5632298344754111  0.5393382892782002
  0.6650363593131292  0.5630412858027128  0.5429567566875054
  0.5001993579241442  0.6251124241418712  0.1972900291084592
  0.8342248374093929  0.6876083518869536  0.2026721444463678
  0.6660568042752592  0.6876606967941988  0.2026685649794543
  0.7502332970886720  0.7502158349488471  0.2779089314309309
  0.5828712378028126  0.6877169521294680  0.2839231052536363
  0.9176644359050931  0.6877065482458155  0.2839173569189230
  0.5008154674247247  0.7503506241094976  0.3697152587958862
  0.8327027888175157  0.6878628641542135  0.3681200084088513
  0.6679686603769878  0.6878193432405946  0.3682141341623229
  0.7493113160207493  0.7504855037395748  0.4546391296869020
  0.5840097430994858  0.6879475357312396  0.4547513156570488
  0.9174160238021657  0.6880206094262795  0.4539443987362153
  0.5011679361841836  0.7505302105888860  0.5412335555672959
  0.8334237951884170  0.6883859710671603  0.5387945251512172
  0.6655448307325933  0.6878310301219214  0.5416939290254086
  0.5002122078768244  0.7501392066830741  0.1972669375768594
  0.8342232035055146  0.8125992309382534  0.2026494954709076
  0.6660586660861361  0.8126582257413515  0.2026596105994354
  0.7502173161139034  0.8752178897059962  0.2779235816643145
  0.5828568376004246  0.8127060748111883  0.2839213627112301
  0.9176984722473522  0.8127078846600205  0.2838844144124695
  0.5008307809772268  0.8753227998381895  0.3697182262765081
  0.8326390595810935  0.8128672039732935  0.3681556011264032
  0.6679405372932330  0.8128331023142424  0.3682540607136363
  0.7493005992875079  0.8754477587540294  0.4546346996674380
  0.5841491243633145  0.8129002952235730  0.4547969413335105
  0.9173993880942231  0.8130032659092313  0.4539720520325602
  0.5025356872318908  0.8758339469019397  0.5405336014812603
  0.8329684397691097  0.8132370199806631  0.5393439650233268
  0.6650426706507432  0.8130441767537487  0.5429687862167804
  0.5001993469486297  0.8751125453592745  0.1972895059590362
  0.8342265491584665  0.9376091382735512  0.2026735806812298
  0.6660559599480933  0.9376604044393900  0.2026696193801886
  0.7502327017382027  0.5002164962773512  0.2779087039156056
  0.5828707196508897  0.9377156099338525  0.2839238402589589
  0.9176643738564062  0.9377089816271318  0.2839181227673833
  0.5008122003724825  0.5003494144855507  0.3697164876672497
  0.8327048619031746  0.9378656112192185  0.3681206547182131
  0.6679705427566296  0.9378234620421678  0.3682133283607803
  0.7493131956369092  0.5004845145982137  0.4546407955129566
  0.5840136393263368  0.9379500662922087  0.4547537195012795
  0.9174090157583382  0.9380252965459213  0.4539450782481039
  0.5011703139407159  0.5005258724026637  0.5412292402137329
  0.8334164024364235  0.9383857357155205  0.5387974174741370
  0.6655445550501032  0.9378355424459901  0.5416991189944349
  0.4059663601692356  0.0001462046730137  0.2321581538657652
  0.2501335306342441  0.0001313415364708  0.1994074186882372
  0.0944334762619564  0.0001738881651329  0.2322111994849921
  0.1549947328934415  0.1252546000618210  0.3157426333168983
  0.0003044512358924  0.1252329358346580  0.3030834267887134
  0.3454752489896643  0.1252525403775399  0.3156325793475943
  0.4015154892301594  0.1254173471861791  0.4018241525132916
  0.2502569296907171  0.1253917800613631  0.3870860351786986
  0.0999658402835026  0.1253685837454695  0.4024666091812913
  0.1515487125671955  0.1252343115914286  0.4891339644702385
  0.0006802951727589  0.1254810492628698  0.4722818814665751
  0.3482823130727628  0.1253861143770356  0.4866650479393926
  0.4029887435775998  0.1262272177847090  0.5689005552801338
  0.2517358597586323  0.1257803719427674  0.5586188105369241
  0.0992645412250873  0.1259118573910559  0.5736865109852931
  0.4059504510021189  0.1251528418496818  0.2321850637642753
  0.2501484584581339  0.1251294756807335  0.1994510222296258
  0.0944439778587529  0.1251741239827481  0.2322273915902898
  0.1549877250862203  0.2502614546838658  0.3157335200253421
  0.0002974674814892  0.2502100279361915  0.3030682686012559
  0.3454803331882375  0.2503006024972594  0.3156227075867905
  0.4015428012559913  0.2504345996665338  0.4018224187204356
  0.2502599362095817  0.2503346032954208  0.3871164256278742
  0.0998946371603559  0.2503579856323371  0.4024619743774373
  0.1513951675678493  0.2505793003637435  0.4889198806463105
  0.0005569262025591  0.2505384645523843  0.4726954870606872
  0.3484270016172868  0.2508122732499356  0.4867367014092033
  0.4014969732443552  0.2510091230198603  0.5708604044121255
  0.2510987326787092  0.2504004672305767  0.5564234308971057
  0.0997333318364548  0.2497709516375785  0.5735148143724956
  0.4059628358367562  0.2501443164155333  0.2321546454687187
  0.2501309939231415  0.2501318371526625  0.1994048643391726
  0.0944333317481817  0.2501740935465671  0.2322115868511727
  0.1549942609652194  0.3752545226085197  0.3157426171993323
  0.0003019335461041  0.3752315664304402  0.3030842360911230
  0.3454762333887380  0.3752493953370242  0.3156323592430830
  0.4015121056479766  0.3754139559321088  0.4018258180187700
  0.2502569866054007  0.3753870047639773  0.3870861127463045
  0.0999671479859618  0.3753685594326020  0.4024678471051941
  0.1515532993412292  0.3752309988343996  0.4891432570785800
  0.0006883393914825  0.3754770382932950  0.4722817577805425
  0.3482832740224365  0.3753833405383457  0.4866675591893946
  0.4029922608113041  0.3762222328382389  0.5689107253945135
  0.2517282124449909  0.3757896863871636  0.5586294843981349
  0.0992647404038365  0.3759066192064854  0.5736795585579482
  0.4059478946475338  0.3751544388567670  0.2321832637391822
  0.2501466085234565  0.3751304557911110  0.1994524930245468
  0.0944438259277268  0.3751735704598353  0.2322289388253111
  0.1549885716339100  0.0002612802479094  0.3157334879317288
  0.0002978007998675  0.0002100955494438  0.3030683028406490
  0.3454783229828894  0.0002993863865492  0.3156239547548613
  0.4015403179176327  0.0004309049034200  0.4018220674010826
  0.2502615765596551  0.0003336131767979  0.3871160330450825
  0.0998904798707538  0.0003542502622649  0.4024597552940209
  0.1513942663528307  0.0005777882742186  0.4889153218305408
  0.0005479287340214  0.0005333179280724  0.4726958083013519
  0.3484237897791315  0.0008062328704278  0.4867358217131369
  0.4014847252732880  0.0010069478867363  0.5708661027769137
  0.2510910036624576  0.0003970568721622  0.5564391025141282
  0.0997276404082276  0.4997738277110477  0.5735056369993753
  0.4059663601692356  0.5001462046730137  0.2321581538657652
  0.2501335306342441  0.5001313415364708  0.1994074186882372
  0.0944334762619564  0.5001738881651329  0.2322111994849921
  0.1549947328934415  0.6252546000618210  0.3157426333168983
  0.0003044512358924  0.6252329358346582  0.3030834267887134
  0.3454752489896643  0.6252525403775401  0.3156325793475943
  0.4015154892301594  0.6254173471861790  0.4018241525132916
  0.2502569296907171  0.6253917800613633  0.3870860351786986
  0.0999658402835026  0.6253685837454621  0.4024666091812913
  0.1515487125671955  0.6252343115914286  0.4891339644702385
  0.0006802951727589  0.6254810492628698  0.4722818814665751
  0.3482823130727628  0.6253861143770355  0.4866650479393926
  0.4029887435775998  0.6262272177847092  0.5689005552801338
  0.2517358597586323  0.6257803719427746  0.5586188105369241
  0.0992645412250873  0.6259118573910629  0.5736865109852931
  0.4059504510021189  0.6251528418496817  0.2321850637642753
  0.2501484584581339  0.6251294756807334  0.1994510222296258
  0.0944439778587529  0.6251741239827481  0.2322273915902898
  0.1549877250862203  0.7502614546838657  0.3157335200253421
  0.0002974674814892  0.7502100279361916  0.3030682686012559
  0.3454803331882375  0.7503006024972593  0.3156227075867905
  0.4015428012559913  0.7504345996665339  0.4018224187204356
  0.2502599362095817  0.7503346032954209  0.3871164256278742
  0.0998946371603559  0.7503579856323369  0.4024619743774373
  0.1513951675678493  0.7505793003637437  0.4889198806463105
  0.0005569262025591  0.7505384645523770  0.4726954870606872
  0.3484270016172868  0.7508122732499355  0.4867367014092033
  0.4014969732443552  0.7510091230198603  0.5708604044121255
  0.2510987326787092  0.7504004672305769  0.5564234308971057
  0.0997333318364548  0.7497709516375786  0.5735148143724956
  0.4059628358367562  0.7501443164155334  0.2321546454687187
  0.2501309939231415  0.7501318371526625  0.1994048643391726
  0.0944333317481817  0.7501740935465669  0.2322115868511727
  0.1549942609652194  0.8752545226085198  0.3157426171993323
  0.0003019335461041  0.8752315664304402  0.3030842360911230
  0.3454762333887380  0.8752493953370243  0.3156323592430830
  0.4015121056479766  0.8754139559321088  0.4018258180187700
  0.2502569866054007  0.8753870047639770  0.3870861127463045
  0.0999671479859618  0.8753685594326019  0.4024678471051941
  0.1515532993412292  0.8752309988343998  0.4891432570785800
  0.0006883393914825  0.8754770382932949  0.4722817577805425
  0.3482832740224365  0.8753833405383458  0.4866675591893946
  0.4029922608113041  0.8762222328382390  0.5689107253945135
  0.2517282124449909  0.8757896863871634  0.5586294843981349
  0.0992647404038365  0.8759066192064853  0.5736795585579482
  0.4059478946475338  0.8751544388567671  0.2321832637391822
  0.2501466085234565  0.8751304557911110  0.1994524930245468
  0.0944438259277268  0.8751735704598355  0.2322289388253111
  0.1549885716339100  0.5002612802479094  0.3157334879317288
  0.0002978007998675  0.5002100955494437  0.3030683028406490
  0.3454783229828894  0.5002993863865491  0.3156239547548613
  0.4015403179176327  0.5004309049034130  0.4018220674010826
  0.2502615765596551  0.5003336131767909  0.3871160330450825
  0.0998904798707538  0.5003542502622580  0.4024597552940209
  0.1513942663528307  0.5005777882742186  0.4889153218305408
  0.0005479287340214  0.5005333179280724  0.4726958083013519
  0.3484237897791315  0.5008062328704277  0.4867358217131369
  0.4014847252732880  0.5010069478867363  0.5708661027769137