Mo  S Co                                
   1.00000000000000     
    15.9215000000000000    0.0000000000000000    0.0000000000000000
    -7.9622500000000000   13.7910219999999999    0.0000000000000000
     0.0000000000000000    0.0000000000000000   13.5822000000000003
   Mo   S    Co
    25    50     2
Direct
  0.1330910722501670  0.0678173611007296  0.6817723124843198
  0.1295543392715501  0.2653675895732164  0.6798038642559376
  0.1329429787936718  0.4663725398959713  0.6823214008693910
  0.1338201749563908  0.6672823589745605  0.6816517899818777
  0.1338809553849742  0.8676680962845182  0.6812893124104136
  0.3345629861078052  0.0678183260632608  0.6815672160226711
  0.3345222022559398  0.2686305197879406  0.6799450510782776
  0.3342710017803157  0.4669350014536491  0.6804557491133707
  0.3345489232863983  0.6680105746373073  0.6823452543125939
  0.3334896199039576  0.8673244153069675  0.6814122384913261
  0.5334843632415343  0.0672199136121350  0.6806380817998914
  0.5334454209721287  0.2663599473520719  0.6807077608785335
  0.5345806376440549  0.4679608676623701  0.6812361739335628
  0.5334207072987667  0.6681684119494946  0.6815397460976911
  0.5335163397649012  0.8673719476934991  0.6811096428098011
  0.7330688708608335  0.0669820067385842  0.6797176492299002
  0.7334208628871224  0.2671602186941797  0.6795340903457259
  0.7339245593052937  0.4674114120031376  0.6799605608590937
  0.7340134861123317  0.6675042721805866  0.6801908524062412
  0.7334595682177323  0.8671442917951140  0.6798799052089421
  0.9325081931964192  0.0664252535695482  0.6797284446375045
  0.9324575755709006  0.2669673321679014  0.6798468599527538
  0.9335402623270994  0.4672584990138091  0.6803405356861987
  0.9339034663690100  0.6674171769040456  0.6804226922985706
  0.9336547904693617  0.8672332843263248  0.6802048777036234
  0.0661396541066281  0.1326455583045387  0.5647360697127013
  0.0643059797354795  0.1326812971854565  0.7956912945451862
  0.0661215219971041  0.3348044989014980  0.5649636496516450
  0.0641252210413938  0.3324538387756419  0.7959905235404960
  0.0677709070225205  0.5341185580946757  0.5664357468238848
  0.0661502752287433  0.5336333163273181  0.7964083054789768
  0.0677594091059390  0.7342910696078278  0.5661191071982756
  0.0667890767781785  0.7340542740073843  0.7961868264755267
  0.0677392615886561  0.9346746679839129  0.5660539250840984
  0.0664646688809896  0.9338788497652217  0.7959836321952523
  0.2672891067679615  0.1350103135763021  0.5671285362928060
  0.2676086702163829  0.1347931948804089  0.7997732289261492
  0.2663013563495014  0.3339022532426483  0.5670133432188038
  0.2547150022755318  0.3279257269096902  0.8043790417374197
  0.2671908312906197  0.5336679291911324  0.5678345943780059
  0.2675057276640516  0.5339909967632011  0.8003436057190569
  0.2671764564976726  0.7336840565135532  0.5667628613091722
  0.2669795953237326  0.7343274944961848  0.7969361068979524
  0.2671825771555945  0.9344054960339534  0.5663220069849970
  0.2670885810975392  0.9342106529346523  0.7964623427305568
  0.4665718201033897  0.1337827171619068  0.5655457617310731
  0.4675772291773228  0.1340435149259775  0.7964111086341319
  0.4667753191351807  0.3344840372918227  0.5664765160841014
  0.4723395190705162  0.3371807046427548  0.8012687351713055
  0.4665185868863162  0.5337100615736574  0.5670789002376324
  0.4723779012466665  0.5360998618228976  0.8020151361437371
  0.4665013515656469  0.7338033460505926  0.5663796935783481
  0.4676638028129005  0.7348969014147002  0.7972184103750877
  0.4664213261113730  0.9335846479022578  0.5658983188961457
  0.4671374154709014  0.9343184996984206  0.7960950904850321
  0.6662019174472391  0.1335346927017085  0.5647286834279726
  0.6671019519769530  0.1340514606753516  0.7950033800110674
  0.6664828144947847  0.3339054113269739  0.5648334476957260
  0.6674805916759823  0.3338330367347879  0.7948705582478937
  0.6672518151688820  0.5342517609299620  0.5648949709975497
  0.6688955248236539  0.5348469565157359  0.7954257317581224
  0.6662252857561128  0.7333930529422190  0.5653510360178302
  0.6677973551434988  0.7346806598526001  0.7954472830976727
  0.6661220547841182  0.9333718183685207  0.5650499548698775
  0.6672971994566126  0.9341857892053014  0.7953108698603515
  0.8662758205692569  0.1335923262137015  0.5645435148111630
  0.8659902473220313  0.1333970128317929  0.7947556022484221
  0.8667522062232749  0.3342676029604164  0.5645764543152296
  0.8660875723507431  0.3336114821225138  0.7950195274883001
  0.8674568962578917  0.5342669485963540  0.5650651810532210
  0.8669724108011749  0.5339222732473061  0.7953056865814503
  0.8673796383789281  0.7340311384607148  0.5650799840255019
  0.8671855850670056  0.7340659509729477  0.7953801775124987
  0.8666010142206417  0.9332352886572224  0.5646508717788947
  0.8664400219237223  0.9335067308480305  0.7950509917817783
  0.3358761808396622  0.2775121490511552  0.8719859159900381
  0.3358298225698206  0.4593526941983512  0.8724951619478745
 
  0.00000000E+00  0.00000000E+00  0.00000000E+00
  0.00000000E+00  0.00000000E+00  0.00000000E+00
  0.00000000E+00  0.00000000E+00  0.00000000E+00
  0.00000000E+00  0.00000000E+00  0.00000000E+00
  0.00000000E+00  0.00000000E+00  0.00000000E+00
  0.00000000E+00  0.00000000E+00  0.00000000E+00
  0.00000000E+00  0.00000000E+00  0.00000000E+00
  0.00000000E+00  0.00000000E+00  0.00000000E+00
  0.00000000E+00  0.00000000E+00  0.00000000E+00
  0.00000000E+00  0.00000000E+00  0.00000000E+00
  0.00000000E+00  0.00000000E+00  0.00000000E+00
  0.00000000E+00  0.00000000E+00  0.00000000E+00
  0.00000000E+00  0.00000000E+00  0.00000000E+00
  0.00000000E+00  0.00000000E+00  0.00000000E+00
  0.00000000E+00  0.00000000E+00  0.00000000E+00
  0.00000000E+00  0.00000000E+00  0.00000000E+00
  0.00000000E+00  0.00000000E+00  0.00000000E+00
  0.00000000E+00  0.00000000E+00  0.00000000E+00
  0.00000000E+00  0.00000000E+00  0.00000000E+00
  0.00000000E+00  0.00000000E+00  0.00000000E+00
  0.00000000E+00  0.00000000E+00  0.00000000E+00
  0.00000000E+00  0.00000000E+00  0.00000000E+00
  0.00000000E+00  0.00000000E+00  0.00000000E+00
  0.00000000E+00  0.00000000E+00  0.00000000E+00
  0.00000000E+00  0.00000000E+00  0.00000000E+00
  0.00000000E+00  0.00000000E+00  0.00000000E+00
  0.00000000E+00  0.00000000E+00  0.00000000E+00
  0.00000000E+00  0.00000000E+00  0.00000000E+00
  0.00000000E+00  0.00000000E+00  0.00000000E+00
  0.00000000E+00  0.00000000E+00  0.00000000E+00
  0.00000000E+00  0.00000000E+00  0.00000000E+00
  0.00000000E+00  0.00000000E+00  0.00000000E+00
  0.00000000E+00  0.00000000E+00  0.00000000E+00
  0.00000000E+00  0.00000000E+00  0.00000000E+00
  0.00000000E+00  0.00000000E+00  0.00000000E+00
  0.00000000E+00  0.00000000E+00  0.00000000E+00
  0.00000000E+00  0.00000000E+00  0.00000000E+00
  0.00000000E+00  0.00000000E+00  0.00000000E+00
  0.00000000E+00  0.00000000E+00  0.00000000E+00
  0.00000000E+00  0.00000000E+00  0.00000000E+00
  0.00000000E+00  0.00000000E+00  0.00000000E+00
  0.00000000E+00  0.00000000E+00  0.00000000E+00
  0.00000000E+00  0.00000000E+00  0.00000000E+00
  0.00000000E+00  0.00000000E+00  0.00000000E+00
  0.00000000E+00  0.00000000E+00  0.00000000E+00
  0.00000000E+00  0.00000000E+00  0.00000000E+00
  0.00000000E+00  0.00000000E+00  0.00000000E+00
  0.00000000E+00  0.00000000E+00  0.00000000E+00
  0.00000000E+00  0.00000000E+00  0.00000000E+00
  0.00000000E+00  0.00000000E+00  0.00000000E+00
  0.00000000E+00  0.00000000E+00  0.00000000E+00
  0.00000000E+00  0.00000000E+00  0.00000000E+00
  0.00000000E+00  0.00000000E+00  0.00000000E+00
  0.00000000E+00  0.00000000E+00  0.00000000E+00
  0.00000000E+00  0.00000000E+00  0.00000000E+00
  0.00000000E+00  0.00000000E+00  0.00000000E+00
  0.00000000E+00  0.00000000E+00  0.00000000E+00
  0.00000000E+00  0.00000000E+00  0.00000000E+00
  0.00000000E+00  0.00000000E+00  0.00000000E+00
  0.00000000E+00  0.00000000E+00  0.00000000E+00
  0.00000000E+00  0.00000000E+00  0.00000000E+00
  0.00000000E+00  0.00000000E+00  0.00000000E+00
  0.00000000E+00  0.00000000E+00  0.00000000E+00
  0.00000000E+00  0.00000000E+00  0.00000000E+00
  0.00000000E+00  0.00000000E+00  0.00000000E+00
  0.00000000E+00  0.00000000E+00  0.00000000E+00
  0.00000000E+00  0.00000000E+00  0.00000000E+00
  0.00000000E+00  0.00000000E+00  0.00000000E+00
  0.00000000E+00  0.00000000E+00  0.00000000E+00
  0.00000000E+00  0.00000000E+00  0.00000000E+00
  0.00000000E+00  0.00000000E+00  0.00000000E+00
  0.00000000E+00  0.00000000E+00  0.00000000E+00
  0.00000000E+00  0.00000000E+00  0.00000000E+00
  0.00000000E+00  0.00000000E+00  0.00000000E+00
  0.00000000E+00  0.00000000E+00  0.00000000E+00
  0.00000000E+00  0.00000000E+00  0.00000000E+00
  0.00000000E+00  0.00000000E+00  0.00000000E+00
