POSCAR                                  
   1.00000000000000     
     6.4892448972899555    0.0000000000000000    0.0000000000000000
    -3.2446224486449777    5.6141479248286403   -0.0129943147840679
     0.0000000000000000   -0.0230301233912500    9.7658337215270095
   Al   N    Li   Nb
    12    16     2     2
Direct
  0.1745339085363142  0.3335686979388179  0.0087060058397270
  0.6590347894024964  0.3335686979388179  0.0087060058397270
  0.1706589888632375  0.8413179777264819  0.0003539585622376
  0.6650249739020704  0.8300499478041479 -0.0066164966806076
  0.1632627838504511  0.8265255677009092  0.5069779695908297
  0.6632172543604866  0.8264345087209806  0.5051568543262954
  0.8338264413396996  0.1676528826793920  0.7528696788030382
  0.3273134428757444  0.6689201142308848  0.7518617798476088
  0.8416066713551476  0.6689201142308848  0.7518617798476088
  0.8325117886438040  0.1650235772876013  0.2274551791489684
  0.3325589746471655  0.6768313197359417  0.2348815267006594
  0.8442723450887829  0.6768313197359417  0.2348815267006594
  0.1600716361338745  0.3459600238044168  0.2080452622447546
  0.6858883876705351  0.3459600238044168  0.2080452622447546
  0.1593106261263337  0.8186212522526747  0.1909672251617817
  0.6664931735142898  0.8329863470285865  0.1887735038347831
  0.1508467902021453  0.3453283086070916  0.6757237829898030
  0.6944815184049390  0.3453283086070916  0.6757237829898030
  0.1566571494026605  0.8133142988053282  0.6933239350467211
  0.6665149571028912  0.8330299142057901  0.6963821224075312
  0.3357738018259324  0.1715476036518575  0.9600712832863001
  0.8349264917934374  0.1698529835868679  0.9477404170636194
  0.3326848884883831  0.6633249291284871  0.9449166915900262
  0.8306400406401113  0.6633249291284871  0.9449166915900262
  0.3216244251439763  0.1432488502879454  0.4466105326482998
  0.8179723565469573  0.1359447130939077  0.4335305192500957
  0.3462358791736229  0.6855359362337419  0.4390469138950147
  0.8393000570601257  0.6855359362337419  0.4390469138950147
  0.3297539321704422  0.1595078643408771  0.7537670386588423
  0.3302760412288940  0.1605520824577807  0.2228244131010304
  0.1671542392621879  0.3327254845050536  0.4767239697875229
  0.6655712452428586  0.3327254845050536  0.4767239697875229
 
  0.00000000E+00  0.00000000E+00  0.00000000E+00
  0.00000000E+00  0.00000000E+00  0.00000000E+00
  0.00000000E+00  0.00000000E+00  0.00000000E+00
  0.00000000E+00  0.00000000E+00  0.00000000E+00
  0.00000000E+00  0.00000000E+00  0.00000000E+00
  0.00000000E+00  0.00000000E+00  0.00000000E+00
  0.00000000E+00  0.00000000E+00  0.00000000E+00
  0.00000000E+00  0.00000000E+00  0.00000000E+00
  0.00000000E+00  0.00000000E+00  0.00000000E+00
  0.00000000E+00  0.00000000E+00  0.00000000E+00
  0.00000000E+00  0.00000000E+00  0.00000000E+00
  0.00000000E+00  0.00000000E+00  0.00000000E+00
  0.00000000E+00  0.00000000E+00  0.00000000E+00
  0.00000000E+00  0.00000000E+00  0.00000000E+00
  0.00000000E+00  0.00000000E+00  0.00000000E+00
  0.00000000E+00  0.00000000E+00  0.00000000E+00
  0.00000000E+00  0.00000000E+00  0.00000000E+00
  0.00000000E+00  0.00000000E+00  0.00000000E+00
  0.00000000E+00  0.00000000E+00  0.00000000E+00
  0.00000000E+00  0.00000000E+00  0.00000000E+00
  0.00000000E+00  0.00000000E+00  0.00000000E+00
  0.00000000E+00  0.00000000E+00  0.00000000E+00
  0.00000000E+00  0.00000000E+00  0.00000000E+00
  0.00000000E+00  0.00000000E+00  0.00000000E+00
  0.00000000E+00  0.00000000E+00  0.00000000E+00
  0.00000000E+00  0.00000000E+00  0.00000000E+00
  0.00000000E+00  0.00000000E+00  0.00000000E+00
  0.00000000E+00  0.00000000E+00  0.00000000E+00
  0.00000000E+00  0.00000000E+00  0.00000000E+00
  0.00000000E+00  0.00000000E+00  0.00000000E+00
  0.00000000E+00  0.00000000E+00  0.00000000E+00
  0.00000000E+00  0.00000000E+00  0.00000000E+00
