Ta  N Ru                                
   1.00000000000000     
     9.0548154099999998    0.0000000000000000    0.0000000000000000
     0.0000000000000000   11.6775998899999998    0.0000000000000000
     0.0000000000000000    0.0000000000000000   26.4818170799999990
   Ta   N    Ru
    60    60    32
Selective dynamics
Direct
  0.0000000000000000  0.0000000000000000  0.2258397498815228   F   F   F
  0.6670845899906297  0.1250000003211298  0.2339882671631202   F   F   F
  0.3329153514769843  0.1250000003211298  0.2339882671631202   F   F   F
  0.4999999994478088  0.2499999997859135  0.3208898207564346   F   F   F
  0.1650707596845180  0.1250000003211298  0.3267034403329916   F   F   F
  0.8349292403154820  0.1250000003211298  0.3267034403329916   F   F   F
  0.0016126642933758  0.2504063526919951  0.4254672989191498   T   T   T
  0.6653806228778102  0.1253853982215428  0.4239527183238384   T   T   T
  0.3357776003459997  0.1253909171692401  0.4239143548745911   T   T   T
  0.4987363686407777  0.2508228454642501  0.5232411608523285   T   T   T
  0.1685905914407692  0.1258665158100025  0.5235131912765617   T   T   T
  0.8348726716637305  0.1260042850143220  0.5226667211583786   T   T   T
  0.0053606495140097  0.2516763785072583  0.6221200976662196   T   T   T
  0.6662933381615898  0.1266664590035193  0.6207392886589933   T   T   T
  0.3303627503873500  0.1262763115669073  0.6248552352354735   T   T   T
  0.0000000000000000  0.2499999997859135  0.2258397498815228   F   F   F
  0.6670845899906297  0.3750000001070433  0.2339882671631202   F   F   F
  0.3329153514769843  0.3750000001070433  0.2339882671631202   F   F   F
  0.4999999994478088  0.5000000004281731  0.3208898207564346   F   F   F
  0.1650707596845180  0.3750000001070433  0.3267034403329916   F   F   F
  0.8349292403154820  0.3750000001070433  0.3267034403329916   F   F   F
  0.0015792958053079  0.5005116992103785  0.4254780019464611   T   T   T
  0.6654814477555118  0.3753768286273254  0.4239537986918128   T   T   T
  0.3358253102550589  0.3753675602850976  0.4239090986066133   T   T   T
  0.4986670538827980  0.5009710633712063  0.5232945828834663   T   T   T
  0.1683634866558394  0.3758625360714474  0.5234320807407123   T   T   T
  0.8348885921036086  0.3760591905009587  0.5226054568942738   T   T   T
  0.0028261201542093  0.5012301788345284  0.6228556189013745   T   T   T
  0.6671641017653652  0.3769322932908206  0.6201534411409103   T   T   T
  0.3315244543300702  0.3759306489159736  0.6234839712717006   T   T   T
  0.0000000000000000  0.5000000004281731  0.2258397498815228   F   F   F
  0.6670845899906297  0.6249999998929567  0.2339882671631202   F   F   F
  0.3329153514769843  0.6249999998929567  0.2339882671631202   F   F   F
  0.4999999994478088  0.7500000002140865  0.3208898207564346   F   F   F
  0.1650707596845180  0.6249999998929567  0.3267034403329916   F   F   F
  0.8349292403154820  0.6249999998929567  0.3267034403329916   F   F   F
  0.0016063284372715  0.7504124003824176  0.4254687672460393   T   T   T
  0.6653895002403674  0.6253901436782281  0.4239545102973940   T   T   T
  0.3357795219208475  0.6253905875175624  0.4239037752291803   T   T   T
  0.4987370243874717  0.7508301795358702  0.5232462218332999   T   T   T
  0.1685561210459428  0.6258905222051865  0.5235071885388681   T   T   T
  0.8348928361462612  0.6260116441278090  0.5226648886445502   T   T   T
  0.0053478596967849  0.7517017689614149  0.6221242213573442   T   T   T
  0.6662311056841149  0.6267098184432315  0.6207417577305696   T   T   T
  0.3302671345563934  0.6262639728780457  0.6248314798519923   T   T   T
  0.0000000000000000  0.7500000002140865  0.2258397498815228   F   F   F
  0.6670845899906297  0.8750000005352163  0.2339882671631202   F   F   F
  0.3329153514769843  0.8750000005352163  0.2339882671631202   F   F   F
  0.4999999994478088  0.0000000000000000  0.3208898207564346   F   F   F
  0.1650707596845180  0.8750000005352163  0.3267034403329916   F   F   F
  0.8349292403154820  0.8750000005352163  0.3267034403329916   F   F   F
  0.0015848765105078  0.0005061089183603  0.4254784489177336   T   T   T
  0.6654751729659090  0.8753834743391024  0.4239538770249136   T   T   T
  0.3358235410130496  0.8753733954085979  0.4239071457228982   T   T   T
  0.4986643332370295  0.0009743958765975  0.5233069818687714   T   T   T
  0.1683786247503170  0.8758662547794591  0.5234351946869897   T   T   T
  0.8348807700082225  0.8760435436011057  0.5226116759509170   T   T   T
  0.0030532014654956  0.0012212066754012  0.6228264488134593   T   T   T
  0.6671985036628312  0.8769488184468249  0.6201854643983387   T   T   T
  0.3315886582965263  0.8759361295959388  0.6235285464107460   T   T   T
  0.8141011533980276  0.0000000000000000  0.2671765160246267   F   F   F
  0.4999999994478088  0.0000000000000000  0.2273691263583544   F   F   F
  0.1858988466019724  0.0000000000000000  0.2671765160246267   F   F   F
  0.3088456122590841  0.2499999997859135  0.3635413069267344   F   F   F
  0.0000000000000000  0.2499999997859135  0.3485649890092901   F   F   F
  0.6911543877409159  0.2499999997859135  0.3635413069267344   F   F   F
  0.8032758220080648  0.2506332036894702  0.4625991510764601   T   T   T
  0.5004755512213854  0.2504692794576018  0.4456865744080029   T   T   T
  0.1996493471398296  0.2506233621320906  0.4632605096000579   T   T   T
  0.3033747241419605  0.2506173085953609  0.5630667963127219   T   T   T
  0.0016669083875951  0.2510354822349283  0.5436905710393182   T   T   T
  0.6966519952349444  0.2509062988217334  0.5602466680870439   T   T   T
  0.8063152530296078  0.2524182243862257  0.6550937543347282   T   T   T
  0.5039365663631586  0.2517389050251597  0.6431132774404020   T   T   T
  0.1989748326602602  0.2522172820683273  0.6603340596721289   T   T   T
  0.8141011533980276  0.2499999997859135  0.2671765160246267   F   F   F
  0.4999999994478088  0.2499999997859135  0.2273691263583544   F   F   F
  0.1858988466019724  0.2499999997859135  0.2671765160246267   F   F   F
  0.3088456122590841  0.5000000004281731  0.3635413069267344   F   F   F
  0.0000000000000000  0.5000000004281731  0.3485649890092901   F   F   F
  0.6911543877409159  0.5000000004281731  0.3635413069267344   F   F   F
  0.8033482471866302  0.5007084528542611  0.4626010854977389   T   T   T
  0.5004555177932953  0.5004601758619573  0.4457041307330624   T   T   T
  0.1995192934169864  0.5005858947697950  0.4632492737096333   T   T   T
  0.3029693883260127  0.5011769334493530  0.5627708982447340   T   T   T
  0.0013860294000554  0.5010847375859893  0.5440716496616970   T   T   T
  0.6968501637759914  0.5016476182776569  0.5603011539985623   T   T   T
  0.8033598062855714  0.5022884738671390  0.6570423483614559   T   T   T
  0.5024750041987183  0.5012190794183992  0.6406325951966477   T   T   T
  0.2000039343649980  0.4997802808825594  0.6601268889489273   T   T   T
  0.8141011533980276  0.5000000004281731  0.2671765160246267   F   F   F
  0.4999999994478088  0.5000000004281731  0.2273691263583544   F   F   F
  0.1858988466019724  0.5000000004281731  0.2671765160246267   F   F   F
  0.3088456122590841  0.7500000002140865  0.3635413069267344   F   F   F
  0.0000000000000000  0.7500000002140865  0.3485649890092901   F   F   F
  0.6911543877409159  0.7500000002140865  0.3635413069267344   F   F   F
  0.8032752924743046  0.7506464651759784  0.4626020036870537   T   T   T
  0.5004787978939146  0.7504705769625771  0.4456777121478944   T   T   T
  0.1996357195343268  0.7506419779611717  0.4632579525074589   T   T   T
  0.3033913147393030  0.7506545269855357  0.5630674893287265   T   T   T
  0.0016697796577601  0.7510453196078795  0.5436995688419709   T   T   T
  0.6966684064302018  0.7509456358966085  0.5602547366071891   T   T   T
  0.8062822974161075  0.7524830795809575  0.6551012385071567   T   T   T
  0.5039277715680441  0.7517545392385714  0.6431289567772330   T   T   T
  0.1989966244727232  0.7522078979790363  0.6603403669271342   T   T   T
  0.8141011533980276  0.7500000002140865  0.2671765160246267   F   F   F
  0.4999999994478088  0.7500000002140865  0.2273691263583544   F   F   F
  0.1858988466019724  0.7500000002140865  0.2671765160246267   F   F   F
  0.3088456122590841  0.0000000000000000  0.3635413069267344   F   F   F
  0.0000000000000000  0.0000000000000000  0.3485649890092901   F   F   F
  0.6911543877409159  0.0000000000000000  0.3635413069267344   F   F   F
  0.8033546055009838  0.0007108303134999  0.4626029315164460   T   T   T
  0.5004546219493988  0.0004647738765515  0.4457104065318204   T   T   T
  0.1995219077788744  0.0005912517894823  0.4632592417940812   T   T   T
  0.3029897204956225  0.0011923371449148  0.5628030922946445   T   T   T
  0.0014134838512679  0.0010877407647129  0.5440558555823307   T   T   T
  0.6968598488011601  0.0016407371222706  0.5603135463799457   T   T   T
  0.8036457129664125  0.0022534252990878  0.6569798979361606   T   T   T
  0.5025726060980522  0.0012021415825824  0.6407486761492311   T   T   T
  0.2001553231951836  0.9997646917057200  0.6601959579212356   T   T   T
  0.0927805753286312  0.0118353448954267  0.7313101515147605   T   T   T
  0.5682689906199487  0.9923986598441632  0.7151510183922688   T   T   T
  0.8464964020871945  0.1334333300568588  0.7129639822517294   T   T   T
  0.0927859902461195  0.5117824158432592  0.7312774591371038   T   T   T
  0.5684970494139641  0.4926335000081188  0.7149521487584195   T   T   T
  0.8470202441682506  0.6335738585628232  0.7129464182733939   T   T   T
  0.1044730184780643  0.2459887701056276  0.7323562460664678   T   T   T
  0.5516473212727783  0.2621098493084818  0.7204284205771416   T   T   T
  0.8452586447835014  0.3717305630333933  0.7122110597700528   T   T   T
  0.1046193500256778  0.7457374106524585  0.7323693549026493   T   T   T
  0.5519090214490259  0.7619234334785080  0.7204638015947539   T   T   T
  0.8454290451114849  0.8719236088898374  0.7122160277471011   T   T   T
  0.3263779772797099  0.8923134329681880  0.7374626740609184   T   T   T
  0.3461691384007532  0.6159122184073709  0.7438360965034849   T   T   T
  0.3264977487253276  0.3924683140689476  0.7374484418701243   T   T   T
  0.3460343284748009  0.1159536032422600  0.7438882988173376   T   T   T
  0.1391458663246590  0.8819406836094220  0.8062026158151469   T   T   T
  0.6584171812538909  0.8871008842293812  0.7942090613619299   T   T   T
  0.8906700578755670  0.0206824335086715  0.7964447734802380   T   T   T
  0.1392980151238047  0.3818218341087518  0.8062028087944580   T   T   T
  0.6584747295812998  0.3869953775828534  0.7940745187186805   T   T   T
  0.8907906726427847  0.5206609593984873  0.7963994125786616   T   T   T
  0.1433281303504356  0.1246811833585506  0.8100395998535470   T   T   T
  0.6356415113162163  0.1178749214475893  0.7901589138919617   T   T   T
  0.8887343882282712  0.2431375681628962  0.7949706716496080   T   T   T
  0.1434665694363436  0.6244472787075092  0.8100443929477721   T   T   T
  0.6358887059573541  0.6175956654259718  0.7901194174415093   T   T   T
  0.8888016498166944  0.7431481661396764  0.7949948867229796   T   T   T
  0.4181110564587255  0.7679966184034706  0.8076710159219684   T   T   T
  0.3986172870362230  0.4829533086988128  0.8185482757700568   T   T   T
  0.4178334863456300  0.2681337942039220  0.8077261467011014   T   T   T
  0.3982559051702320  0.9828805176514419  0.8185775094053461   T   T   T
 
  0.00000000E+00  0.00000000E+00  0.00000000E+00
  0.00000000E+00  0.00000000E+00  0.00000000E+00
  0.00000000E+00  0.00000000E+00  0.00000000E+00
  0.00000000E+00  0.00000000E+00  0.00000000E+00
  0.00000000E+00  0.00000000E+00  0.00000000E+00
  0.00000000E+00  0.00000000E+00  0.00000000E+00
  0.00000000E+00  0.00000000E+00  0.00000000E+00
  0.00000000E+00  0.00000000E+00  0.00000000E+00
  0.00000000E+00  0.00000000E+00  0.00000000E+00
  0.00000000E+00  0.00000000E+00  0.00000000E+00
  0.00000000E+00  0.00000000E+00  0.00000000E+00
  0.00000000E+00  0.00000000E+00  0.00000000E+00
  0.00000000E+00  0.00000000E+00  0.00000000E+00
  0.00000000E+00  0.00000000E+00  0.00000000E+00
  0.00000000E+00  0.00000000E+00  0.00000000E+00
  0.00000000E+00  0.00000000E+00  0.00000000E+00
  0.00000000E+00  0.00000000E+00  0.00000000E+00
  0.00000000E+00  0.00000000E+00  0.00000000E+00
  0.00000000E+00  0.00000000E+00  0.00000000E+00
  0.00000000E+00  0.00000000E+00  0.00000000E+00
  0.00000000E+00  0.00000000E+00  0.00000000E+00
  0.00000000E+00  0.00000000E+00  0.00000000E+00
  0.00000000E+00  0.00000000E+00  0.00000000E+00
  0.00000000E+00  0.00000000E+00  0.00000000E+00
  0.00000000E+00  0.00000000E+00  0.00000000E+00
  0.00000000E+00  0.00000000E+00  0.00000000E+00
  0.00000000E+00  0.00000000E+00  0.00000000E+00
  0.00000000E+00  0.00000000E+00  0.00000000E+00
  0.00000000E+00  0.00000000E+00  0.00000000E+00
  0.00000000E+00  0.00000000E+00  0.00000000E+00
  0.00000000E+00  0.00000000E+00  0.00000000E+00
  0.00000000E+00  0.00000000E+00  0.00000000E+00
  0.00000000E+00  0.00000000E+00  0.00000000E+00
  0.00000000E+00  0.00000000E+00  0.00000000E+00
  0.00000000E+00  0.00000000E+00  0.00000000E+00
  0.00000000E+00  0.00000000E+00  0.00000000E+00
  0.00000000E+00  0.00000000E+00  0.00000000E+00
  0.00000000E+00  0.00000000E+00  0.00000000E+00
  0.00000000E+00  0.00000000E+00  0.00000000E+00
  0.00000000E+00  0.00000000E+00  0.00000000E+00
  0.00000000E+00  0.00000000E+00  0.00000000E+00
  0.00000000E+00  0.00000000E+00  0.00000000E+00
  0.00000000E+00  0.00000000E+00  0.00000000E+00
  0.00000000E+00  0.00000000E+00  0.00000000E+00
  0.00000000E+00  0.00000000E+00  0.00000000E+00
  0.00000000E+00  0.00000000E+00  0.00000000E+00
  0.00000000E+00  0.00000000E+00  0.00000000E+00
  0.00000000E+00  0.00000000E+00  0.00000000E+00
  0.00000000E+00  0.00000000E+00  0.00000000E+00
  0.00000000E+00  0.00000000E+00  0.00000000E+00
  0.00000000E+00  0.00000000E+00  0.00000000E+00
  0.00000000E+00  0.00000000E+00  0.00000000E+00
  0.00000000E+00  0.00000000E+00  0.00000000E+00
  0.00000000E+00  0.00000000E+00  0.00000000E+00
  0.00000000E+00  0.00000000E+00  0.00000000E+00
  0.00000000E+00  0.00000000E+00  0.00000000E+00
  0.00000000E+00  0.00000000E+00  0.00000000E+00
  0.00000000E+00  0.00000000E+00  0.00000000E+00
  0.00000000E+00  0.00000000E+00  0.00000000E+00
  0.00000000E+00  0.00000000E+00  0.00000000E+00
  0.00000000E+00  0.00000000E+00  0.00000000E+00
  0.00000000E+00  0.00000000E+00  0.00000000E+00
  0.00000000E+00  0.00000000E+00  0.00000000E+00
  0.00000000E+00  0.00000000E+00  0.00000000E+00
  0.00000000E+00  0.00000000E+00  0.00000000E+00
  0.00000000E+00  0.00000000E+00  0.00000000E+00
  0.00000000E+00  0.00000000E+00  0.00000000E+00
  0.00000000E+00  0.00000000E+00  0.00000000E+00
  0.00000000E+00  0.00000000E+00  0.00000000E+00
  0.00000000E+00  0.00000000E+00  0.00000000E+00
  0.00000000E+00  0.00000000E+00  0.00000000E+00
  0.00000000E+00  0.00000000E+00  0.00000000E+00
  0.00000000E+00  0.00000000E+00  0.00000000E+00
  0.00000000E+00  0.00000000E+00  0.00000000E+00
  0.00000000E+00  0.00000000E+00  0.00000000E+00
  0.00000000E+00  0.00000000E+00  0.00000000E+00
  0.00000000E+00  0.00000000E+00  0.00000000E+00
  0.00000000E+00  0.00000000E+00  0.00000000E+00
  0.00000000E+00  0.00000000E+00  0.00000000E+00
  0.00000000E+00  0.00000000E+00  0.00000000E+00
  0.00000000E+00  0.00000000E+00  0.00000000E+00
  0.00000000E+00  0.00000000E+00  0.00000000E+00
  0.00000000E+00  0.00000000E+00  0.00000000E+00
  0.00000000E+00  0.00000000E+00  0.00000000E+00
  0.00000000E+00  0.00000000E+00  0.00000000E+00
  0.00000000E+00  0.00000000E+00  0.00000000E+00
  0.00000000E+00  0.00000000E+00  0.00000000E+00
  0.00000000E+00  0.00000000E+00  0.00000000E+00
  0.00000000E+00  0.00000000E+00  0.00000000E+00
  0.00000000E+00  0.00000000E+00  0.00000000E+00
  0.00000000E+00  0.00000000E+00  0.00000000E+00
  0.00000000E+00  0.00000000E+00  0.00000000E+00
  0.00000000E+00  0.00000000E+00  0.00000000E+00
  0.00000000E+00  0.00000000E+00  0.00000000E+00
  0.00000000E+00  0.00000000E+00  0.00000000E+00
  0.00000000E+00  0.00000000E+00  0.00000000E+00
  0.00000000E+00  0.00000000E+00  0.00000000E+00
  0.00000000E+00  0.00000000E+00  0.00000000E+00
  0.00000000E+00  0.00000000E+00  0.00000000E+00
  0.00000000E+00  0.00000000E+00  0.00000000E+00
  0.00000000E+00  0.00000000E+00  0.00000000E+00
  0.00000000E+00  0.00000000E+00  0.00000000E+00
  0.00000000E+00  0.00000000E+00  0.00000000E+00
  0.00000000E+00  0.00000000E+00  0.00000000E+00
  0.00000000E+00  0.00000000E+00  0.00000000E+00
  0.00000000E+00  0.00000000E+00  0.00000000E+00
  0.00000000E+00  0.00000000E+00  0.00000000E+00
  0.00000000E+00  0.00000000E+00  0.00000000E+00
  0.00000000E+00  0.00000000E+00  0.00000000E+00
  0.00000000E+00  0.00000000E+00  0.00000000E+00
  0.00000000E+00  0.00000000E+00  0.00000000E+00
  0.00000000E+00  0.00000000E+00  0.00000000E+00
  0.00000000E+00  0.00000000E+00  0.00000000E+00
  0.00000000E+00  0.00000000E+00  0.00000000E+00
  0.00000000E+00  0.00000000E+00  0.00000000E+00
  0.00000000E+00  0.00000000E+00  0.00000000E+00
  0.00000000E+00  0.00000000E+00  0.00000000E+00
  0.00000000E+00  0.00000000E+00  0.00000000E+00
  0.00000000E+00  0.00000000E+00  0.00000000E+00
  0.00000000E+00  0.00000000E+00  0.00000000E+00
  0.00000000E+00  0.00000000E+00  0.00000000E+00
  0.00000000E+00  0.00000000E+00  0.00000000E+00
  0.00000000E+00  0.00000000E+00  0.00000000E+00
  0.00000000E+00  0.00000000E+00  0.00000000E+00
  0.00000000E+00  0.00000000E+00  0.00000000E+00
  0.00000000E+00  0.00000000E+00  0.00000000E+00
  0.00000000E+00  0.00000000E+00  0.00000000E+00
  0.00000000E+00  0.00000000E+00  0.00000000E+00
  0.00000000E+00  0.00000000E+00  0.00000000E+00
  0.00000000E+00  0.00000000E+00  0.00000000E+00
  0.00000000E+00  0.00000000E+00  0.00000000E+00
  0.00000000E+00  0.00000000E+00  0.00000000E+00
  0.00000000E+00  0.00000000E+00  0.00000000E+00
  0.00000000E+00  0.00000000E+00  0.00000000E+00
  0.00000000E+00  0.00000000E+00  0.00000000E+00
  0.00000000E+00  0.00000000E+00  0.00000000E+00
  0.00000000E+00  0.00000000E+00  0.00000000E+00
  0.00000000E+00  0.00000000E+00  0.00000000E+00
  0.00000000E+00  0.00000000E+00  0.00000000E+00
  0.00000000E+00  0.00000000E+00  0.00000000E+00
  0.00000000E+00  0.00000000E+00  0.00000000E+00
  0.00000000E+00  0.00000000E+00  0.00000000E+00
  0.00000000E+00  0.00000000E+00  0.00000000E+00
  0.00000000E+00  0.00000000E+00  0.00000000E+00
  0.00000000E+00  0.00000000E+00  0.00000000E+00
  0.00000000E+00  0.00000000E+00  0.00000000E+00
  0.00000000E+00  0.00000000E+00  0.00000000E+00
  0.00000000E+00  0.00000000E+00  0.00000000E+00
  0.00000000E+00  0.00000000E+00  0.00000000E+00
  0.00000000E+00  0.00000000E+00  0.00000000E+00
  0.00000000E+00  0.00000000E+00  0.00000000E+00
  0.00000000E+00  0.00000000E+00  0.00000000E+00
