Ru  N  H  C                             
   1.00000000000000     
     8.1450004578000001    0.0000000000000000    0.0000000000000000
     0.0000000000000000   12.8549995421999999    0.0000000000000000
     0.0000000000000000    0.0000000000000000   23.6212997436999999
   Ru   N    H    C 
    73    18    37    10
Selective dynamics
Direct
  0.0000000000000000  0.0833299949999997  0.0663599980000029   F   F   F
  0.1666699889999990  0.0833299949999997  0.1659000109999980   F   F   F
  0.0006623081551936  0.0834562413299465  0.2638281032531138   T   T   T
  0.1687357786590334  0.0764322633377928  0.3685086448932878   T   T   T
  0.0000000000000000  0.2500000000000000  0.0000000000000000   F   F   F
  0.1666699889999990  0.2500000000000000  0.0995400030000013   F   F   F
  0.0003045447249080  0.2501833246147939  0.1981481217593404   T   T   T
  0.1661271941533426  0.2505211924675597  0.2993524147189378   T   T   T
  0.3333299960000033  0.0833299949999997  0.0663599980000029   F   F   F
  0.5000000000000000  0.0833299949999997  0.1659000109999980   F   F   F
  0.3336921840488222  0.0833913804675752  0.2640732841937520   T   T   T
  0.5030161433615413  0.0820437721971977  0.3623866034985773   T   T   T
  0.3333299960000033  0.2500000000000000  0.0000000000000000   F   F   F
  0.5000000000000000  0.2500000000000000  0.0995400030000013   F   F   F
  0.3325256420450033  0.2502180493782535  0.1981618287833241   T   T   T
  0.5010703518316708  0.2490109057542082  0.2976681614975722   T   T   T
  0.6666700039999967  0.0833299949999997  0.0663599980000029   F   F   F
  0.8333299960000033  0.0833299949999997  0.1659000109999980   F   F   F
  0.6673606565622984  0.0846136908120639  0.2629033432600869   T   T   T
  0.8334570172595478  0.0849074678277141  0.3629262122149894   T   T   T
  0.6666700039999967  0.2500000000000000  0.0000000000000000   F   F   F
  0.8333299960000033  0.2500000000000000  0.0995400030000013   F   F   F
  0.6665607769017721  0.2504846572257565  0.1977614483559567   T   T   T
  0.8325616805306388  0.2502912931944583  0.2977623495003988   T   T   T
  0.0000000000000000  0.4166700050000003  0.0663599980000029   F   F   F
  0.1666699889999990  0.4166700050000003  0.1659000109999980   F   F   F
  0.0000808916319059  0.4170074306347166  0.2639776258014870   T   T   T
  0.1663306413858668  0.4099788893687252  0.3682241435558205   T   T   T
  0.0000000000000000  0.5833299580000002  0.0000000000000000   F   F   F
  0.1666699889999990  0.5833299580000002  0.0995400030000013   F   F   F
  0.0003017750813695  0.5834238799661156  0.1983022005842104   T   T   T
  0.1665043465381937  0.5839481686882831  0.2995053440979918   T   T   T
  0.3333299960000033  0.4166700050000003  0.0663599980000029   F   F   F
  0.5000000000000000  0.4166700050000003  0.1659000109999980   F   F   F
  0.3327571376600669  0.4167104588856063  0.2638928642054842   T   T   T
  0.5008033463126791  0.4158054418731392  0.3625121778394650   T   T   T
  0.3333299960000033  0.5833299580000002  0.0000000000000000   F   F   F
  0.5000000000000000  0.5833299580000002  0.0995400030000013   F   F   F
  0.3323634649054058  0.5836131207420369  0.1981676231027465   T   T   T
  0.5008613742598529  0.5819281625427026  0.2973219365384936   T   T   T
  0.6666700039999967  0.4166700050000003  0.0663599980000029   F   F   F
  0.8333299960000033  0.4166700050000003  0.1659000109999980   F   F   F
  0.6670226162993990  0.4179107098797448  0.2629005348966406   T   T   T
  0.8306483612693227  0.4182417860726966  0.3631156119570557   T   T   T
  0.6666700039999967  0.5833299580000002  0.0000000000000000   F   F   F
  0.8333299960000033  0.5833299580000002  0.0995400030000013   F   F   F
  0.6665693923598477  0.5836413613148229  0.1977975829082874   T   T   T
  0.8324974571629700  0.5836798436893562  0.2980318418470552   T   T   T
  0.0000000000000000  0.7500000000000000  0.0663599980000029   F   F   F
  0.1666699889999990  0.7500000000000000  0.1659000109999980   F   F   F
  0.0005991518801099  0.7501018330213667  0.2637874488679141   T   T   T
  0.1683275361893301  0.7435185311713851  0.3685724761651316   T   T   T
  0.0000000000000000  0.9166700050000003  0.0000000000000000   F   F   F
  0.1666699889999990  0.9166700050000003  0.0995400030000013   F   F   F
  0.0003182479582662  0.9169188455599097  0.1983088146319380   T   T   T
  0.1668603919632306  0.9171617997674577  0.2994583009994519   T   T   T
  0.3333299960000033  0.7500000000000000  0.0663599980000029   F   F   F
  0.5000000000000000  0.7500000000000000  0.1659000109999980   F   F   F
  0.3334146965914346  0.7501817243655434  0.2640462441659341   T   T   T
  0.5027079483858372  0.7484190956967834  0.3619803126794414   T   T   T
  0.3333299960000033  0.9166700050000003  0.0000000000000000   F   F   F
  0.5000000000000000  0.9166700050000003  0.0995400030000013   F   F   F
  0.3325386220851848  0.9170117304079126  0.1982338896346533   T   T   T
  0.5019647634872582  0.9153661176566780  0.2975780351331920   T   T   T
  0.6666700039999967  0.7500000000000000  0.0663599980000029   F   F   F
  0.8333299960000033  0.7500000000000000  0.1659000109999980   F   F   F
  0.6677748649445773  0.7510891773993750  0.2629019304595293   T   T   T
  0.8330363744703015  0.7515519173712726  0.3631410824994232   T   T   T
  0.6666700039999967  0.9166700050000003  0.0000000000000000   F   F   F
  0.8333299960000033  0.9166700050000003  0.0995400030000013   F   F   F
  0.6666289702902618  0.9170624207717401  0.1977881803731507   T   T   T
  0.8330197332395178  0.9170234525532057  0.2980211851100822   T   T   T
  0.5198134321529357  0.7166556500711787  0.7746708219423877   T   T   T
  0.3398858491703277  0.1103790163463254  0.4326310478688684   T   T   T
  0.6742566408293810  0.0447191205395252  0.4322345539374489   T   T   T
  0.0010216082679928  0.1152423551686312  0.4322948568453423   T   T   T
  0.3361750408888898  0.4450829052277586  0.4323284853257719   T   T   T
  0.3397336833310391  0.7776397523043033  0.4326004977304688   T   T   T
  0.3383887398419210  0.2931624353949507  0.3634426150957110   T   T   T
  0.3392767530160283  0.6268348458804714  0.3631829079374456   T   T   T
  0.3403346209598831  0.9597559669263914  0.3632373138819300   T   T   T
  0.9911926768230994  0.2954912859114111  0.3636932111569242   T   T   T
  0.9930803823049854  0.6286729480966782  0.3639432692444116   T   T   T
  0.9932597346902646  0.9619126682269903  0.3639209386091730   T   T   T
  0.6651613717350550  0.2019778490351663  0.3636172716558027   T   T   T
  0.6626364557417450  0.5357365441172440  0.3636624748053046   T   T   T
  0.6643437227308470  0.8681953899591940  0.3638486857388791   T   T   T
  0.6683521429537895  0.3798171231853923  0.4323242290414021   T   T   T
  0.6757227452044492  0.7099189217074442  0.4327769923404929   T   T   T
  0.9980189654625339  0.4471909851335599  0.4323984629434046   T   T   T
  0.0006679411739024  0.7817220272491585  0.4324378981325264   T   T   T
  0.3570537116058117  0.0494985237244931  0.4601473475990175   T   T   T
  0.3235280673276032  0.1747451164412927  0.4579470951418133   T   T   T
  0.6957176032510021  0.9795895956237614  0.4565504627698941   T   T   T
  0.6698367064371619  0.1050998807443798  0.4606396153703172   T   T   T
  0.9853894827874948  0.0556983138202108  0.4607886058029713   T   T   T
  0.0251979299126432  0.1799276053426473  0.4566109844288334   T   T   T
  0.3518755170363199  0.3846190111124528  0.4602122456202437   T   T   T
  0.3577471452834278  0.7170861408262140  0.4602250415410253   T   T   T
  0.3213725371390850  0.8418682733525161  0.4578537652682845   T   T   T
  0.3441337770690504  0.2454489927441946  0.3977357188128846   T   T   T
  0.3470771658386740  0.5798481528335857  0.3977847943541457   T   T   T
  0.3474424250940852  0.9120668187866328  0.3975566165282642   T   T   T
  0.9813541939923136  0.2477097258554686  0.3978828566736513   T   T   T
  0.9838355717336053  0.5808074144947317  0.3981148086450901   T   T   T
  0.9829753217495839  0.9143227327005754  0.3981233348573388   T   T   T
  0.6598056169301699  0.2519752531039880  0.3968758485217098   T   T   T
  0.6544559547624322  0.9176686405654561  0.3972385974126211   T   T   T
  0.6797688628447758  0.3147117484783785  0.4574276940683208   T   T   T
  0.6642865338755024  0.4409970261435584  0.4602420033435509   T   T   T
  0.7061066066250498  0.6455932163600238  0.4566100247675841   T   T   T
  0.6700052247113034  0.7699496081352839  0.4613836780607922   T   T   T
  0.9819905784884303  0.3872277429569519  0.4605902881265337   T   T   T
  0.0203624969032852  0.5117041231089953  0.4570767738956391   T   T   T
  0.9856867579751123  0.7220650262824646  0.4608948082994475   T   T   T
  0.0238427964858849  0.8465002050272410  0.4568472671069322   T   T   T
  0.3176580705835791  0.5096188752177806  0.4573355989649194   T   T   T
  0.3665937928293347  0.5632230977990048  0.8500903089212779   T   T   T
  0.6981342859210653  0.5614345927598147  0.8419747296513137   T   T   T
  0.7796940834668994  0.5795244466953380  0.7308160156224689   T   T   T
  0.4969876773482685  0.5925572542752700  0.6702054513824799   T   T   T
  0.2411326215489188  0.5825494141473634  0.7439863926700347   T   T   T
  0.3624956261086504  0.8406729831636581  0.8639317318336506   T   T   T
  0.6946107244214267  0.8384964664527805  0.8610503160870432   T   T   T
  0.7904793047976422  0.8621209176827267  0.7515356561000148   T   T   T
  0.5160111509305362  0.8787368022401943  0.6867342227910602   T   T   T
  0.2510590331826878  0.8658610309964407  0.7563448097868465   T   T   T
  0.6513565246858272  0.5857548186118496  0.3968685031600490   T   T   T
  0.3710567901123346  0.5801150963620886  0.7548776968102151   T   T   T
  0.4372221601437985  0.5695935121564182  0.8110895858735570   T   T   T
  0.6128118630759700  0.5686399896424299  0.8068347918783123   T   T   T
  0.6556433682467669  0.5785464478566475  0.7480594775157291   T   T   T
  0.5059927663342187  0.5856178563761678  0.7159434228992336   T   T   T
  0.3791005846774010  0.8608995401907260  0.7692379764315337   T   T   T
  0.4376088590033249  0.8479267245210532  0.8260737922795633   T   T   T
  0.6138802949310652  0.8467375629731735  0.8244857977189818   T   T   T
  0.6644061525108979  0.8589285438639196  0.7665754741465829   T   T   T
  0.5193968339185837  0.8676679491040395  0.7323829709312598   T   T   T
 
  0.00000000E+00  0.00000000E+00  0.00000000E+00
  0.00000000E+00  0.00000000E+00  0.00000000E+00
  0.00000000E+00  0.00000000E+00  0.00000000E+00
  0.00000000E+00  0.00000000E+00  0.00000000E+00
  0.00000000E+00  0.00000000E+00  0.00000000E+00
  0.00000000E+00  0.00000000E+00  0.00000000E+00
  0.00000000E+00  0.00000000E+00  0.00000000E+00
  0.00000000E+00  0.00000000E+00  0.00000000E+00
  0.00000000E+00  0.00000000E+00  0.00000000E+00
  0.00000000E+00  0.00000000E+00  0.00000000E+00
  0.00000000E+00  0.00000000E+00  0.00000000E+00
  0.00000000E+00  0.00000000E+00  0.00000000E+00
  0.00000000E+00  0.00000000E+00  0.00000000E+00
  0.00000000E+00  0.00000000E+00  0.00000000E+00
  0.00000000E+00  0.00000000E+00  0.00000000E+00
  0.00000000E+00  0.00000000E+00  0.00000000E+00
  0.00000000E+00  0.00000000E+00  0.00000000E+00
  0.00000000E+00  0.00000000E+00  0.00000000E+00
  0.00000000E+00  0.00000000E+00  0.00000000E+00
  0.00000000E+00  0.00000000E+00  0.00000000E+00
  0.00000000E+00  0.00000000E+00  0.00000000E+00
  0.00000000E+00  0.00000000E+00  0.00000000E+00
  0.00000000E+00  0.00000000E+00  0.00000000E+00
  0.00000000E+00  0.00000000E+00  0.00000000E+00
  0.00000000E+00  0.00000000E+00  0.00000000E+00
  0.00000000E+00  0.00000000E+00  0.00000000E+00
  0.00000000E+00  0.00000000E+00  0.00000000E+00
  0.00000000E+00  0.00000000E+00  0.00000000E+00
  0.00000000E+00  0.00000000E+00  0.00000000E+00
  0.00000000E+00  0.00000000E+00  0.00000000E+00
  0.00000000E+00  0.00000000E+00  0.00000000E+00
  0.00000000E+00  0.00000000E+00  0.00000000E+00
  0.00000000E+00  0.00000000E+00  0.00000000E+00
  0.00000000E+00  0.00000000E+00  0.00000000E+00
  0.00000000E+00  0.00000000E+00  0.00000000E+00
  0.00000000E+00  0.00000000E+00  0.00000000E+00
  0.00000000E+00  0.00000000E+00  0.00000000E+00
  0.00000000E+00  0.00000000E+00  0.00000000E+00
  0.00000000E+00  0.00000000E+00  0.00000000E+00
  0.00000000E+00  0.00000000E+00  0.00000000E+00
  0.00000000E+00  0.00000000E+00  0.00000000E+00
  0.00000000E+00  0.00000000E+00  0.00000000E+00
  0.00000000E+00  0.00000000E+00  0.00000000E+00
  0.00000000E+00  0.00000000E+00  0.00000000E+00
  0.00000000E+00  0.00000000E+00  0.00000000E+00
  0.00000000E+00  0.00000000E+00  0.00000000E+00
  0.00000000E+00  0.00000000E+00  0.00000000E+00
  0.00000000E+00  0.00000000E+00  0.00000000E+00
  0.00000000E+00  0.00000000E+00  0.00000000E+00
  0.00000000E+00  0.00000000E+00  0.00000000E+00
  0.00000000E+00  0.00000000E+00  0.00000000E+00
  0.00000000E+00  0.00000000E+00  0.00000000E+00
  0.00000000E+00  0.00000000E+00  0.00000000E+00
  0.00000000E+00  0.00000000E+00  0.00000000E+00
  0.00000000E+00  0.00000000E+00  0.00000000E+00
  0.00000000E+00  0.00000000E+00  0.00000000E+00
  0.00000000E+00  0.00000000E+00  0.00000000E+00
  0.00000000E+00  0.00000000E+00  0.00000000E+00
  0.00000000E+00  0.00000000E+00  0.00000000E+00
  0.00000000E+00  0.00000000E+00  0.00000000E+00
  0.00000000E+00  0.00000000E+00  0.00000000E+00
  0.00000000E+00  0.00000000E+00  0.00000000E+00
  0.00000000E+00  0.00000000E+00  0.00000000E+00
  0.00000000E+00  0.00000000E+00  0.00000000E+00
  0.00000000E+00  0.00000000E+00  0.00000000E+00
  0.00000000E+00  0.00000000E+00  0.00000000E+00
  0.00000000E+00  0.00000000E+00  0.00000000E+00
  0.00000000E+00  0.00000000E+00  0.00000000E+00
  0.00000000E+00  0.00000000E+00  0.00000000E+00
  0.00000000E+00  0.00000000E+00  0.00000000E+00
  0.00000000E+00  0.00000000E+00  0.00000000E+00
  0.00000000E+00  0.00000000E+00  0.00000000E+00
  0.00000000E+00  0.00000000E+00  0.00000000E+00
  0.00000000E+00  0.00000000E+00  0.00000000E+00
  0.00000000E+00  0.00000000E+00  0.00000000E+00
  0.00000000E+00  0.00000000E+00  0.00000000E+00
  0.00000000E+00  0.00000000E+00  0.00000000E+00
  0.00000000E+00  0.00000000E+00  0.00000000E+00
  0.00000000E+00  0.00000000E+00  0.00000000E+00
  0.00000000E+00  0.00000000E+00  0.00000000E+00
  0.00000000E+00  0.00000000E+00  0.00000000E+00
  0.00000000E+00  0.00000000E+00  0.00000000E+00
  0.00000000E+00  0.00000000E+00  0.00000000E+00
  0.00000000E+00  0.00000000E+00  0.00000000E+00
  0.00000000E+00  0.00000000E+00  0.00000000E+00
  0.00000000E+00  0.00000000E+00  0.00000000E+00
  0.00000000E+00  0.00000000E+00  0.00000000E+00
  0.00000000E+00  0.00000000E+00  0.00000000E+00
  0.00000000E+00  0.00000000E+00  0.00000000E+00
  0.00000000E+00  0.00000000E+00  0.00000000E+00
  0.00000000E+00  0.00000000E+00  0.00000000E+00
  0.00000000E+00  0.00000000E+00  0.00000000E+00
  0.00000000E+00  0.00000000E+00  0.00000000E+00
  0.00000000E+00  0.00000000E+00  0.00000000E+00
  0.00000000E+00  0.00000000E+00  0.00000000E+00
  0.00000000E+00  0.00000000E+00  0.00000000E+00
  0.00000000E+00  0.00000000E+00  0.00000000E+00
  0.00000000E+00  0.00000000E+00  0.00000000E+00
  0.00000000E+00  0.00000000E+00  0.00000000E+00
  0.00000000E+00  0.00000000E+00  0.00000000E+00
  0.00000000E+00  0.00000000E+00  0.00000000E+00
  0.00000000E+00  0.00000000E+00  0.00000000E+00
  0.00000000E+00  0.00000000E+00  0.00000000E+00
  0.00000000E+00  0.00000000E+00  0.00000000E+00
  0.00000000E+00  0.00000000E+00  0.00000000E+00
  0.00000000E+00  0.00000000E+00  0.00000000E+00
  0.00000000E+00  0.00000000E+00  0.00000000E+00
  0.00000000E+00  0.00000000E+00  0.00000000E+00
  0.00000000E+00  0.00000000E+00  0.00000000E+00
  0.00000000E+00  0.00000000E+00  0.00000000E+00
  0.00000000E+00  0.00000000E+00  0.00000000E+00
  0.00000000E+00  0.00000000E+00  0.00000000E+00
  0.00000000E+00  0.00000000E+00  0.00000000E+00
  0.00000000E+00  0.00000000E+00  0.00000000E+00
  0.00000000E+00  0.00000000E+00  0.00000000E+00
  0.00000000E+00  0.00000000E+00  0.00000000E+00
  0.00000000E+00  0.00000000E+00  0.00000000E+00
  0.00000000E+00  0.00000000E+00  0.00000000E+00
  0.00000000E+00  0.00000000E+00  0.00000000E+00
  0.00000000E+00  0.00000000E+00  0.00000000E+00
  0.00000000E+00  0.00000000E+00  0.00000000E+00
  0.00000000E+00  0.00000000E+00  0.00000000E+00
  0.00000000E+00  0.00000000E+00  0.00000000E+00
  0.00000000E+00  0.00000000E+00  0.00000000E+00
  0.00000000E+00  0.00000000E+00  0.00000000E+00
  0.00000000E+00  0.00000000E+00  0.00000000E+00
  0.00000000E+00  0.00000000E+00  0.00000000E+00
  0.00000000E+00  0.00000000E+00  0.00000000E+00
  0.00000000E+00  0.00000000E+00  0.00000000E+00
  0.00000000E+00  0.00000000E+00  0.00000000E+00
  0.00000000E+00  0.00000000E+00  0.00000000E+00
  0.00000000E+00  0.00000000E+00  0.00000000E+00
  0.00000000E+00  0.00000000E+00  0.00000000E+00
  0.00000000E+00  0.00000000E+00  0.00000000E+00
  0.00000000E+00  0.00000000E+00  0.00000000E+00
  0.00000000E+00  0.00000000E+00  0.00000000E+00
  0.00000000E+00  0.00000000E+00  0.00000000E+00
  0.00000000E+00  0.00000000E+00  0.00000000E+00
