Ta N Cu Ru                              
   1.00000000000000     
    18.1096308199999996    0.0000000000000000    0.0000000000000000
     0.0000000000000000   11.6775998899999998    0.0000000000000000
     0.0000000000000000    0.0000000000000000   23.4818170799999990
   Ta   N    Cu   Ru
   119   120     1     1
Direct
  0.9999977733174688  0.0000010295145941  0.2548927834726293
  0.3335156982372440  0.1249513038773842  0.2638014309200430
  0.1664683602487070  0.1250323015529856  0.2638508029329938
  0.2497966541268466  0.2499894897369813  0.3613502478479044
  0.0824552096091689  0.1250107999008108  0.3684979967420788
  0.4175029592956114  0.1249357507258376  0.3684404528570737
  0.9999979269216146  0.2499799845535386  0.4800277000868188
  0.3323504174069854  0.1249059313260687  0.4781050079285337
  0.1676950572837693  0.1249915566012856  0.4782329345895823
  0.2505020198978639  0.2505524553465881  0.5912609468199073
  0.0838313424184917  0.1250304129947425  0.5900081299453719
  0.4164691611357828  0.1250687064248043  0.5899479445150393
  0.0000002564513006  0.2498811062220389  0.7024836274968425
  0.3363087919097760  0.1255170023698140  0.7046193966635694
  0.1656262577990876  0.1250314123660500  0.7041348806322940
  0.9999984561443277  0.2499192567720859  0.2549106111200843
  0.3334512782739246  0.3748891095207212  0.2637757852381432
  0.1666133373327177  0.3750925375001424  0.2638084481020351
  0.2496518486175176  0.4999982270752243  0.3612719542939845
  0.0823519477633717  0.3750192849392444  0.3683750638811966
  0.4174654495518952  0.3749494459105817  0.3683508291270713
 -0.0000006908722996  0.5000005275173178  0.4801334239326585
  0.3319617917543244  0.3748331679487092  0.4777835775633181
  0.1679086852395109  0.3749916160102735  0.4780509798777826
  0.2504012214645220  0.5000087396324114  0.5911802991219376
  0.0837454714753443  0.3750364266229474  0.5900314458610768
  0.4158478877518438  0.3754494783956030  0.5884490563740266
  0.0000008424942491  0.5000192445671336  0.7027378864401794
  0.3363228766177082  0.3758197679304126  0.7043019053695668
  0.1657558009240224  0.3748938441847157  0.7042296330071957
  0.9999992395936768  0.4999986521916263  0.2549023956804139
  0.3334539288137223  0.6251043174315910  0.2637736851215629
  0.1666108073854444  0.6249034066349539  0.2638064144925569
  0.2497999423197206  0.7500077347730693  0.3613531953912602
  0.0823527256662921  0.6249776694623609  0.3683747284742667
  0.4174652250949433  0.6250449222330742  0.3683494468364174
  0.9999985904481221  0.7500188870658416  0.4800253273145961
  0.3319676975816835  0.6251696172972764  0.4777772468858303
  0.1679072012354926  0.6250087838832438  0.4780449082007220
  0.2505091540327481  0.7494902698253414  0.5912492639208030
  0.0837431639780382  0.6249710454611007  0.5900313901301542
  0.4158407368913836  0.6245775337377482  0.5884469723372433
  0.0000024854258282  0.7501402089708622  0.7024834695152656
  0.3362649598049664  0.6244220982075611  0.7042126678525014
  0.1657510031063319  0.6251192456809290  0.7042353897632502
  0.9999983502435167  0.7500705390495890  0.2549101339572595
  0.3335159490253776  0.8750436402131346  0.2638003078007232
  0.1664719542823500  0.8749644007490712  0.2638525764179945
  0.2499755081665034  0.9999985361253301  0.3614255320432223
  0.0824548824967911  0.8749873378793165  0.3684961173597633
  0.4175005386543951  0.8750570821352900  0.3684387641323746
  0.9999989646689496 -0.0000000115915286  0.4799712148247747
  0.3323443352298738  0.8750991804372007  0.4781043459053892
  0.1676952225587162  0.8750111317313906  0.4782324729488972
  0.2504839280507163  0.0000217419239991  0.5912375207225653
  0.0838347138062857  0.8749823520490693  0.5900022301034692
  0.4164730599300002  0.8749978226343649  0.5899380843127884
  0.0000019751086554  0.0000164084517235  0.7023512544976687
  0.3362941521109309  0.8746912039903565  0.7046121869098078
  0.1656269556032197  0.8750222437735723  0.7041331577958638
  0.5000025783699652  0.9999974552012839  0.2548832651586883
  0.8335244558038384  0.1250209927822268  0.2638400077922659
  0.6664880213063098  0.1249438063079279  0.2637933154156393
  0.7501954738144356  0.2499892652927164  0.3613572568000715
  0.5825009592383701  0.1249333213758857  0.3684430377416789
  0.9175417646322459  0.1250066778176172  0.3685021415510291
  0.5000009949728681  0.2498293976653304  0.4796806714353674
  0.8323076743026481  0.1249960566045849  0.4782288702030901
  0.6676501712510773  0.1249026078380787  0.4781030079244000
  0.7494987203225738  0.2505547650898720  0.5912545230119848
  0.5835359960486174  0.1250664339463651  0.5899489328238811
  0.9161668400914849  0.1250331926292934  0.5900052212810915
  0.5000044633539361  0.2585262018813022  0.7019740683214168
  0.8343702785812253  0.1250287938251359  0.7041320324129710
  0.6636968863802020  0.1255152634263869  0.7046158060897325
  0.5000044247922261  0.2499580168235354  0.2548274146480227
  0.8333866237772005  0.3750885014873365  0.2637971234222964
  0.6665529529921060  0.3748911329763034  0.2637659425777684
  0.7503474208699493  0.4999965402286610  0.3612670422043379
  0.5825376221319679  0.3749545241469435  0.3683553618563513
  0.9176418131921605  0.3750200426211808  0.3683796429545746
  0.5000019073983419  0.4999920967871611  0.4793305263733827
  0.8320927378914261  0.3749956304424499  0.4780453169551132
  0.6680369255815520  0.3748367632775515  0.4777812612359904
  0.7495986937706764  0.5000117746892373  0.5911829179718424
  0.5841616872286565  0.3754665906329179  0.5884498255485391
  0.9162540531061784  0.3750363679679887  0.5900298438284562
  0.8342461655431339  0.3748886101819731  0.7042259314189304
  0.6636817051004826  0.3758210831069883  0.7042989588726577
  0.5000035632807639  0.4999963714659720  0.2548136601098410
  0.8333884786037430  0.6249053327968771  0.2637955522214346
  0.6665540599324713  0.6250984343396286  0.2637643704894496
  0.7501946779190682  0.7500057158478941  0.3613544355262360
  0.5825423953128120  0.6250434762969809  0.3683527464732533
  0.9176414672168874  0.6249755728388234  0.3683781726067015
  0.5000026405980664  0.7501851566765813  0.4796754859496137
  0.8320920964788335  0.6250071343410175  0.4780408712009566
  0.6680314302604882  0.6251738646807421  0.4777742784520227
  0.7494995092534218  0.7494901930214348  0.5912500867864966
  0.5841642932147239  0.6245744271342243  0.5884458552963743
  0.9162544779852412  0.6249724097220155  0.5900308028768194
  0.5000049739582342  0.7418528539110112  0.7019404132074962
  0.8342522953166769  0.6251271427385365  0.7042304435962956
  0.6637411590476631  0.6244195118647438  0.7042102130229925
  0.5000046476438892  0.7500358456016400  0.2548273041047660
  0.8335204166584511  0.8749742925922523  0.2638416211897664
  0.6664882460347822  0.8750499904177178  0.2637910586116727
  0.7500242886090427  0.0000006201831113  0.3614239290135335
  0.5825012706638911  0.8750628295590706  0.3684417585842821
  0.9175419421873570  0.8749905766179377  0.3685042573230428
  0.5000010235400741  0.0000045189188398  0.4799827768994786
  0.8323047028517583  0.8750118168714881  0.4782294198214769
  0.6676514669681264  0.8750993280361693  0.4781039768281761
  0.7495171939086949  0.0000210836137211  0.5912367973890744
  0.5835322540370708  0.8749979731006247  0.5899376438149249
  0.9161663377495936  0.8749745792343739  0.5899994003699237
  0.5000022895479607  0.0000266418113196  0.7023193327311540
  0.8343738718341526  0.8750179893340821  0.7041300975785003
  0.6637105636930622  0.8746914089507016  0.7046105262434723
  0.4068294908976983  0.9999993212796545  0.3012679144410444
  0.2499475086537664  0.9999990983959490  0.2577895811095489
  0.0931658665042635 -0.0000009631861243  0.3012694219671437
  0.1543208776450170  0.2499900045573471  0.4100620258337793
  0.9999952148881441  0.2499951857840017  0.3932679680435867
  0.3454558509738536  0.2498723856007301  0.4098351213811568
  0.4008231588011553  0.2497359525021370  0.5218517315326040
  0.2499141175163544  0.2497597732694559  0.5030288927576854
  0.0989406572575740  0.2502030050708037  0.5222075823032267
  0.1522523091248451  0.2499707968706048  0.6332867373513059
  0.9999969353896836  0.2500577483701757  0.6138632214031406
  0.3491287991175319  0.2506151675061856  0.6336398844177805
  0.4044267102762550  0.2527157472987048  0.7411744758492316
  0.2510172682172651  0.2507191793396558  0.7242163316531133
  0.0972163808082438  0.2503729864570190  0.7400887399817139
  0.4068267707788208  0.2498778674806570  0.3011898060861006
  0.2500061372734858  0.2499201974017128  0.2576331458143618
  0.0931677018163359  0.2500643062676058  0.3012352372627574
  0.1542324987291360  0.4999973657272240  0.4100415193820736
  0.9999948427265259  0.4999988748431662  0.3933039463664810
  0.3453531775832334  0.4999966479327928  0.4096333510401462
  0.4001848708387433  0.5000029219674834  0.5209640734451854
  0.2498381371233933  0.5000073352822315  0.5028178628875797
  0.0989575381265748  0.5000031162462413  0.5221962359962879
  0.1523592411678883  0.5000091715865207  0.6335339708110412
  0.9999980650515649  0.5000036777049490  0.6140003482411661
  0.3489711525965642  0.5000264073370987  0.6337292018948669
  0.4066199332246582  0.5002507031376029  0.7422092565451301
  0.2516681451296465  0.5000628569619728  0.7251634061239973
  0.0971089471746768  0.5000145790031230  0.7403020315779290
  0.4067740961688230  0.4999958573492167  0.3011072518545682
  0.2501392749943842  0.4999990512162074  0.2575442998447752
  0.0931267525785593  0.4999972230453872  0.3012090948611374
  0.1543210458001805  0.7500091102211494  0.4100594328417935
  0.9999954985112369  0.7500019152681043  0.3932659688922003
  0.3454578036559079  0.7501286404221847  0.4098331519839945
  0.4008281521739575  0.7502912177037037  0.5218415958648164
  0.2499156538413936  0.7502368377278525  0.5030230291525321
  0.0989425863824541  0.7497981364938379  0.5222049193186362
  0.1522485926269376  0.7500523063618072  0.6332830750890642
  0.9999967684097065  0.7499612510840525  0.6138632335494397
  0.3491322724239551  0.7495045354383526  0.6336167617919589
  0.4044364637424034  0.7474257576021471  0.7411512322205386
  0.2510000419675256  0.7494161862351345  0.7242055099217657
  0.0972156112333801  0.7496617415331425  0.7400883390698801
  0.4068264432456145  0.7501182683531854  0.3011890817683534
  0.2500081067804358  0.7500738710218012  0.2576325934263436
  0.0931692720213324  0.7499329629494956  0.3012331056207445
  0.1544253712716843  0.0000002749394750  0.4100546095693354
  0.9999952447138859  0.9999993756090552  0.3932544759361725
  0.3455365165428347  0.0000005869839708  0.4099726018665655
  0.4010097877266208  0.0000135830574301  0.5221152070269541
  0.2500381974545506  0.0000058386893278  0.5030055698822994
  0.0989870945810825  0.0000039275622812  0.5222551798027217
  0.1522512589688301  0.0000053399362025  0.6332451932162044
  0.9999976624151955  0.0000022134914621  0.6137168985329632
  0.3486431300020217  0.0000349919184419  0.6335378484374697
  0.4035514799253148  0.0000793578834956  0.7408668625258561
  0.2510772420430063  0.0000489353757119  0.7240250857191233
  0.0972185229836515  0.0000224382242877  0.7400739393817082
  0.9068220276458143 -0.0000014508891671  0.3012735935582310
  0.7500547580057044 -0.0000021362044517  0.2577979176038554
  0.5931872726799378  0.9999988947210232  0.3012700092537515
  0.6545492237428547  0.2498707237819645  0.4098319939204845
  0.5000046774612998  0.2499444291945697  0.3930666162161975
  0.8456711500860205  0.2499901053171224  0.4100583482342478
  0.9010553130698096  0.2502033208262071  0.5222051688058523
  0.7500852461902471  0.2497574713047958  0.5030278649766794
  0.5991784319384235  0.2497344993712675  0.5218490082359484
  0.6508724632900920  0.2506129481586711  0.6336372493882717
  0.5000015078538673  0.2512946283078307  0.6132527752612179
  0.8477478927580461  0.2499717981315846  0.6332837306122124
  0.9027867983768485  0.2503758651684067  0.7400845583618630
  0.7489864378014933  0.2507191254202099  0.7242129827890501
  0.5955799237887518  0.2527156372919072  0.7411724020340988
  0.9068181839966226  0.2500627879999995  0.3012377566130297
  0.7499977287197375  0.2499219102202472  0.2576470841387511
  0.5931912983562878  0.2498791042136354  0.3011932622430207
  0.6546534241433772  0.4999958097584271  0.4096295371903735
  0.5000045659328498  0.4999968241994394  0.3928943609425524
  0.8457592139334956  0.4999979045840807  0.4100374779894396
  0.9010417961176727  0.5000041524833669  0.5221930843891254
  0.7501623853600711  0.5000066444519743  0.5028149373392908
  0.5998175486728554  0.5000006831205760  0.5209621083805260
  0.6510333546394971  0.5000227431462877  0.6337242411326225
  0.5000035009572212  0.4999946256268670  0.6069258702134300
  0.8476407448495565  0.5000102898420110  0.6335316918212629
  0.9028950500480425  0.5000152939314102  0.7402981606715412
  0.7483359344261572  0.5000619844129542  0.7251606672459104
  0.5933873798355827  0.5002490732544335  0.7422082568402943
  0.9068591610703620  0.4999975473696496  0.3012099428219893
  0.7498648425869752  0.4999976813098254  0.2575519586330139
  0.5932437555143125  0.4999931644653604  0.3011110671034707
  0.6545508841980031  0.7501265822453612  0.4098288951610390
  0.5000047541078317  0.7500517486600919  0.3930639829014922
  0.8456707980980698  0.7500093643179409  0.4100558869742861
  0.9010546473533677  0.7497979608233081  0.5222031630487481
  0.7500831942011498  0.7502391504672770  0.5030221992917878
  0.5991747934715521  0.7502898466234561  0.5218405428075088
  0.6508709955953343  0.7495051258909489  0.6336150467172439
  0.5000014544838590  0.7487589378822170  0.6132244596288502
  0.8477506018935981  0.7500506016064070  0.6332811956383620
  0.9027786320016717  0.7496621378858344  0.7400888640914269
  0.7490012182447132  0.7494178253954019  0.7242027193340655
  0.5955694327193735  0.7474250204618009  0.7411513298428617
  0.9068171047358292  0.7499323492438718  0.3012359768034970
  0.7499951773786531  0.7500720303374651  0.2576454252603897
  0.5931927880077733  0.7501161626820700  0.3011913314540470
  0.6544699241905608 -0.0000005039886935  0.4099681309154322
  0.5000046414465453  0.9999989990223010  0.3932139435783584
  0.8455671892570802  0.9999991739690621  0.4100503917059556
  0.9010101302210106  0.0000029385413897  0.5222538881600784
  0.7499597784750583  0.0000040881192911  0.5030048112691967
  0.5989913866344558  0.0000137050745696  0.5221141166305235
  0.6513685131663245  0.0000349101899789  0.6335332199297714
  0.5000010269859329  0.0000355465946107  0.6136546650761188
  0.8477566520405707  0.0000056979906384  0.6332451468280580
  0.9027839452927606  0.0000256383631069  0.7400714866216149
  0.7489269280397299  0.0000507074681149  0.7240223310606109
  0.5964537719315776  0.0000792382567481  0.7408650199744976
  0.4999978269386742  0.5031428055037575  0.7908395473995081
  0.5000103873138787  0.4997501369602929  0.6908910557701184
 
  0.00000000E+00  0.00000000E+00  0.00000000E+00
  0.00000000E+00  0.00000000E+00  0.00000000E+00
  0.00000000E+00  0.00000000E+00  0.00000000E+00
  0.00000000E+00  0.00000000E+00  0.00000000E+00
  0.00000000E+00  0.00000000E+00  0.00000000E+00
  0.00000000E+00  0.00000000E+00  0.00000000E+00
  0.00000000E+00  0.00000000E+00  0.00000000E+00
  0.00000000E+00  0.00000000E+00  0.00000000E+00
  0.00000000E+00  0.00000000E+00  0.00000000E+00
  0.00000000E+00  0.00000000E+00  0.00000000E+00
  0.00000000E+00  0.00000000E+00  0.00000000E+00
  0.00000000E+00  0.00000000E+00  0.00000000E+00
  0.00000000E+00  0.00000000E+00  0.00000000E+00
  0.00000000E+00  0.00000000E+00  0.00000000E+00
  0.00000000E+00  0.00000000E+00  0.00000000E+00
  0.00000000E+00  0.00000000E+00  0.00000000E+00
  0.00000000E+00  0.00000000E+00  0.00000000E+00
  0.00000000E+00  0.00000000E+00  0.00000000E+00
  0.00000000E+00  0.00000000E+00  0.00000000E+00
  0.00000000E+00  0.00000000E+00  0.00000000E+00
  0.00000000E+00  0.00000000E+00  0.00000000E+00
  0.00000000E+00  0.00000000E+00  0.00000000E+00
  0.00000000E+00  0.00000000E+00  0.00000000E+00
  0.00000000E+00  0.00000000E+00  0.00000000E+00
  0.00000000E+00  0.00000000E+00  0.00000000E+00
  0.00000000E+00  0.00000000E+00  0.00000000E+00
  0.00000000E+00  0.00000000E+00  0.00000000E+00
  0.00000000E+00  0.00000000E+00  0.00000000E+00
  0.00000000E+00  0.00000000E+00  0.00000000E+00
  0.00000000E+00  0.00000000E+00  0.00000000E+00
  0.00000000E+00  0.00000000E+00  0.00000000E+00
  0.00000000E+00  0.00000000E+00  0.00000000E+00
  0.00000000E+00  0.00000000E+00  0.00000000E+00
  0.00000000E+00  0.00000000E+00  0.00000000E+00
  0.00000000E+00  0.00000000E+00  0.00000000E+00
  0.00000000E+00  0.00000000E+00  0.00000000E+00
  0.00000000E+00  0.00000000E+00  0.00000000E+00
  0.00000000E+00  0.00000000E+00  0.00000000E+00
  0.00000000E+00  0.00000000E+00  0.00000000E+00
  0.00000000E+00  0.00000000E+00  0.00000000E+00
  0.00000000E+00  0.00000000E+00  0.00000000E+00
  0.00000000E+00  0.00000000E+00  0.00000000E+00
  0.00000000E+00  0.00000000E+00  0.00000000E+00
  0.00000000E+00  0.00000000E+00  0.00000000E+00
  0.00000000E+00  0.00000000E+00  0.00000000E+00
  0.00000000E+00  0.00000000E+00  0.00000000E+00
  0.00000000E+00  0.00000000E+00  0.00000000E+00
  0.00000000E+00  0.00000000E+00  0.00000000E+00
  0.00000000E+00  0.00000000E+00  0.00000000E+00
  0.00000000E+00  0.00000000E+00  0.00000000E+00
  0.00000000E+00  0.00000000E+00  0.00000000E+00
  0.00000000E+00  0.00000000E+00  0.00000000E+00
  0.00000000E+00  0.00000000E+00  0.00000000E+00
  0.00000000E+00  0.00000000E+00  0.00000000E+00
  0.00000000E+00  0.00000000E+00  0.00000000E+00
  0.00000000E+00  0.00000000E+00  0.00000000E+00
  0.00000000E+00  0.00000000E+00  0.00000000E+00
  0.00000000E+00  0.00000000E+00  0.00000000E+00
  0.00000000E+00  0.00000000E+00  0.00000000E+00
  0.00000000E+00  0.00000000E+00  0.00000000E+00
  0.00000000E+00  0.00000000E+00  0.00000000E+00
  0.00000000E+00  0.00000000E+00  0.00000000E+00
  0.00000000E+00  0.00000000E+00  0.00000000E+00
  0.00000000E+00  0.00000000E+00  0.00000000E+00
  0.00000000E+00  0.00000000E+00  0.00000000E+00
  0.00000000E+00  0.00000000E+00  0.00000000E+00
  0.00000000E+00  0.00000000E+00  0.00000000E+00
  0.00000000E+00  0.00000000E+00  0.00000000E+00
  0.00000000E+00  0.00000000E+00  0.00000000E+00
  0.00000000E+00  0.00000000E+00  0.00000000E+00
  0.00000000E+00  0.00000000E+00  0.00000000E+00
  0.00000000E+00  0.00000000E+00  0.00000000E+00
  0.00000000E+00  0.00000000E+00  0.00000000E+00
  0.00000000E+00  0.00000000E+00  0.00000000E+00
  0.00000000E+00  0.00000000E+00  0.00000000E+00
  0.00000000E+00  0.00000000E+00  0.00000000E+00
  0.00000000E+00  0.00000000E+00  0.00000000E+00
  0.00000000E+00  0.00000000E+00  0.00000000E+00
  0.00000000E+00  0.00000000E+00  0.00000000E+00
  0.00000000E+00  0.00000000E+00  0.00000000E+00
  0.00000000E+00  0.00000000E+00  0.00000000E+00
  0.00000000E+00  0.00000000E+00  0.00000000E+00
  0.00000000E+00  0.00000000E+00  0.00000000E+00
  0.00000000E+00  0.00000000E+00  0.00000000E+00
  0.00000000E+00  0.00000000E+00  0.00000000E+00
  0.00000000E+00  0.00000000E+00  0.00000000E+00
  0.00000000E+00  0.00000000E+00  0.00000000E+00
  0.00000000E+00  0.00000000E+00  0.00000000E+00
  0.00000000E+00  0.00000000E+00  0.00000000E+00
  0.00000000E+00  0.00000000E+00  0.00000000E+00
  0.00000000E+00  0.00000000E+00  0.00000000E+00
  0.00000000E+00  0.00000000E+00  0.00000000E+00
  0.00000000E+00  0.00000000E+00  0.00000000E+00
  0.00000000E+00  0.00000000E+00  0.00000000E+00
  0.00000000E+00  0.00000000E+00  0.00000000E+00
  0.00000000E+00  0.00000000E+00  0.00000000E+00
  0.00000000E+00  0.00000000E+00  0.00000000E+00
  0.00000000E+00  0.00000000E+00  0.00000000E+00
  0.00000000E+00  0.00000000E+00  0.00000000E+00
  0.00000000E+00  0.00000000E+00  0.00000000E+00
  0.00000000E+00  0.00000000E+00  0.00000000E+00
  0.00000000E+00  0.00000000E+00  0.00000000E+00
  0.00000000E+00  0.00000000E+00  0.00000000E+00
  0.00000000E+00  0.00000000E+00  0.00000000E+00
  0.00000000E+00  0.00000000E+00  0.00000000E+00
  0.00000000E+00  0.00000000E+00  0.00000000E+00
  0.00000000E+00  0.00000000E+00  0.00000000E+00
  0.00000000E+00  0.00000000E+00  0.00000000E+00
  0.00000000E+00  0.00000000E+00  0.00000000E+00
  0.00000000E+00  0.00000000E+00  0.00000000E+00
  0.00000000E+00  0.00000000E+00  0.00000000E+00
  0.00000000E+00  0.00000000E+00  0.00000000E+00
  0.00000000E+00  0.00000000E+00  0.00000000E+00
  0.00000000E+00  0.00000000E+00  0.00000000E+00
  0.00000000E+00  0.00000000E+00  0.00000000E+00
  0.00000000E+00  0.00000000E+00  0.00000000E+00
  0.00000000E+00  0.00000000E+00  0.00000000E+00
  0.00000000E+00  0.00000000E+00  0.00000000E+00
  0.00000000E+00  0.00000000E+00  0.00000000E+00
  0.00000000E+00  0.00000000E+00  0.00000000E+00
  0.00000000E+00  0.00000000E+00  0.00000000E+00
  0.00000000E+00  0.00000000E+00  0.00000000E+00
  0.00000000E+00  0.00000000E+00  0.00000000E+00
  0.00000000E+00  0.00000000E+00  0.00000000E+00
  0.00000000E+00  0.00000000E+00  0.00000000E+00
  0.00000000E+00  0.00000000E+00  0.00000000E+00
  0.00000000E+00  0.00000000E+00  0.00000000E+00
  0.00000000E+00  0.00000000E+00  0.00000000E+00
  0.00000000E+00  0.00000000E+00  0.00000000E+00
  0.00000000E+00  0.00000000E+00  0.00000000E+00
  0.00000000E+00  0.00000000E+00  0.00000000E+00
  0.00000000E+00  0.00000000E+00  0.00000000E+00
  0.00000000E+00  0.00000000E+00  0.00000000E+00
  0.00000000E+00  0.00000000E+00  0.00000000E+00
  0.00000000E+00  0.00000000E+00  0.00000000E+00
  0.00000000E+00  0.00000000E+00  0.00000000E+00
  0.00000000E+00  0.00000000E+00  0.00000000E+00
  0.00000000E+00  0.00000000E+00  0.00000000E+00
  0.00000000E+00  0.00000000E+00  0.00000000E+00
  0.00000000E+00  0.00000000E+00  0.00000000E+00
  0.00000000E+00  0.00000000E+00  0.00000000E+00
  0.00000000E+00  0.00000000E+00  0.00000000E+00
  0.00000000E+00  0.00000000E+00  0.00000000E+00
  0.00000000E+00  0.00000000E+00  0.00000000E+00
  0.00000000E+00  0.00000000E+00  0.00000000E+00
  0.00000000E+00  0.00000000E+00  0.00000000E+00
  0.00000000E+00  0.00000000E+00  0.00000000E+00
  0.00000000E+00  0.00000000E+00  0.00000000E+00
  0.00000000E+00  0.00000000E+00  0.00000000E+00
  0.00000000E+00  0.00000000E+00  0.00000000E+00
  0.00000000E+00  0.00000000E+00  0.00000000E+00
  0.00000000E+00  0.00000000E+00  0.00000000E+00
  0.00000000E+00  0.00000000E+00  0.00000000E+00
  0.00000000E+00  0.00000000E+00  0.00000000E+00
  0.00000000E+00  0.00000000E+00  0.00000000E+00
  0.00000000E+00  0.00000000E+00  0.00000000E+00
  0.00000000E+00  0.00000000E+00  0.00000000E+00
  0.00000000E+00  0.00000000E+00  0.00000000E+00
  0.00000000E+00  0.00000000E+00  0.00000000E+00
  0.00000000E+00  0.00000000E+00  0.00000000E+00
  0.00000000E+00  0.00000000E+00  0.00000000E+00
  0.00000000E+00  0.00000000E+00  0.00000000E+00
  0.00000000E+00  0.00000000E+00  0.00000000E+00
  0.00000000E+00  0.00000000E+00  0.00000000E+00
  0.00000000E+00  0.00000000E+00  0.00000000E+00
  0.00000000E+00  0.00000000E+00  0.00000000E+00
  0.00000000E+00  0.00000000E+00  0.00000000E+00
  0.00000000E+00  0.00000000E+00  0.00000000E+00
  0.00000000E+00  0.00000000E+00  0.00000000E+00
  0.00000000E+00  0.00000000E+00  0.00000000E+00
  0.00000000E+00  0.00000000E+00  0.00000000E+00
  0.00000000E+00  0.00000000E+00  0.00000000E+00
  0.00000000E+00  0.00000000E+00  0.00000000E+00
  0.00000000E+00  0.00000000E+00  0.00000000E+00
  0.00000000E+00  0.00000000E+00  0.00000000E+00
  0.00000000E+00  0.00000000E+00  0.00000000E+00
  0.00000000E+00  0.00000000E+00  0.00000000E+00
  0.00000000E+00  0.00000000E+00  0.00000000E+00
  0.00000000E+00  0.00000000E+00  0.00000000E+00
  0.00000000E+00  0.00000000E+00  0.00000000E+00
  0.00000000E+00  0.00000000E+00  0.00000000E+00
  0.00000000E+00  0.00000000E+00  0.00000000E+00
  0.00000000E+00  0.00000000E+00  0.00000000E+00
  0.00000000E+00  0.00000000E+00  0.00000000E+00
  0.00000000E+00  0.00000000E+00  0.00000000E+00
  0.00000000E+00  0.00000000E+00  0.00000000E+00
  0.00000000E+00  0.00000000E+00  0.00000000E+00
  0.00000000E+00  0.00000000E+00  0.00000000E+00
  0.00000000E+00  0.00000000E+00  0.00000000E+00
  0.00000000E+00  0.00000000E+00  0.00000000E+00
  0.00000000E+00  0.00000000E+00  0.00000000E+00
  0.00000000E+00  0.00000000E+00  0.00000000E+00
  0.00000000E+00  0.00000000E+00  0.00000000E+00
  0.00000000E+00  0.00000000E+00  0.00000000E+00
  0.00000000E+00  0.00000000E+00  0.00000000E+00
  0.00000000E+00  0.00000000E+00  0.00000000E+00
  0.00000000E+00  0.00000000E+00  0.00000000E+00
  0.00000000E+00  0.00000000E+00  0.00000000E+00
  0.00000000E+00  0.00000000E+00  0.00000000E+00
  0.00000000E+00  0.00000000E+00  0.00000000E+00
  0.00000000E+00  0.00000000E+00  0.00000000E+00
  0.00000000E+00  0.00000000E+00  0.00000000E+00
  0.00000000E+00  0.00000000E+00  0.00000000E+00
  0.00000000E+00  0.00000000E+00  0.00000000E+00
  0.00000000E+00  0.00000000E+00  0.00000000E+00
  0.00000000E+00  0.00000000E+00  0.00000000E+00
  0.00000000E+00  0.00000000E+00  0.00000000E+00
  0.00000000E+00  0.00000000E+00  0.00000000E+00
  0.00000000E+00  0.00000000E+00  0.00000000E+00
  0.00000000E+00  0.00000000E+00  0.00000000E+00
  0.00000000E+00  0.00000000E+00  0.00000000E+00
  0.00000000E+00  0.00000000E+00  0.00000000E+00
  0.00000000E+00  0.00000000E+00  0.00000000E+00
  0.00000000E+00  0.00000000E+00  0.00000000E+00
  0.00000000E+00  0.00000000E+00  0.00000000E+00
  0.00000000E+00  0.00000000E+00  0.00000000E+00
  0.00000000E+00  0.00000000E+00  0.00000000E+00
  0.00000000E+00  0.00000000E+00  0.00000000E+00
  0.00000000E+00  0.00000000E+00  0.00000000E+00
  0.00000000E+00  0.00000000E+00  0.00000000E+00
  0.00000000E+00  0.00000000E+00  0.00000000E+00
  0.00000000E+00  0.00000000E+00  0.00000000E+00
  0.00000000E+00  0.00000000E+00  0.00000000E+00
  0.00000000E+00  0.00000000E+00  0.00000000E+00
  0.00000000E+00  0.00000000E+00  0.00000000E+00
  0.00000000E+00  0.00000000E+00  0.00000000E+00
  0.00000000E+00  0.00000000E+00  0.00000000E+00
  0.00000000E+00  0.00000000E+00  0.00000000E+00
  0.00000000E+00  0.00000000E+00  0.00000000E+00
  0.00000000E+00  0.00000000E+00  0.00000000E+00
  0.00000000E+00  0.00000000E+00  0.00000000E+00
  0.00000000E+00  0.00000000E+00  0.00000000E+00
  0.00000000E+00  0.00000000E+00  0.00000000E+00
  0.00000000E+00  0.00000000E+00  0.00000000E+00
  0.00000000E+00  0.00000000E+00  0.00000000E+00
  0.00000000E+00  0.00000000E+00  0.00000000E+00
  0.00000000E+00  0.00000000E+00  0.00000000E+00
  0.00000000E+00  0.00000000E+00  0.00000000E+00
  0.00000000E+00  0.00000000E+00  0.00000000E+00
  0.00000000E+00  0.00000000E+00  0.00000000E+00
  0.00000000E+00  0.00000000E+00  0.00000000E+00
