Ta  N  W Cu                             
   1.00000000000000     
    18.1096308199999996    0.0000000000000000    0.0000000000000000
     0.0000000000000000   23.3551997799999995    0.0000000000000000
     0.0000000000000000    0.0000000000000000   30.4818171199999988
   Ta   N    W    Cu
   216   240    24     4
Direct
  0.0000359565869701  0.0000490740411863  0.1977766687089186
  0.3343550918265734  0.0624781205991241  0.2032438167948172
  0.1656807434522278  0.0624406873560446  0.2031660857466804
  0.2500248100652911  0.1249383802111268  0.2783141156611322
  0.0828506396799469  0.0624813475415280  0.2844362445088393
  0.4171673034654901  0.0625199720420326  0.2845146492852848
  0.0000333879346854  0.1251773836332006  0.3700792457699791
  0.3324192087904194  0.0625301863302781  0.3688268083146156
  0.1673875543524659  0.0625306998448139  0.3687903566106030
  0.2499819734057027  0.1253310016618343  0.4555755115807472
  0.0840202628806495  0.0627061912142608  0.4548741818500233
  0.4160758176178305  0.0626937741375002  0.4547974869921489
  0.3361072021220650  0.0626466416105629  0.5419124244792854
  0.1632534695077794  0.0630079066223246  0.5420773190254664
  0.9999600406414331  0.1248743741622320  0.1977053850526147
  0.3341974635816527  0.1873087516631244  0.2029308060359085
  0.1658580345097533  0.1872956468515383  0.2028834070540881
  0.2501159085173867  0.2501938364372194  0.2781608410287149
  0.0825606657446158  0.1874392530263904  0.2842243293594180
  0.4174270289897137  0.1874688295064075  0.2842140424642281
  0.0000170540787963  0.2500961856369486  0.3697372811433439
  0.3324236170612593  0.1874715157931064  0.3688743105596828
  0.1674009075713201  0.1875299227421579  0.3688288068608188
  0.2501351498635600  0.2501922769750635  0.4548476945710007
  0.0836299814769816  0.1877546296829564  0.4546661392706923
  0.4163172073476460  0.1878015061264975  0.4546671276910246
  0.3337427777153721  0.1874744091103224  0.5414829293607184
  0.1657108952858835  0.1888017131906423  0.5417435251237492
  0.0000879762080430  0.2499952133021992  0.1974951469083948
  0.3342605529587104  0.3123971333161322  0.2026944360422362
  0.1658337589753955  0.3123870000423281  0.2027235010700252
  0.2501324107111813  0.3747963934877916  0.2778004843483686
  0.0828942496622531  0.3124533825891120  0.2839656351101070
  0.4170953585092860  0.3124805802373203  0.2839312417474602
  0.9999041902080208  0.3752180277549613  0.3694736698530008
  0.3325063592160333  0.3125212988298713  0.3681630052066254
  0.1674275315283111  0.3125748800070127  0.3680924895816986
  0.2501988341726715  0.3755032256079502  0.4541753944696438
  0.0838807481111061  0.3129345781056045  0.4541514363549695
  0.4154913032741661  0.3127458021949892  0.4541351874816328
  0.3351317296101968  0.3129519159763490  0.5407542103233780
  0.9999135003124024  0.3748319497136734  0.1972793343949846
  0.3341369607702376  0.4374083558709074  0.2024355330315615
  0.1659221708449934  0.4373964815143623  0.2024813973780368
  0.2499431293042491  0.0001228110784481  0.2784362408666325
  0.0825444723629332  0.4374980511645745  0.2837302866781641
  0.4174972525397180  0.4375215670541337  0.2837314217356379
  0.9999592649258133  0.0000116992774508  0.3702495603054814
  0.3325771057880829  0.4376082518985882  0.3681976849650539
  0.1673796915952437  0.4375854732019704  0.3681975168935239
  0.2497863696166505  0.0001043914237471  0.4558481163078909
  0.0834745400910748  0.4377386599309148  0.4539000150872425
  0.4154149762782495  0.4377832758573561  0.4539701771340461
  0.3338561287574677  0.4378458414939246  0.5407096985320052
  0.0000240741967730  0.5001271957684992  0.1971776412116100
  0.3342999988718987  0.5625720555632867  0.2024817723905130
  0.1657257691696472  0.5625686750555943  0.2025391705604704
  0.2500596309553771  0.6248530662908038  0.2778081637555303
  0.0828603604094269  0.5625622920369153  0.2837691457229070
  0.4171129863122118  0.5625631436333975  0.2836643437473469
  0.9999996928090980  0.6250910542989701  0.3694904942913908
  0.3324956003698603  0.5626636475661471  0.3678325620449243
  0.1674555849656372  0.5625757878259847  0.3678563907126247
  0.2503599448161111  0.6249856931492133  0.4543382623014836
  0.0837467074236358  0.5624327808944329  0.4539616224974736
  0.4153913803680425  0.5626395855595661  0.4539539955072627
  0.3360696279007414  0.5627613354152814  0.5405770063068971
  0.9999551043209181  0.6249261512969895  0.1972837852689437
  0.3340275418756775  0.6876788229064701  0.2026135740725934
  0.1659146456862359  0.6876387480061865  0.2026013572046139
  0.2499589737619772  0.7502303665431427  0.2780622236052892
  0.0825458172958875  0.6876019780093756  0.2839654237394953
  0.4174319102498529  0.6875968478449153  0.2838159783718481
  0.9999780632228195  0.7498416358840743  0.3697898555103407
  0.3324374670768862  0.6876506139154657  0.3684416340257215
  0.1673466711934495  0.6875543770547523  0.3684764201126640
  0.2501900220875868  0.7497998835309190  0.4550034417361175
  0.0838122886410773  0.6873724720821670  0.4541899494118553
  0.4161014167722215  0.6874861633147020  0.4543506954907670
  0.3333662350023516  0.6875304479156483  0.5411222368205983
  0.0000709766719140  0.7502237953758453  0.1974328782071453
  0.3342682307062788  0.8126367783478656  0.2030034056216081
  0.1656736177586424  0.8126185802976309  0.2029388562945442
  0.2498974778810421  0.8748571380460106  0.2783768742951409
  0.0828867232945285  0.8125664759509945  0.2842503567719916
  0.4171281095729285  0.8126024226711834  0.2842115205737414
  0.9999035330383137  0.8750195106050285  0.3701446106972526
  0.3322848704277703  0.8126040354864585  0.3684992998188932
  0.1673449483198937  0.8125648867795405  0.3686210619646744
  0.2497086000172999  0.8747276709806400  0.4556779166638165
  0.0839500384748106  0.8122138382799093  0.4546145551931957
  0.4159231278066144  0.8124402771537689  0.4544625578206407
  0.3358860753492579  0.8126956828914444  0.5414037501355224
  0.1634147912122401  0.8112412052867981  0.5418690658340921
  0.9999549612874858  0.8750279633158939  0.1977122145531922
  0.3342861682957050  0.9375951362950090  0.2031591758907751
  0.1657008177620298  0.9375679113020396  0.2030805635292126
  0.2500830498659923  0.5002786690551275  0.2777453425673073
  0.0826015459876714  0.9375157948387667  0.2844222175229802
  0.4173976978204408  0.9375632849970046  0.2844753643373679
  0.9999604154807358  0.4999742671714458  0.3693429036750331
  0.3323595779021673  0.9375785325067056  0.3691044921614548
  0.1674156331716432  0.9375685459750329  0.3691356327102682
  0.2503040652249666  0.5000545715531644  0.4540468807755857
  0.0836189659682063  0.9374686213306660  0.4549754561342070
  0.4165142468831036  0.9375241867331709  0.4549660585874307
  0.3334836345698733  0.9375504583972045  0.5420078881634467
  0.1656055177964149  0.9373096292706506  0.5421523524518292
  0.5000448082120386  0.0000813321274933  0.1978269339509424
  0.8342433776486615  0.0623865418923373  0.2032707583324864
  0.6656325402871062  0.0624229848071778  0.2032720411156603
  0.7498832332336320  0.1249475990630486  0.2785077365090771
  0.5828629860172896  0.0625371812249682  0.2845879102203810
  0.9171206267979883  0.0624977848604544  0.2845051455286196
  0.5000874432214601  0.1252195880291751  0.3702289305554416
  0.8323967170862829  0.0625057188181302  0.3688220637135657
  0.6673496436977118  0.0625315528580046  0.3689744731832150
  0.7496391198078314  0.1252418801645945  0.4557562591280373
  0.5838089321899460  0.0626780775293554  0.4550689557327843
  0.9160733571895747  0.0625987958730292  0.4547701890113487
  0.8363218935546115  0.0624497788931748  0.5418987501897945
  0.6630295931049304  0.0624570491079197  0.5422864289078788
  0.5002086093631775  0.1249188741954015  0.1977588022172583
  0.8341242766334176  0.1874130065205719  0.2029697645090067
  0.6657989324030495  0.1874178170365681  0.2030005320765369
  0.7499597015925517  0.2502281734599237  0.2782921900577762
  0.5825770448845660  0.1874722997120060  0.2844038470805117
  0.9173592330699520  0.1874397400999825  0.2842148031371394
  0.5000780501199245  0.2500396416077777  0.3698365299284632
  0.8324267237789158  0.1874625146200302  0.3689197576663616
  0.6674751571904949  0.1875098428536788  0.3690979586429819
  0.7499267286426630  0.2500348025861996  0.4551519401209063
  0.5832742787567042  0.1876812334848452  0.4549487458491797
  0.9163183935911121  0.1876398193005286  0.4545526524032155
  0.8343914745638443  0.1872795471873161  0.5414780012600602
  0.6661063045305440  0.1877616921026970  0.5426034789948346
  0.5001015358973646  0.2500259282456057  0.1975335815621833
  0.8342060599004739  0.3123132434955238  0.2027954657422200
  0.6658364803624792  0.3123192624286446  0.2028426112936330
  0.7500533851450726  0.3748032301348303  0.2780899811763078
  0.5829068084594979  0.3124964485821167  0.2841063755796682
  0.9170592618583981  0.3124776968335254  0.2839684417234949
  0.5000244750484910  0.3752444435935729  0.3694721242618968
  0.8325115027168408  0.3124915929663103  0.3682459312883424
  0.6674939092233174  0.3125525618160836  0.3682992240283625
  0.7505449857352176  0.3753834486099095  0.4541440612912737
  0.5839239314242164  0.3127942260519490  0.4542854826646732
  0.9155052788027334  0.3126808203057863  0.4542912889145114
  0.8391983072242581  0.3121656836588613  0.5412056993963219
  0.5002265405571720  0.3748394199121421  0.1973259411468504
  0.8341309230470557  0.4375362412563533  0.2025381440906244
  0.6659110161944568  0.4375343156635125  0.2025757963930985
  0.7498914296459560  0.0001455907809884  0.2784758736164434
  0.5825684396222215  0.4375273468857586  0.2838443335424259
  0.9175194744142914  0.4375139099945571  0.2837931991477944
  0.4999377880615299  0.0000323604585262  0.3703026082139331
  0.8326836551532892  0.4375966503667641  0.3683096664469403
  0.6674470539629951  0.4376238758081286  0.3683314594682940
  0.7497704396745490  0.0000661174220369  0.4559097714431033
  0.5836920605669889  0.4379018378997301  0.4538397203387348
  0.9154874890438833  0.4377062642783542  0.4543355040501709
  0.8373084480963584  0.4385812223969339  0.5411799290798740
  0.5001282278142227  0.5001215848724598  0.1972101621798572
  0.8343169463362585  0.5625223564006134  0.2025777953650021
  0.6657794642738395  0.5625169739502738  0.2026069316697203
  0.7500927102790200  0.6248269283491226  0.2780281580929511
  0.5828805650562643  0.5625983093289619  0.2838828384402490
  0.9170790720319175  0.5625712884844773  0.2837846572606040
  0.4999629108936077  0.6251429442595722  0.3694713904757236
  0.8325351545055568  0.5626449273410898  0.3680478254850925
  0.6676090051585675  0.5626556901130115  0.3680658476456742
  0.7502880841640192  0.6250666243780643  0.4544917075488399
  0.5832554118512121  0.5627445620997875  0.4540679154438720
  0.9154202764062376  0.5626570785722933  0.4539945254737532
  0.8368473603577158  0.5629495270762774  0.5407622401216088
  0.5002070961942451  0.6249043712866609  0.1972784530212977
  0.8340368581783935  0.6877718356698423  0.2026966451635488
  0.6659576888649852  0.6877664557539731  0.2026931919345643
  0.7500075432698878  0.7502161789227202  0.2781148075884303
  0.5825793253075915  0.6876131588766796  0.2840231357809202
  0.9174554689653078  0.6876039182770839  0.2839006380479745
  0.4999561669545471  0.7498970751802787  0.3697746726860771
  0.8324800654801479  0.6876616370395823  0.3685242687786143
  0.6673963571434385  0.6876259685910568  0.3685380336375630
  0.7501097759883493  0.7498384373535742  0.4550782714781221
  0.5836261207353175  0.6875085133732384  0.4541773095111310
  0.9162056167402568  0.6875015415997296  0.4544101528457176
  0.8335568323650122  0.6877660270144972  0.5412011723327623
  0.5000994453158114  0.7502056841257954  0.1974272070330727
  0.8342684297009910  0.8125769378730183  0.2030374495281109
  0.6656816524796909  0.8125801717651697  0.2030021623464080
  0.7499222952999318  0.8748731846145148  0.2785194942952316
  0.5828823350774712  0.8125987750380048  0.2843153277638635
  0.9171351316268286  0.8126003713434784  0.2842613106720862
  0.4998805624209695  0.8750680334698089  0.3701690560224478
  0.8323241318181402  0.8125997086718613  0.3685622967246402
  0.6673171351767380  0.8126159306715692  0.3686849819495777
  0.7497743983085314  0.8747668002068139  0.4557263560781522
  0.5838395819587632  0.8123081114401316  0.4546604294906444
  0.9159399596857796  0.8123810502137729  0.4545018389230151
  0.8360110541124470  0.8127417764331426  0.5414652838106520
  0.6633895363987747  0.8114338488375026  0.5419151986838600
  0.5001322214617190  0.8750495677935959  0.1977354808453313
  0.8341979510802062  0.9376601612810802  0.2031678286971399
  0.6657278939316740  0.9376586173752273  0.2031581323066334
  0.7500760546101688  0.5002684895306402  0.2778864595151802
  0.5826143558549077  0.9375551127159412  0.2844978175890418
  0.9173816089087339  0.9375358465482577  0.2844694253455202
  0.5000011656918062  0.5000462203454958  0.3693395117255989
  0.8323761416042501  0.9375737268555397  0.3691107251758439
  0.6674137891081102  0.9375964024311898  0.3692284991797905
  0.7501483927553636  0.5002969865060294  0.4543724094963224
  0.5835014726867342  0.9375095825112112  0.4550545342846988
  0.9165975762424665  0.9374773491263753  0.4549354580907163
  0.8337122165427218  0.9375321395009237  0.5419988755458505
  0.6657455207266452  0.9371753955249602  0.5422182906036994
  0.4058253917896906  0.9999944702578887  0.2328371164530623
  0.2500059694222045  0.9999925371983593  0.2001998763433548
  0.0942289857211875  0.9999326675173776  0.2327877390376969
  0.1549296916712635  0.1250623634043109  0.3162251846627129
  0.9999880384847586  0.1249113811132503  0.3034376151502016
  0.3451020011654151  0.1250708996521084  0.3162831778507496
  0.4011692942238412  0.1251501189664168  0.4027763171386738
  0.2499166697347306  0.1249665542888962  0.3877860542158515
  0.0988535493024045  0.1251435776516345  0.4027511366705170
  0.1517439854783760  0.1258352640218874  0.4882860442166717
  0.9999828322180662  0.1253441710289351  0.4740528938548820
  0.3482076328854831  0.1254570500580243  0.4881897050398294
  0.4062760739609459  0.1264969119335859  0.5692647531434218
  0.2499915531834560  0.1262828970282968  0.5583221338474118
  0.0947612715925743  0.1270569490764117  0.5699367303056775
  0.4058787124295904  0.1249958144648176  0.2327071255703714
  0.2499947613171045  0.1248632733843991  0.1998210032605030
  0.0942146501498797  0.1249640703265413  0.2326675031532872
  0.1548201896506285  0.2498683219820208  0.3158823094963026
  0.9999703865960541  0.2501033874725351  0.3031391665365462
  0.3452769101251931  0.2498352333118206  0.3159592207624087
  0.4011539212363218  0.2500802558661093  0.4023937792633774
  0.2499526992269026  0.2501535912975257  0.3873250691974377
  0.0988464864750824  0.2502727021144864  0.4023985461205655
  0.1521792637469659  0.2510363208771977  0.4875757238616032
  0.9999994880234553  0.2506598305785630  0.4734059278118536
  0.3478762885615367  0.2501007511567011  0.4878623261624213
  0.4056033076681089  0.2504755868197179  0.5692252397984632
  0.2482873427249501  0.2535753875254585  0.5577602299446696
  0.0960360361182779  0.2537869489559483  0.5687944084192509
  0.4057646412506557  0.2498454977130962  0.2323844626276141
  0.2500187345320981  0.2498592701169287  0.1999144402168866
  0.0943590933620158  0.2498037466389533  0.2323997005132412
  0.1548346430336665  0.3751636679013473  0.3155787104818444
  0.9999994995195607  0.3748714388916810  0.3028995404516834
  0.3452848643538360  0.3751373986637248  0.3156052495774091
  0.4010344638771741  0.3751965714096528  0.4019940944694440
  0.2499599107471653  0.3750317137190393  0.3867985939934542
  0.0988042822738748  0.3752320813793162  0.4021058010612464
  0.1527393650652513  0.3758431723953137  0.4870241521216201
  0.9999381921084449  0.3754987195045274  0.4734031433885377
  0.3475778214672545  0.3755023861006705  0.4874180530663139
  0.4042040377938392  0.3758448389023457  0.5689055449521661
  0.2470733044423099  0.3766252134985351  0.5573031846624090
  0.0984347159211652  0.3771086962337549  0.5682638441234360
  0.4058206104971944  0.3750063028741621  0.2321058294441656
  0.2500135397210528  0.3748795347151344  0.1992666006449824
  0.0942795895117925  0.3749592977650522  0.2321387338484371
  0.1549232049586990  0.9999478183481756  0.3163923441887633
  0.0000045486950171  0.0001006408830975  0.3035747717767521
  0.3450260112971009  0.9999760388080006  0.3163958294739473
  0.4010774633053700  0.0001012744838675  0.4028850249911287
  0.2498968147148304  0.0001065927182182  0.3880086091138466
  0.0988013480521772  0.0000877880176873  0.4028720913660848
  0.1515904825339618  0.9999237172464817  0.4884931165371427
  0.0000021417735141  0.0002257362248983  0.4740310750338850
  0.3481365329958805  0.9999021361956792  0.4883228793980621
  0.4056736176220213  0.9996087639287623  0.5697645370766864
  0.2497902441462045  0.0004486542170241  0.5584284039898790
  0.0938725170002712  0.9996118758307659  0.5699329576379881
  0.4057472266761195  0.4999300118304078  0.2320011567529860
  0.2500098230557484  0.5000444402451620  0.1996020371595151
  0.0943159999362493  0.4999614448228442  0.2320633244952148
  0.1547910937791173  0.6252043156959246  0.3155982855003927
  0.9999737775625235  0.6249316916460117  0.3029088087912442
  0.3452584057330128  0.6252977942957969  0.3155904368146167
  0.4010281906197193  0.6251433156723181  0.4020716877334891
  0.2499505809449971  0.6250003761427365  0.3869081344087988
  0.0988303567609989  0.6248702041591798  0.4021495485676709
  0.1527576699374080  0.6245927046396176  0.4871062197379388
  0.0000661724348134  0.6247535413910157  0.4734339633238349
  0.3477373761319100  0.6252422529323169  0.4875427984837657
  0.4061167221874200  0.6249784891400481  0.5686623112556646
  0.2473548946215658  0.6236006070322730  0.5575541349573854
  0.0983266297166097  0.6240770709388457  0.5682374852645964
  0.4057883257287500  0.6251684515268821  0.2320599744571012
  0.2499979445250062  0.6250673309035690  0.1994157922589466
  0.0942851613871980  0.6251826749397864  0.2321570610428054
  0.1548139806879831  0.7499880213666401  0.3159351601273812
  0.9999888289197969  0.7501650281884764  0.3031710239143592
  0.3451330270874564  0.7500163449284969  0.3159178477780173
  0.4010919509936031  0.7500269244510420  0.4024193137407224
  0.2499161380421739  0.7501061567860674  0.3873419184004092
  0.0988245954615152  0.7498752530251096  0.4024515473986554
  0.1521548730585423  0.7488360485090553  0.4878377029113068
  0.9999890542961580  0.7495283526254894  0.4739516251496170
  0.3478777209127131  0.7497477242128525  0.4878637488649957
  0.4062320971607107  0.7490353934449345  0.5686904596326912
  0.2484304249384479  0.7469754680980785  0.5581246231281582
  0.0970681689016146  0.7454609711902833  0.5693623264903849
  0.4057998662606721  0.7500948073447162  0.2323483532989385
  0.2499626684076333  0.7502160196402983  0.1995738369200808
  0.0942701008799602  0.7500768175872565  0.2323990541050804
  0.1548306920828111  0.8751409437955004  0.3162827442829581
  0.9999915694371708  0.8749284574049483  0.3034765757181432
  0.3450591375494341  0.8751558819270073  0.3162422195684798
  0.4010122451243134  0.8749758161773897  0.4027181792574765
  0.2498685702874326  0.8749870380103673  0.3878716783398772
  0.0987306175951232  0.8749643470471966  0.4027662229896691
  0.1514733801318329  0.8745963352292847  0.4883421869557480
  0.9999399293618225  0.8744955452898324  0.4739417678180828
  0.3479673537322228  0.8751454950501767  0.4881442561500151
  0.4057381301643659  0.8748974682338257  0.5693833795693521
  0.2496111319995009  0.8736289905636880  0.5582609816325927
  0.0941248193922846  0.8742079504848661  0.5698392046277831
  0.4058113039097933  0.8751589399027040  0.2326857477621758
  0.2499874149661352  0.8751169707216064  0.2001661815564617
  0.0942125256708479  0.8751272964306764  0.2326660950706696
  0.1547601682355335  0.4999054374753555  0.3154977333236531
  0.9999954332227077  0.5001849415492643  0.3027881115576676
  0.3453319460937223  0.4999504901585823  0.3154784732970413
  0.4010613842185009  0.5001803473353945  0.4019271491965597
  0.2499689910256961  0.5002079979486069  0.3866692997769832
  0.0988030979194505  0.5000961446262409  0.4020259856098534
  0.1528304123717774  0.5000196099233420  0.4869129070501046
  0.9999457754089107  0.5001239749416726  0.4733386004270059
  0.3476140830156496  0.5000761809149594  0.4873535217829712
  0.4055244028618148  0.4999536483627338  0.5684928092295749
  0.2473662688877951  0.5000030242978042  0.5573227744687301
  0.0987847746643169  0.4996080388266790  0.5681530831528789
  0.9058117107422206  0.9999652255058677  0.2328109625198707
  0.7499380025617555  0.0000158203803551  0.1997596142682951
  0.5942094954362886  0.9999969965143620  0.2328845500327148
  0.6548383960823259  0.1250999073711867  0.3164608863073113
  0.4999901536764426  0.1249502426190645  0.3035676163318826
  0.8450485732554256  0.1250687927252088  0.3163137485661878
  0.9011543416405772  0.1250370748085388  0.4027006350674043
  0.7499071492702711  0.1249406239207715  0.3879645163224836
  0.5988381696853153  0.1251832143917042  0.4030139192814346
  0.6513844202512757  0.1257348039082018  0.4886327373797457
  0.4998895471635834  0.1255868043002693  0.4743289637171486
  0.8479941665385269  0.1252927475958430  0.4881915102348913
  0.9061669687608145  0.1259838204902692  0.5694244860464792
  0.7496291289483139  0.1264568822780419  0.5584280842491651
  0.5946820041071561  0.1268599176157608  0.5705253604966032
  0.9057276524034705  0.1249542920370459  0.2327298771464115
  0.7499696678072212  0.1248916098657062  0.2004756503503273
  0.5942661457088718  0.1250269336380967  0.2328642872814086
  0.6547450628090630  0.2498799293162079  0.3161216347585807
  0.4999774150390763  0.2501308081314448  0.3032286326161255
  0.8451781203153388  0.2498213373223734  0.3160043220131925
  0.9011556134915040  0.2501111316621021  0.4023525236330130
  0.7499539152378389  0.2501288255298988  0.3875844955546341
  0.5988238270432191  0.2502411372444868  0.4026459663919582
  0.6517087641667132  0.2500887477245399  0.4882643486075438
  0.5000026148480785  0.2509188753974883  0.4738960686655389
  0.8480666129072674  0.2497434631160829  0.4878412741986580
  0.9063573035408012  0.2496590855095562  0.5694029108882646
  0.7493796152733836  0.2535092525683140  0.5579331524973128
  0.5964705695443158  0.2536704135246453  0.5721772503048044
  0.9057528693680368  0.2498363707573645  0.2324008625923852
  0.7499887792259301  0.2498640733982569  0.1995716357327026
  0.5943134346141150  0.2498319354203460  0.2325382248613863
  0.6547263071099536  0.3751729705228541  0.3157991304845993
  0.4999749927114152  0.3749089816291686  0.3029249903000206
  0.8453222087325400  0.3751251291834947  0.3157190640718426
  0.9009805300273825  0.3751868930985012  0.4021989730828821
  0.7500482551563863  0.3750438611953300  0.3868651241566212
  0.5988945424602292  0.3751776165673206  0.4021917381966702
  0.6534666626884800  0.3758617100639796  0.4871738848981764
  0.4997886830646223  0.3756403759241707  0.4726665443269198
  0.8476684302798532  0.3753814354908656  0.4879980937768167
  0.9064704953731990  0.3760339233837016  0.5692326886829235
  0.7491722221471591  0.3765487285964184  0.5592576815926122
  0.5966300945597709  0.3767610879063099  0.5663539399273176
  0.9057099978048768  0.3750171554816717  0.2322196908373826
  0.7500051849886802  0.3748919917219382  0.2001252459345935
  0.5944222531176138  0.3749930093363574  0.2323264509589578
  0.6549071417749630  0.9999741902634298  0.3165053569536624
  0.4999924093756078  0.0001307517406985  0.3036409607338797
  0.8450040899239397  0.9999622960386958  0.3163936654288548
  0.9010877723132396  0.0000809849280756  0.4028389326112602
  0.7499196642447785  0.0001036781941650  0.3880802698581363
  0.5987476250139636  0.0001004259483395  0.4030084514335357
  0.6514972865210069  0.9998698797377159  0.4885787870399483
  0.4998640081138390  0.0003413087533204  0.4742766577929345
  0.8481631001624095  0.9998364790959329  0.4883079973124183
  0.9057471284165004  0.9995295554204517  0.5697160882944559
  0.7497453384486192  0.0004708484726166  0.5584309437214685
  0.5940647716258383  0.9994214620601625  0.5701298832114148
  0.9057590428164133  0.4999604965845492  0.2321031990410276
  0.7500155047302215  0.5000560781103758  0.1993057861780940
  0.5943743882871502  0.5000061083457155  0.2321744184670109
  0.6547509171563064  0.6252044095611566  0.3157513073051348
  0.4999484540155734  0.6249594533534903  0.3028959012188963
  0.8453145410156893  0.6252692840991969  0.3157357375830827
  0.9011045258076678  0.6251636550953563  0.4021491313545340
  0.7499993041197115  0.6250688464810708  0.3870676131957040
  0.5987848876522932  0.6249762412380946  0.4022490542810786
  0.6525334021980598  0.6247887851050749  0.4873061918035049
  0.4999319068170749  0.6247543087034515  0.4734246720182966
  0.8477645473637168  0.6253052852126828  0.4876376537135485
  0.9060458161275875  0.6254654725413857  0.5687901513629470
  0.7470918159214577  0.6234533557094082  0.5576260388836261
  0.5986405640467680  0.6247483281330162  0.5687889020823249
  0.9056914069496287  0.6251800828016414  0.2321881261518470
  0.7500035463390944  0.6250798942262463  0.2000362182918352
  0.5944133086066756  0.6251802768169696  0.2322648201494673
  0.6548518061978044  0.7500231640509512  0.3159850919644924
  0.4999590844627804  0.7501693206274140  0.3031585696761780
  0.8451700426433035  0.7500138640583245  0.3159958838568429
  0.9011097885783812  0.7499875309832973  0.4024749645141767
  0.7499225595952836  0.7501465317248446  0.3874220432924886
  0.5987971827076493  0.7499655144321409  0.4024680765654551
  0.6519951738627512  0.7490346660485372  0.4878577552729126
  0.4998789449605994  0.7495206361202165  0.4739351968263747
  0.8478361428241357  0.7497594352025487  0.4879392329469283
  0.9061942065500546  0.7491809800376075  0.5688016089384647
  0.7482399747996809  0.7470494890531185  0.5581922183939980
  0.5967964390772025  0.7457100745088567  0.5693939430967916
  0.9058020873084089  0.7501015620307285  0.2324071359803668
  0.7499775516827683  0.7502387317562764  0.1992486170173891
  0.5942461578196472  0.7501094551236562  0.2324529939330802
  0.6548166566144076  0.8751677775098230  0.3163626976460208
  0.4999759816401550  0.8749488992605379  0.3035057561870431
  0.8451027560876270  0.8751468682358734  0.3163035469733586
  0.9010618089791151  0.8749387535733462  0.4027246733953902
  0.7498941726771378  0.8750064127899080  0.3879263383478104
  0.5986759029075728  0.8750374352239234  0.4028359903830037
  0.6514782127751317  0.8746570103868621  0.4883559318410775
  0.4998688456640110  0.8745596528564690  0.4740613938943667
  0.8480408880516350  0.8751461909197644  0.4881735559593210
  0.9058959175996506  0.8749126700237184  0.5694120853657267
  0.7497007159332014  0.8736575894822067  0.5583004713622230
  0.5942199997467554  0.8742776510782164  0.5698977252795743
  0.9057106534699102  0.8751525264937854  0.2327348903292901
  0.7499734892905394  0.8751116108272612  0.2006376955046605
  0.5942878221082282  0.8751546957184004  0.2327716081581173
  0.6547496576955538  0.4999776463908745  0.3156680643148206
  0.4999853141080806  0.5001988576979386  0.3027942347300367
  0.8452840217834350  0.4999526706358992  0.3156104089685385
  0.9011091292447588  0.5000406878915840  0.4020549672189588
  0.7499826075648599  0.5001849083130381  0.3869719898227331
  0.5987989066572723  0.5002488573128900  0.4021297999501598
  0.6523096441714173  0.5012808165628044  0.4873734894204631
  0.4999101029373421  0.4999518749218765  0.4733826394833329
  0.8477517792182994  0.5003569656464109  0.4875226944563167
  0.9061675328583974  0.5004022471132998  0.5688899266543217
  0.7476779404654721  0.5004512898222728  0.5576435623973524
  0.5978139914104474  0.4994204996945157  0.5708268773820038
  0.0004291621602164  0.1332649346336652  0.5409470166497243
  0.0005974210522552  0.2451800806967768  0.5402189605838217
  0.0012260153188919  0.3831728386093616  0.5399953470560277
  0.1631410781631928  0.3139176219279349  0.5394555113370316
  0.0000185690490824  0.9931458543200407  0.5410244631797525
  0.1656485297316195  0.4381128058579407  0.5391703159677874
  0.0005680660915743  0.6307452987712239  0.5401328469986098
  0.1638716125201825  0.5622194347093910  0.5392510112434366
  0.0004868288985591  0.7411507925880514  0.5407021338475388
  0.1649199807700512  0.6865719648077615  0.5397783902204765
  0.0000684391025629  0.8812293153124742  0.5408965477212249
  0.0011305105120911  0.4931329901849679  0.5398753145490787
  0.5006508625932256  0.1338614771316102  0.5411982367087944
  0.4992515762114209  0.2465588946028561  0.5408017699703649
  0.4972912905299651  0.3820996091484901  0.5387514835438836
  0.6664961301369203  0.3123466495495251  0.5380354557699576
  0.4998512334076963  0.9930417846577981  0.5412504830508595
  0.6673634167211731  0.4397975644952083  0.5377016659564404
  0.5005166838179136  0.6302025932035420  0.5401891300799520
  0.6646870938560667  0.5633795207433892  0.5398811807630679
  0.5003954976752354  0.7410105023164064  0.5406804257518232
  0.6646229760825690  0.6870794481242015  0.5398620796649425
  0.4999733372772752  0.8813524106419521  0.5410117653126463
  0.4996850315194408  0.4934529770115645  0.5399181738790162
  0.7157239376053468  0.3780140068492770  0.6188716191980674
  0.6009669506732891  0.4379120479033318  0.6165920206471753
  0.6019344789622281  0.3160936284435465  0.6167404497969002
  0.6325170341349846  0.3777366307019037  0.6784001997421143
 
  0.00000000E+00  0.00000000E+00  0.00000000E+00
  0.00000000E+00  0.00000000E+00  0.00000000E+00
  0.00000000E+00  0.00000000E+00  0.00000000E+00