POSCAR                                  
   1.00000000000000     
     6.6031094584972365   -0.0622595089490384    0.0059607521398315
    -3.3558553457046649    5.6402416294595019    0.0023926599864097
     0.0099878964674450    0.0092810223012890    9.7745571730818828
   Al   N    Li   Ta
    10    16     3     3
Direct
  0.1740550383196025  0.3354458881972676 -0.0154664959603834
  0.6587334282357190  0.3345149600948884 -0.0085394567054169
  0.1697412423132556  0.8384223215578150  0.0061923180808736
  0.6553763528675715  0.3274524492765514  0.4991481558056040
  0.1704081092180254  0.8466816154814553  0.4892054599621708
  0.6830271238051021  0.8412479473594074  0.5032667788245090
  0.3332725689167951  0.1670081693267629  0.7438291445164812
  0.8300432417983646  0.6488049618587154  0.7401057653071806
  0.3280613534558521  0.1634202886732502  0.2506457278801408
  0.8422559509135362  0.6714550000159425  0.2486788186212018
  0.1714821115584214  0.3212346575785070  0.1833626101361143
  0.6636090063116008  0.3442426678924052  0.1873394546045018
  0.1589594316792997  0.8400226220940525  0.1948101958284088
  0.6826796358189327  0.8249365469969034  0.1763988812806356
  0.1689681914132909  0.3220780907495129  0.7184305121771090
  0.6524092594074234  0.3328186148753584  0.6905277981445311
  0.1480958164916255  0.8389802333746531  0.6910602720464941
  0.6770550305130328  0.8208221181154941  0.7146887851547075
  0.3340592310202927  0.1648476218058593  0.9421657019219005
  0.8341675905134885  0.1822555723283556  0.9649111587107009
  0.3225781620768102  0.6728572730015898  0.9395976385119142
  0.8441135219018191  0.6609888548782208  0.9388492871032919
  0.3442910418962516  0.1622105893787989  0.4384797856522870
  0.8130310088943428  0.1549942142579898  0.4330042434375070
  0.3495149491556762  0.6899849691205110  0.4913361768947880
  0.8328138119862182  0.6700043648712073  0.4435790342341291
  0.1682991329345795  0.3197365902364210  0.4938706912280239
  0.8306855407245827  0.1781826202750047  0.7376117661397390
  0.3293642006967114  0.6641538602043598  0.2609907302421443
  0.6688460614562686  0.8355351319852530 -0.0315509238688488
  0.3233359708380341  0.6564740882068942  0.7002603336125525
  0.8366668828674736  0.1681850959305919  0.2332096504750061
 
  0.00000000E+00  0.00000000E+00  0.00000000E+00
  0.00000000E+00  0.00000000E+00  0.00000000E+00
  0.00000000E+00  0.00000000E+00  0.00000000E+00
  0.00000000E+00  0.00000000E+00  0.00000000E+00
  0.00000000E+00  0.00000000E+00  0.00000000E+00
  0.00000000E+00  0.00000000E+00  0.00000000E+00
  0.00000000E+00  0.00000000E+00  0.00000000E+00
  0.00000000E+00  0.00000000E+00  0.00000000E+00
  0.00000000E+00  0.00000000E+00  0.00000000E+00
  0.00000000E+00  0.00000000E+00  0.00000000E+00
  0.00000000E+00  0.00000000E+00  0.00000000E+00
  0.00000000E+00  0.00000000E+00  0.00000000E+00
  0.00000000E+00  0.00000000E+00  0.00000000E+00
  0.00000000E+00  0.00000000E+00  0.00000000E+00
  0.00000000E+00  0.00000000E+00  0.00000000E+00
  0.00000000E+00  0.00000000E+00  0.00000000E+00
  0.00000000E+00  0.00000000E+00  0.00000000E+00
  0.00000000E+00  0.00000000E+00  0.00000000E+00
  0.00000000E+00  0.00000000E+00  0.00000000E+00
  0.00000000E+00  0.00000000E+00  0.00000000E+00
  0.00000000E+00  0.00000000E+00  0.00000000E+00
  0.00000000E+00  0.00000000E+00  0.00000000E+00
  0.00000000E+00  0.00000000E+00  0.00000000E+00
  0.00000000E+00  0.00000000E+00  0.00000000E+00
  0.00000000E+00  0.00000000E+00  0.00000000E+00
  0.00000000E+00  0.00000000E+00  0.00000000E+00
  0.00000000E+00  0.00000000E+00  0.00000000E+00
  0.00000000E+00  0.00000000E+00  0.00000000E+00
  0.00000000E+00  0.00000000E+00  0.00000000E+00
  0.00000000E+00  0.00000000E+00  0.00000000E+00
  0.00000000E+00  0.00000000E+00  0.00000000E+00
  0.00000000E+00  0.00000000E+00  0.00000000E+00
