POSCAR
1.0000000000
  6.5593540152981769  0.00000000000000000000  0.0000000000000000
 -3.27967700764908845  5.68056720966368260236  0.0000000000000000
  0.0000000000000000  0.00000000000000000000  9.7797309288288901
  Al  N   Li  Ta
  10  16  3   3 
Direct
  0.16666650  0.33333350  1.00000000
  0.66666650  0.33333350  1.00000000
  0.16666650  0.83333350  1.00000000
  0.66666650  0.33333350  0.50000000
  0.16666650  0.83333350  0.50000000
  0.66666650  0.83333350  0.50000000
  0.33333350  0.16666650  0.75000000
  0.83333350  0.66666650  0.75000000
  0.33333350  0.16666650  0.25000000
  0.83333350  0.66666650  0.25000000
  0.16666650  0.33333350  0.18750000
  0.66666650  0.33333350  0.18750000
  0.16666650  0.83333350  0.18750000
  0.66666650  0.83333350  0.18750000
  0.16666650  0.33333350  0.68750000
  0.66666650  0.33333350  0.68750000
  0.16666650  0.83333350  0.68750000
  0.66666650  0.83333350  0.68750000
  0.33333350  0.16666650  0.93750000
  0.83333350  0.16666650  0.93750000
  0.33333350  0.66666650  0.93750000
  0.83333350  0.66666650  0.93750000
  0.33333350  0.16666650  0.43750000
  0.83333350  0.16666650  0.43750000
  0.33333350  0.66666650  0.43750000
  0.83333350  0.66666650  0.43750000
  0.16666650  0.33333350  0.50000000
  0.83333350  0.16666650  0.75000000
  0.33333350  0.66666650  0.25000000
  0.66666650  0.83333350  1.00000000
  0.33333350  0.66666650  0.75000000
  0.83333350  0.16666650  0.25000000
