Ta  N Ru                                
   1.00000000000000     
    10.4555999800000006    0.0000000000000000    0.0000000000000000
     0.0000000000000000   11.6775998899999998    0.0000000000000000
     0.0000000000000000    0.0000000000000000   24.0732377500000005
   Ta   N    Ru
    64    64     1
Selective dynamics
Direct
  0.4991785186325330  0.1250000003211298  0.3753726828051569   F   F   F
  0.2600588226580172  0.1250000003211298  0.3190980514078845   F   F   F
  0.2470962603561304  0.0000000000000000  0.4358978840493251   F   F   F
  0.2489200048495208  0.1250027990784647  0.5616152669022908   T   T   T
  0.9985808665439202  0.1249775785489056  0.5005305703398640   T   T   T
  0.9978991053480220  0.0002031546202992  0.6262025410824650   T   T   T
  0.5111908137030018  0.1250567629130424  0.7446823039766707   T   T   T
  0.2503471564244146  0.1245579980303969  0.6866815719626622   T   T   T
  0.4991785186325330  0.3750000001070433  0.3753726828051569   F   F   F
  0.2600588226580172  0.3750000001070433  0.3190980514078845   F   F   F
  0.2470962603561304  0.2499999997859135  0.4358978840493251   F   F   F
  0.2489197538915629  0.3750101870044411  0.5616160041291191   T   T   T
  0.9985796462429014  0.3750210005091713  0.5005269572886416   T   T   T
  0.9981671393701946  0.2500100516256015  0.6261515044516736   T   T   T
  0.5111955223258809  0.3749536373521497  0.7446839496112515   T   T   T
  0.2503492345449658  0.3754589980484758  0.6866828052183348   T   T   T
  0.4991785186325330  0.6249999998929567  0.3753726828051569   F   F   F
  0.2600588226580172  0.6249999998929567  0.3190980514078845   F   F   F
  0.2470962603561304  0.5000000004281731  0.4358978840493251   F   F   F
  0.2487932748120361  0.6249072637276599  0.5616287374524396   T   T   T
  0.9987468433015230  0.6249498265407135  0.5004886049794824   T   T   T
  0.9979022946758368  0.4998122825487018  0.6262027818307758   T   T   T
  0.5116174871666882  0.6250741594807780  0.7426298359416462   T   T   T
  0.2496207293944073  0.6251841784351447  0.6868196791830311   T   T   T
  0.4991785186325330  0.8750000005352163  0.3753726828051569   F   F   F
  0.2600588226580172  0.8750000005352163  0.3190980514078845   F   F   F
  0.2470962603561304  0.7500000002140865  0.4358978840493251   F   F   F
  0.2487936514354517  0.8751044458890352  0.5616284944083297   T   T   T
  0.9987459243385655  0.8750601893351653  0.5004895905682205   T   T   T
  0.9976710214707007  0.7500089609308256  0.6261719191987488   T   T   T
  0.5116137490698388  0.8749357608276175  0.7426267552221930   T   T   T
  0.2496202977867238  0.8748298290369304  0.6868188036009826   T   T   T
  0.9991784928090510  0.1250000003211298  0.3753726828051569   F   F   F
  0.7600587968345351  0.1250000003211298  0.3190980514078845   F   F   F
  0.7470962345326484  0.0000000000000000  0.4358978840493251   F   F   F
  0.7487283501860460  0.1252046350504474  0.5618377845316346   T   T   T
  0.4987183546796016  0.1249914709292158  0.5004742616815074   T   T   T
  0.4975202260050496  0.9998274433127173  0.6262263427752326   T   T   T
  0.0111025950478607  0.1258500263328883  0.7435321426297249   T   T   T
  0.7510140569169399  0.1237303061527458  0.6866516977886646   T   T   T
  0.9991784928090510  0.3750000001070433  0.3753726828051569   F   F   F
  0.7600587968345351  0.3750000001070433  0.3190980514078845   F   F   F
  0.7470962345326484  0.2499999997859135  0.4358978840493251   F   F   F
  0.7487278101696835  0.3748088042203884  0.5618385134299924   T   T   T
  0.4987167582116667  0.3750148388595362  0.5004745724582638   T   T   T
  0.4979223632284249  0.2500064161592638  0.6259290379631008   T   T   T
  0.0111031206851660  0.3741703733663563  0.7435330685956736   T   T   T
  0.7510176142610130  0.3762805922424227  0.6866520810386082   T   T   T
  0.9991784928090510  0.6249999998929567  0.3753726828051569   F   F   F
  0.7600587968345351  0.6249999998929567  0.3190980514078845   F   F   F
  0.7470962345326484  0.5000000004281731  0.4358978840493251   F   F   F
  0.7489878181553755  0.6250471004383381  0.5615550404147920   T   T   T
  0.4987341606911365  0.6249870574951768  0.5005141167970129   T   T   T
  0.4975179916849937  0.5001830547860187  0.6262279667264243   T   T   T
  0.0119064652601870  0.6250612051221609  0.7431163625685123   T   T   T
  0.7503677594336723  0.6245606000562395  0.6865385829074266   T   T   T
  0.9991784928090439  0.8750000005352163  0.3753726828051569   F   F   F
  0.7600587968345351  0.8750000005352163  0.3190980514078845   F   F   F
  0.7470962345326484  0.7500000002140865  0.4358978840493251   F   F   F
  0.7489872023264975  0.8749667565644826  0.5615552429401659   T   T   T
  0.4987336415202652  0.8750163716737728  0.5005142188938658   T   T   T
  0.4978384936833174  0.7500050094446434  0.6261207297242207   T   T   T
  0.0119165070133499  0.8749551395237687  0.7431190614101476   T   T   T
  0.7503684000024597  0.8754548177755550  0.6865376263495441   T   T   T
  0.1472195596423447  0.0000000000000000  0.3601606351366584   F   F   F
  0.4003222342624682  0.0000000000000000  0.3237632067519129   F   F   F
  0.4439214822817661  0.0000000000000000  0.4377276028165085   F   F   F
  0.4011862581089239  0.9999479077910554  0.5518521204109696   T   T   T
  0.1508447110218860 -0.0000243105139307  0.5103210641557729   T   T   T
  0.1947546909694172  0.0000049251730979  0.6243896719775496   T   T   T
  0.1513990601771590  0.0001393663157424  0.7385903112714738   T   T   T
  0.3961366166960105  0.9987552912298605  0.7027772273264271   T   T   T
  0.1472195596423447  0.2499999997859135  0.3601606351366584   F   F   F
  0.4003222342624682  0.2499999997859135  0.3237632067519129   F   F   F
  0.4439214822817661  0.2499999997859135  0.4377276028165085   F   F   F
  0.4008236166068078  0.2500030558669995  0.5515752466898513   T   T   T
  0.1507564046230369  0.2500052120416817  0.5102734230976746   T   T   T
  0.1951994678478424  0.2500077695867227  0.6244323731479757   T   T   T
  0.1520312809464700  0.2500110409365531  0.7382051540737800   T   T   T
  0.3998961497097655  0.2500054740349393  0.7005756009520839   T   T   T
  0.1472195596423447  0.5000000004281731  0.3601606351366584   F   F   F
  0.4003222342624682  0.5000000004281731  0.3237632067519129   F   F   F
  0.4439214822817661  0.5000000004281731  0.4377276028165085   F   F   F
  0.4011873924790015  0.5000596418691121  0.5518531637045514   T   T   T
  0.1508457411919299  0.5000334678801163  0.5103210169939875   T   T   T
  0.1947566802135224  0.5000085309220283  0.6243908472559371   T   T   T
  0.1513987729838411  0.4998816519963709  0.7385911605764914   T   T   T
  0.3961372362395333  0.5012570603896259  0.7027799618395812   T   T   T
  0.1472195596423447  0.7500000002140865  0.3601606351366584   F   F   F
  0.4003222342624682  0.7500000002140865  0.3237632067519129   F   F   F
  0.4439214822817661  0.7500000002140865  0.4377276028165085   F   F   F
  0.4008441891654892  0.7500036071036404  0.5518663824095869   T   T   T
  0.1508628526247819  0.7500035603705846  0.5102988279658011   T   T   T
  0.1943566013732579  0.7500059466045432  0.6242992145937032   T   T   T
  0.1526557760969666  0.7500117321817220  0.7389957314704155   T   T   T
  0.3985547818641370  0.7500037087621764  0.7014399175891246   T   T   T
  0.6472195338188556  0.0000000000000000  0.3601606351366584   F   F   F
  0.9003222591295312  0.0000000000000000  0.3237632067519129   F   F   F
  0.9439215071488221  0.0000000000000000  0.4377276028165085   F   F   F
  0.9009137335789050  0.0000798552456492  0.5518718899943652   T   T   T
  0.6509444325454437  0.0000227759574040  0.5103379185324413   T   T   T
  0.6941415490429174  0.9998266641882683  0.6242260130416251   T   T   T
  0.6528351398388139  0.9985266676783976  0.7384612047051800   T   T   T
  0.8990172639930876 -0.0000765938862964  0.7021460584274869   T   T   T
  0.6472195338188556  0.2499999997859135  0.3601606351366584   F   F   F
  0.9003222591295312  0.2499999997859135  0.3237632067519129   F   F   F
  0.9439215071488221  0.2499999997859135  0.4377276028165085   F   F   F
  0.9009989572676815  0.2500077628731623  0.5518530874736322   T   T   T
  0.6509233336640847  0.2500050303203305  0.5104146236388878   T   T   T
  0.6948025566725839  0.2500073935479399  0.6251726171231200   T   T   T
  0.6588753933639776  0.2500044657700013  0.7423786538905067   T   T   T
  0.8990697194312490  0.2500097093938491  0.7017271122583092   T   T   T
  0.6472195338188556  0.5000000004281731  0.3601606351366584   F   F   F
  0.9003222591295312  0.5000000004281731  0.3237632067519129   F   F   F
  0.9439215071488221  0.5000000004281731  0.4377276028165085   F   F   F
  0.9009149945619108  0.4999327744180095  0.5518715892338456   T   T   T
  0.6509423692017969  0.4999824869503869  0.5103376850463807   T   T   T
  0.6941409542652488  0.5001870724906878  0.6242274345923536   T   T   T
  0.6528392379662151  0.5014835866517456  0.7384653429793958   T   T   T
  0.8990184376871337  0.5000982579024005  0.7021449459237622   T   T   T
  0.6472195338188556  0.7500000002140865  0.3601606351366584   F   F   F
  0.9003222591295312  0.7500000002140865  0.3237632067519129   F   F   F
  0.9439215071488221  0.7500000002140865  0.4377276028165085   F   F   F
  0.9010756904160696  0.7500041343478363  0.5517960063175246   T   T   T
  0.6508973821872263  0.7500020273807820  0.5103302651007297   T   T   T
  0.6950427168324919  0.7500046001318077  0.6243849758756693   T   T   T
  0.6508279320294849  0.7500050799987914  0.7375417531900742   T   T   T
  0.8983386426061534  0.7500102688371788  0.7019293318614264   T   T   T
  0.5755827645204553  0.2500055146849727  0.8195310602842018   T   T   T
 
  0.00000000E+00  0.00000000E+00  0.00000000E+00
  0.00000000E+00  0.00000000E+00  0.00000000E+00
  0.00000000E+00  0.00000000E+00  0.00000000E+00
  0.00000000E+00  0.00000000E+00  0.00000000E+00
  0.00000000E+00  0.00000000E+00  0.00000000E+00
  0.00000000E+00  0.00000000E+00  0.00000000E+00
  0.00000000E+00  0.00000000E+00  0.00000000E+00
  0.00000000E+00  0.00000000E+00  0.00000000E+00
  0.00000000E+00  0.00000000E+00  0.00000000E+00
  0.00000000E+00  0.00000000E+00  0.00000000E+00
  0.00000000E+00  0.00000000E+00  0.00000000E+00
  0.00000000E+00  0.00000000E+00  0.00000000E+00
  0.00000000E+00  0.00000000E+00  0.00000000E+00
  0.00000000E+00  0.00000000E+00  0.00000000E+00
  0.00000000E+00  0.00000000E+00  0.00000000E+00
  0.00000000E+00  0.00000000E+00  0.00000000E+00
  0.00000000E+00  0.00000000E+00  0.00000000E+00
  0.00000000E+00  0.00000000E+00  0.00000000E+00
  0.00000000E+00  0.00000000E+00  0.00000000E+00
  0.00000000E+00  0.00000000E+00  0.00000000E+00
  0.00000000E+00  0.00000000E+00  0.00000000E+00
  0.00000000E+00  0.00000000E+00  0.00000000E+00
  0.00000000E+00  0.00000000E+00  0.00000000E+00
  0.00000000E+00  0.00000000E+00  0.00000000E+00
  0.00000000E+00  0.00000000E+00  0.00000000E+00
  0.00000000E+00  0.00000000E+00  0.00000000E+00
  0.00000000E+00  0.00000000E+00  0.00000000E+00
  0.00000000E+00  0.00000000E+00  0.00000000E+00
  0.00000000E+00  0.00000000E+00  0.00000000E+00
  0.00000000E+00  0.00000000E+00  0.00000000E+00
  0.00000000E+00  0.00000000E+00  0.00000000E+00
  0.00000000E+00  0.00000000E+00  0.00000000E+00
  0.00000000E+00  0.00000000E+00  0.00000000E+00
  0.00000000E+00  0.00000000E+00  0.00000000E+00
  0.00000000E+00  0.00000000E+00  0.00000000E+00
  0.00000000E+00  0.00000000E+00  0.00000000E+00
  0.00000000E+00  0.00000000E+00  0.00000000E+00
  0.00000000E+00  0.00000000E+00  0.00000000E+00
  0.00000000E+00  0.00000000E+00  0.00000000E+00
  0.00000000E+00  0.00000000E+00  0.00000000E+00
  0.00000000E+00  0.00000000E+00  0.00000000E+00
  0.00000000E+00  0.00000000E+00  0.00000000E+00
  0.00000000E+00  0.00000000E+00  0.00000000E+00
  0.00000000E+00  0.00000000E+00  0.00000000E+00
  0.00000000E+00  0.00000000E+00  0.00000000E+00
  0.00000000E+00  0.00000000E+00  0.00000000E+00
  0.00000000E+00  0.00000000E+00  0.00000000E+00
  0.00000000E+00  0.00000000E+00  0.00000000E+00
  0.00000000E+00  0.00000000E+00  0.00000000E+00
  0.00000000E+00  0.00000000E+00  0.00000000E+00
  0.00000000E+00  0.00000000E+00  0.00000000E+00
  0.00000000E+00  0.00000000E+00  0.00000000E+00
  0.00000000E+00  0.00000000E+00  0.00000000E+00
  0.00000000E+00  0.00000000E+00  0.00000000E+00
  0.00000000E+00  0.00000000E+00  0.00000000E+00
  0.00000000E+00  0.00000000E+00  0.00000000E+00
  0.00000000E+00  0.00000000E+00  0.00000000E+00
  0.00000000E+00  0.00000000E+00  0.00000000E+00
  0.00000000E+00  0.00000000E+00  0.00000000E+00
  0.00000000E+00  0.00000000E+00  0.00000000E+00
  0.00000000E+00  0.00000000E+00  0.00000000E+00
  0.00000000E+00  0.00000000E+00  0.00000000E+00
  0.00000000E+00  0.00000000E+00  0.00000000E+00
  0.00000000E+00  0.00000000E+00  0.00000000E+00
  0.00000000E+00  0.00000000E+00  0.00000000E+00
  0.00000000E+00  0.00000000E+00  0.00000000E+00
  0.00000000E+00  0.00000000E+00  0.00000000E+00
  0.00000000E+00  0.00000000E+00  0.00000000E+00
  0.00000000E+00  0.00000000E+00  0.00000000E+00
  0.00000000E+00  0.00000000E+00  0.00000000E+00
  0.00000000E+00  0.00000000E+00  0.00000000E+00
  0.00000000E+00  0.00000000E+00  0.00000000E+00
  0.00000000E+00  0.00000000E+00  0.00000000E+00
  0.00000000E+00  0.00000000E+00  0.00000000E+00
  0.00000000E+00  0.00000000E+00  0.00000000E+00
  0.00000000E+00  0.00000000E+00  0.00000000E+00
  0.00000000E+00  0.00000000E+00  0.00000000E+00
  0.00000000E+00  0.00000000E+00  0.00000000E+00
  0.00000000E+00  0.00000000E+00  0.00000000E+00
  0.00000000E+00  0.00000000E+00  0.00000000E+00
  0.00000000E+00  0.00000000E+00  0.00000000E+00
  0.00000000E+00  0.00000000E+00  0.00000000E+00
  0.00000000E+00  0.00000000E+00  0.00000000E+00
  0.00000000E+00  0.00000000E+00  0.00000000E+00
  0.00000000E+00  0.00000000E+00  0.00000000E+00
  0.00000000E+00  0.00000000E+00  0.00000000E+00
  0.00000000E+00  0.00000000E+00  0.00000000E+00
  0.00000000E+00  0.00000000E+00  0.00000000E+00
  0.00000000E+00  0.00000000E+00  0.00000000E+00
  0.00000000E+00  0.00000000E+00  0.00000000E+00
  0.00000000E+00  0.00000000E+00  0.00000000E+00
  0.00000000E+00  0.00000000E+00  0.00000000E+00
  0.00000000E+00  0.00000000E+00  0.00000000E+00
  0.00000000E+00  0.00000000E+00  0.00000000E+00
  0.00000000E+00  0.00000000E+00  0.00000000E+00
  0.00000000E+00  0.00000000E+00  0.00000000E+00
  0.00000000E+00  0.00000000E+00  0.00000000E+00
  0.00000000E+00  0.00000000E+00  0.00000000E+00
  0.00000000E+00  0.00000000E+00  0.00000000E+00
  0.00000000E+00  0.00000000E+00  0.00000000E+00
  0.00000000E+00  0.00000000E+00  0.00000000E+00
  0.00000000E+00  0.00000000E+00  0.00000000E+00
  0.00000000E+00  0.00000000E+00  0.00000000E+00
  0.00000000E+00  0.00000000E+00  0.00000000E+00
  0.00000000E+00  0.00000000E+00  0.00000000E+00
  0.00000000E+00  0.00000000E+00  0.00000000E+00
  0.00000000E+00  0.00000000E+00  0.00000000E+00
  0.00000000E+00  0.00000000E+00  0.00000000E+00
  0.00000000E+00  0.00000000E+00  0.00000000E+00
  0.00000000E+00  0.00000000E+00  0.00000000E+00
  0.00000000E+00  0.00000000E+00  0.00000000E+00
  0.00000000E+00  0.00000000E+00  0.00000000E+00
  0.00000000E+00  0.00000000E+00  0.00000000E+00
  0.00000000E+00  0.00000000E+00  0.00000000E+00
  0.00000000E+00  0.00000000E+00  0.00000000E+00
  0.00000000E+00  0.00000000E+00  0.00000000E+00
  0.00000000E+00  0.00000000E+00  0.00000000E+00
  0.00000000E+00  0.00000000E+00  0.00000000E+00
  0.00000000E+00  0.00000000E+00  0.00000000E+00
  0.00000000E+00  0.00000000E+00  0.00000000E+00
  0.00000000E+00  0.00000000E+00  0.00000000E+00
  0.00000000E+00  0.00000000E+00  0.00000000E+00
  0.00000000E+00  0.00000000E+00  0.00000000E+00
  0.00000000E+00  0.00000000E+00  0.00000000E+00
  0.00000000E+00  0.00000000E+00  0.00000000E+00
  0.00000000E+00  0.00000000E+00  0.00000000E+00
  0.00000000E+00  0.00000000E+00  0.00000000E+00
  0.00000000E+00  0.00000000E+00  0.00000000E+00
  0.00000000E+00  0.00000000E+00  0.00000000E+00
