Cu	N	Ru	Ta                              
   1.00000000000000     
    18.1096308199999996    0.0000000000000000    0.0000000000000000
     0.0000000000000000   23.3551997799999995    0.0000000000000000
     0.0000000000000000    0.0000000000000000   30.4818171199999988
   Cu   N    Ru   Ta
     3   240    48   192
Selective dynamics
Direct
  0.6068379999234502  0.4375752169154181  0.5770009587653024   T   T   T
  0.3960244903754926  0.4483896022254850  0.5761339622928956   T   T   T
  0.5010359873846141  0.4446718599677292  0.6288621312358816   T   T   T
  0.0000000000000000  0.0000000000000000  0.3032267788896164   F   F   F
  0.0000000000000000  0.5000000000000000  0.3032267788896164   F   F   F
  0.0000000000000000  0.6249999998929567  0.3032267788896164   F   F   F
  0.0000000000000000  0.7500000002140865  0.3032267788896164   F   F   F
  0.0000000000000000  0.8750000001070433  0.3032267788896164   F   F   F
  0.0000000000000000  0.1249999998929567  0.3032267788896164   F   F   F
  0.0000000000000000  0.2500000002140865  0.3032267788896164   F   F   F
  0.0000000000000000  0.3750000001070433  0.3032267788896164   F   F   F
  0.9989711861097400  0.1239763645366066  0.4727175895360028   T   T   T
 -0.0000472711056269  0.8749596154485991  0.4725621849975785   T   T   T
  0.0002521870021671  0.6247068051731116  0.4722540799676105   T   T   T
  0.0011321493462799  0.5000290272934402  0.4737122199059437   T   T   T
  0.0010828442406665  0.9984001975739391  0.4741790535453402   T   T   T
  0.0016893343390365  0.7496101669180593  0.4733202468037503   T   T   T
  0.0440388675149683  0.2381292007754180  0.5776702634053148   T   T   T
  0.0487174386689181  0.5809351433784622  0.5635043846651403   T   T   T
  0.5520721738836423  0.5008283044603469  0.5961413977728423   T   T   T
  0.5727022598824193  0.1301021155175329  0.5756917183176360   T   T   T
  0.5769565437173002  0.8877633268991068  0.5725912478105336   T   T   T
  0.0572669776525354  0.1292373064909030  0.5790357337738635   T   T   T
  0.5853083986401006  0.6391015442576319  0.5804604827083931   T   T   T
  0.5941133989389655  0.0000000000000000  0.2322132027803434   F   F   F
  0.5941133989389655  0.5000000000000000  0.2322132027803434   F   F   F
  0.5941133989389655  0.6249999998929567  0.2322132027803434   F   F   F
  0.5941133989389655  0.7500000002140865  0.2322132027803434   F   F   F
  0.5941133989389655  0.8750000001070433  0.2322132027803434   F   F   F
  0.5941133989389655  0.1249999998929567  0.2322132027803434   F   F   F
  0.5941133989389655  0.2500000002140865  0.2322132027803434   F   F   F
  0.5941133989389655  0.3750000001070433  0.2322132027803434   F   F   F
  0.5980571805873829  0.2506147360846229  0.4030806372867039   T   T   T
  0.5982315695661156  0.3759934147092254  0.4029825463906746   T   T   T
  0.5986151180895002  0.4998023659390443  0.4034812228282200   T   T   T
  0.5988923877599662  0.1257353508078072  0.4028013088637187   T   T   T
  0.5989720962837526  0.6247612441321923  0.4025386181059403   T   T   T
  0.5994735508861312  0.8744342492415110  0.4017006921545926   T   T   T
  0.5995382728068064  0.7494130203650170  0.4022447939340046   T   T   T
  0.5997968302725586  0.9999810719462721  0.4018631004770585   T   T   T
  0.6021786422764640  0.3570144004843514  0.5653152193973757   T   T   T
  0.6053366158425340  0.7605863283746178  0.5643475214441385   T   T   T
  0.6082076223638538  0.0015099215273591  0.5676228811974793   T   T   T
  0.6480949566995748  0.2527520172935371  0.4861914828592126   T   T   T
  0.6491037790974373  0.1246273712303723  0.4872685745184249   T   T   T
  0.6501170492203774  0.8724547996391193  0.4856920390273005   T   T   T
  0.6516479458447971  0.6236056167826181  0.4841606270558800   T   T   T
  0.6527938938376321  0.9985136959986198  0.4864899267312122   T   T   T
  0.6536562557563547  0.5002469357437173  0.4881976208638016   T   T   T
  0.6545990963497701  0.0000000000000000  0.3156671842141137   F   F   F
  0.6545990963497701  0.5000000000000000  0.3156671842141137   F   F   F
  0.6545990963497701  0.6249999998929567  0.3156671842141137   F   F   F
  0.6545990963497701  0.7500000002140865  0.3156671842141137   F   F   F
  0.6545990963497701  0.8750000001070433  0.3156671842141137   F   F   F
  0.6545990963497701  0.1249999998929567  0.3156671842141137   F   F   F
  0.6545990963497701  0.2500000002140865  0.3156671842141137   F   F   F
  0.6545990963497701  0.3750000001070433  0.3156671842141137   F   F   F
  0.6546042275423217  0.3781842952710887  0.4854326061333539   T   T   T
  0.6556048041314917  0.7490741630850477  0.4854712863764220   T   T   T
  0.7037933181244213  0.2404799125161016  0.5648027577735532   T   T   T
  0.7288093985763827  0.8794455137330317  0.5572198529412867   T   T   T
  0.7369163903032572  0.6477423454116691  0.5489172504256209   T   T   T
  0.7491365372181714  0.2498143282309976  0.3867964297085530   T   T   T
  0.7499999997239044  0.0000000000000000  0.1996562654398630   F   F   F
  0.7499999997239044  0.5000000000000000  0.1996562654398630   F   F   F
  0.7499999997239044  0.6249999998929567  0.1996562654398630   F   F   F
  0.7499999997239044  0.7500000002140865  0.1996562654398630   F   F   F
  0.7499999997239044  0.8750000001070433  0.1996562654398630   F   F   F
  0.7499999997239044  0.1249999998929567  0.1996562654398630   F   F   F
  0.7499999997239044  0.2500000002140865  0.1996562654398630   F   F   F
  0.7499999997239044  0.3750000001070433  0.1996562654398630   F   F   F
  0.7492948991009186  0.1248460426623584  0.3882656541819662   T   T   T
  0.7498618450322779  0.9999473648682492  0.3879628298951761   T   T   T
  0.7499359694514668  0.3750766928837765  0.3865817942834984   T   T   T
  0.7499425390612474  0.8749153815882559  0.3869609269114037   T   T   T
  0.7501029504833997  0.5001511965234536  0.3877372539547677   T   T   T
  0.7504496986978043  0.6249634937229491  0.3864750045642844   T   T   T
  0.7504273917267180  0.7501674245083690  0.3863901004639775   T   T   T
  0.7565231298940207  0.3684371887806180  0.5569270384042070   T   T   T
  0.7561707457930888  0.5094209793152688  0.5576399576270206   T   T   T
  0.7648781638103945  0.1321368500771744  0.5526301986199808   T   T   T
  0.7808511736366189  0.7641279476157378  0.5575497792436452   T   T   T
  0.7873860580021368  0.9983745331333124  0.5608392775687077   T   T   T
  0.0779483488685225  0.8461373096560120  0.5684874659586061   T   T   T
  0.0807951796644158  0.3507848268274619  0.5793586282674633   T   T   T
  0.0836511966759485  0.7090920855546093  0.5596796641414074   T   T   T
  0.8454009036502299  0.0000000000000000  0.3156671842141137   F   F   F
  0.8454009036502299  0.5000000000000000  0.3156671842141137   F   F   F
  0.8454009036502299  0.6249999998929567  0.3156671842141137   F   F   F
  0.8454009036502299  0.7500000002140865  0.3156671842141137   F   F   F
  0.8454009036502299  0.8750000001070433  0.3156671842141137   F   F   F
  0.8454009036502299  0.1249999998929567  0.3156671842141137   F   F   F
  0.8454009036502299  0.2500000002140865  0.3156671842141137   F   F   F
  0.8454009036502299  0.3750000001070433  0.3156671842141137   F   F   F
  0.8457075745530305  0.2456894238952611  0.4838001461613792   T   T   T
  0.8479950722717422  0.8757480656726067  0.4850001638929591   T   T   T
  0.8491972734294154  0.3733889744964414  0.4863919116140301   T   T   T
  0.8502989420281666  0.1214274719410467  0.4827902473183421   T   T   T
  0.8504317407297074  0.6298419851261988  0.4832706717272571   T   T   T
  0.8513528675449966  0.9996277475335736  0.4856813062340197   T   T   T
  0.8514251658752771  0.5012802193261479  0.4882825586166995   T   T   T
  0.8512940575580087  0.7506686577853544  0.4852790394192926   T   T   T
  0.8726778163220044  0.2495147373415463  0.5670475162714754   T   T   T
  0.8769536647689542  0.6196231024648704  0.5676184396374975   T   T   T
  0.8999485704651670  0.2492025648331005  0.4015339528689835   T   T   T
  0.9004756902544787  0.3742088092148406  0.4023025685770912   T   T   T
  0.9007523939076383  0.5000199889924748  0.4026015737591213   T   T   T
  0.9008039775366774  0.1240794094108943  0.4008056686939744   T   T   T
  0.9009378496253654  0.8751620698314120  0.4018534808911563   T   T   T
  0.9013915998335377  0.9992855371895070  0.4014890169296526   T   T   T
  0.9015156507177745  0.6249391637129306  0.4011054122531263   T   T   T
  0.9014173682475587  0.7507782382126577  0.4012933522005355   T   T   T
  0.9031889453185717  0.0939948084778107  0.5683165605503774   T   T   T
  0.9058866010610345  0.0000000000000000  0.2322132027803434   F   F   F
  0.9058866010610345  0.5000000000000000  0.2322132027803434   F   F   F
  0.9058866010610345  0.6249999998929567  0.2322132027803434   F   F   F
  0.9058866010610345  0.7500000002140865  0.2322132027803434   F   F   F
  0.9058866010610345  0.8750000001070433  0.2322132027803434   F   F   F
  0.9058866010610345  0.1249999998929567  0.2322132027803434   F   F   F
  0.9058866010610345  0.2500000002140865  0.2322132027803434   F   F   F
  0.9058866010610345  0.3750000001070433  0.2322132027803434   F   F   F
  0.9050015532790731  0.8726340302037930  0.5653133637951793   T   T   T
  0.9115105164937409  0.7335408201289346  0.5754174185125621   T   T   T
  0.9146087118451195  0.3759946133168510  0.5783631297316706   T   T   T
  0.9232089125240435  0.4928890092822012  0.5763603535337973   T   T   T
  0.0941133989389655  0.0000000000000000  0.2322132027803434   F   F   F
  0.0941133989389655  0.5000000000000000  0.2322132027803434   F   F   F
  0.0941133989389655  0.6249999998929567  0.2322132027803434   F   F   F
  0.0941133989389655  0.7500000002140865  0.2322132027803434   F   F   F
  0.0941133989389655  0.8750000001070433  0.2322132027803434   F   F   F
  0.0941133989389655  0.1249999998929567  0.2322132027803434   F   F   F
  0.0941133989389655  0.2500000002140865  0.2322132027803434   F   F   F
  0.0941133989389655  0.3750000001070433  0.2322132027803434   F   F   F
  0.9598173453056538  0.9871457760172896  0.5826772873920638   T   T   T
  0.0984758714647450  0.2494871461885105  0.4025839880370768   T   T   T
  0.0986321380822208  0.3745148804084599  0.4022912773115959   T   T   T
  0.0989629210497414  0.4998941096706072  0.4015766447404281   T   T   T
  0.0991709264104436  0.1244682601117093  0.4024031776223337   T   T   T
  0.0992372870653284  0.8750067726368785  0.4011548846937412   T   T   T
  0.9966396687995619  0.2475572512409068  0.4730007376800439   T   T   T
  0.9993510613088966  0.3727523208058270  0.4735923718465760   T   T   T
  0.0995797391566631  0.7496112659196142  0.4017828065600961   T   T   T
  0.0996237585141032  0.9996815851267588  0.4019618258964064   T   T   T
  0.0998626565637465  0.6258888756522850  0.4022547497251006   T   T   T
  0.1062547303086725  0.4772842429322893  0.5658907405567370   T   T   T
  0.1165507912030090  0.0049457058363503  0.5705892976076659   T   T   T
  0.1477367768005300  0.1245083389353543  0.4877747490232140   T   T   T
  0.1483111649234039  0.2465540128572790  0.4874691258000282   T   T   T
  0.1501529303215679  0.3748322059002606  0.4841578859129579   T   T   T
  0.1502809578276975  0.8746739236658138  0.4827139643525029   T   T   T
  0.1507754924608803  0.6255884073011334  0.4885422017348041   T   T   T
  0.1515424531198322  0.5006831571358186  0.4829025243350814   T   T   T
  0.1514376933810315  0.7529598940939137  0.4850522448173434   T   T   T
  0.1526196554353678  0.9973343076583068  0.4846108531074651   T   T   T
  0.1545990963497701  0.0000000000000000  0.3156671842141137   F   F   F
  0.1545990963497701  0.5000000000000000  0.3156671842141137   F   F   F
  0.1545990963497701  0.6249999998929567  0.3156671842141137   F   F   F
  0.1545990963497701  0.7500000002140865  0.3156671842141137   F   F   F
  0.1545990963497701  0.8750000001070433  0.3156671842141137   F   F   F
  0.1545990963497701  0.1249999998929567  0.3156671842141137   F   F   F
  0.1545990963497701  0.2500000002140865  0.3156671842141137   F   F   F
  0.1545990963497701  0.3750000001070433  0.3156671842141137   F   F   F
  0.2161893711062427  0.1165664241106871  0.5649840137718275   T   T   T
  0.2173148658504411  0.7657993120167644  0.5616539577487792   T   T   T
  0.2195401806105753  0.8951096197150726  0.5616210806663114   T   T   T
  0.2412516775500774  0.3750289784663008  0.5548689150214974   T   T   T
  0.2421121345972266  0.5110186550354600  0.5521603162664941   T   T   T
  0.2496463009762955  0.2499582061738710  0.3873735801080430   T   T   T
  0.2498293626808529  0.3749969648463527  0.3869376285894591   T   T   T
  0.2499999997239044  0.0000000000000000  0.1996562654398630   F   F   F
  0.2499999997239044  0.5000000000000000  0.1996562654398630   F   F   F
  0.2499999997239044  0.6249999998929567  0.1996562654398630   F   F   F
  0.2499999997239044  0.7500000002140865  0.1996562654398630   F   F   F
  0.2499999997239044  0.8750000001070433  0.1996562654398630   F   F   F
  0.2499999997239044  0.1249999998929567  0.1996562654398630   F   F   F
  0.2499999997239044  0.2500000002140865  0.1996562654398630   F   F   F
  0.2499999997239044  0.3750000001070433  0.1996562654398630   F   F   F
  0.2499481515651457  0.5001789057306353  0.3859792084318431   T   T   T
  0.2499905930501863  0.1247616013676686  0.3873410284199854   T   T   T
  0.2502657895748402  0.6253616732642009  0.3878065048088962   T   T   T
  0.2505665960867156  0.9998245376869457  0.3876045288319875   T   T   T
  0.2505723608071465  0.8751422227943008  0.3874142170194805   T   T   T
  0.2508129014505383  0.7501165150663591  0.3877485895111193   T   T   T
  0.2595980232466130  0.2417780894166219  0.5566949635587849   T   T   T
  0.2669262239256810  0.6468746093061863  0.5551164959183325   T   T   T
  0.2837467015804235  0.0084719547264436  0.5631452687608561   T   T   T
  0.3454009036502299  0.0000000000000000  0.3156671842141137   F   F   F
  0.3454009036502299  0.5000000000000000  0.3156671842141137   F   F   F
  0.3454009036502299  0.6249999998929567  0.3156671842141137   F   F   F
  0.3454009036502299  0.7500000002140865  0.3156671842141137   F   F   F
  0.3454009036502299  0.8750000001070433  0.3156671842141137   F   F   F
  0.3454009036502299  0.1249999998929567  0.3156671842141137   F   F   F
  0.3454009036502299  0.2500000002140865  0.3156671842141137   F   F   F
  0.3454009036502299  0.3750000001070433  0.3156671842141137   F   F   F
  0.3461263578236724  0.2515461631251652  0.4852174394140419   T   T   T
  0.3464471059746056  0.4995878639295576  0.4852154960208085   T   T   T
  0.3465626464460606  0.1234550403408296  0.4841035176751975   T   T   T
  0.3469784947099954  0.3768376658986764  0.4880990929708324   T   T   T
  0.3489348928594795  0.8735211627946683  0.4850509915966177   T   T   T
  0.3495930227790056  0.7515945023266620  0.4875177546907995   T   T   T
  0.3504114108541965  0.6250903560171063  0.4867963851147314   T   T   T
  0.3533151488799435  0.9987652739044435  0.4863154601135684   T   T   T
  0.3883940668110792  0.2722188858532832  0.5688771461094191   T   T   T
  0.3895081142669012  0.1291020395381952  0.5657489932001654   T   T   T
  0.4003829725021804  0.5275831347915415  0.5621914273280143   T   T   T
  0.4006988105779778  0.2505744241338143  0.4026430169271548   T   T   T
  0.4009112861958119  0.1252691406405973  0.4021963075443222   T   T   T
  0.4013911098468176  0.3756686932296118  0.4033299219496111   T   T   T
  0.4010377039581359  0.8752830717492515  0.4014798272282217   T   T   T
  0.4011277048455943  0.7493675134659672  0.4021779267352832   T   T   T
  0.4016139387905429  0.5000124311384314  0.4028578512800676   T   T   T
  0.4014173480901119  0.6250312667993189  0.4029285549298819   T   T   T
  0.4014733013777418  0.9999675709682232  0.4023227242285026   T   T   T
  0.4026014854983729  0.8893561698056838  0.5679941466549090   T   T   T
  0.4058866010610345  0.0000000000000000  0.2322132027803434   F   F   F
  0.4058866010610345  0.5000000000000000  0.2322132027803434   F   F   F
  0.4058866010610345  0.6249999998929567  0.2322132027803434   F   F   F
  0.4058866010610345  0.7500000002140865  0.2322132027803434   F   F   F
  0.4058866010610345  0.8750000001070433  0.2322132027803434   F   F   F
  0.4058866010610345  0.1249999998929567  0.2322132027803434   F   F   F
  0.4058866010610345  0.2500000002140865  0.2322132027803434   F   F   F
  0.4058866010610345  0.3750000001070433  0.2322132027803434   F   F   F
  0.4130976772026924  0.7535909827493474  0.5694011498766200   T   T   T
  0.4259664405502027  0.6390971231131269  0.5786481235752751   T   T   T
  0.4423080331329314  0.0009809375105145  0.5844422162815343   T   T   T
  0.4517431154665716  0.3869929933623035  0.5968582795917153   T   T   T
  0.4973302243224865  0.2522041422997746  0.4749613898505836   T   T   T
  0.4983432736963498  0.1257989455872715  0.4732693732043233   T   T   T
  0.4992177735570593  0.5012455949105737  0.4774903504592150   T   T   T
  0.5000000000000000  0.0000000000000000  0.3032267788896164   F   F   F
  0.5000000000000000  0.5000000000000000  0.3032267788896164   F   F   F
  0.5000000000000000  0.6249999998929567  0.3032267788896164   F   F   F
  0.5000000000000000  0.7500000002140865  0.3032267788896164   F   F   F
  0.5000000000000000  0.8750000001070433  0.3032267788896164   F   F   F
  0.5000000000000000  0.1249999998929567  0.3032267788896164   F   F   F
  0.5000000000000000  0.2500000002140865  0.3032267788896164   F   F   F
  0.5000000000000000  0.3750000001070433  0.3032267788896164   F   F   F
  0.5003658330146729  0.3759881459088370  0.4775157446133784   T   T   T
  0.5008599565583994  0.6247365100071658  0.4755847534892127   T   T   T
  0.5009560389293961  0.8751151573989805  0.4720519048169183   T   T   T
  0.5017631930919388  0.0007439114752052  0.4738457174317615   T   T   T
  0.5017839144425178  0.7502196429184644  0.4736191468565072   T   T   T
  0.5470006106345017  0.2433892810953409  0.5851121621890312   T   T   T
  0.0037885664853770  0.8709944699395377  0.5393498768699705   T   T   T
  0.0103588479394740  0.4943276118301477  0.5420217374857630   T   T   T
  0.0210583065809026  0.9904957819978754  0.5434252530107925   T   T   T
  0.9764561957202472  0.1227919567460546  0.5407187317416752   T   T   T
  0.6109116553640236  0.2007453797580813  0.5519104607772890   T   T   T
  0.6238789213734297  0.0744291810642860  0.5420780014457611   T   T   T
  0.6378343266298745  0.6885624969374681  0.5445219328406575   T   T   T
  0.6446660395826709  0.9315637637367972  0.5378311449955907   T   T   T
  0.6844055539952383  0.3126273654408888  0.5344670042633347   T   T   T
  0.7013357286208846  0.8044916171066137  0.5368031215019986   T   T   T
  0.7053992162248333  0.5742002333086570  0.5314602929608065   T   T   T
  0.7204743817916498  0.4387920659213078  0.5339928479376538   T   T   T
  0.7876238985145388  0.2073282770527607  0.5405023385458612   T   T   T
  0.8061078396882532  0.9280094913067559  0.5376812147331144   T   T   T
  0.8160569162780557  0.0658643370359764  0.5346249776643222   T   T   T
  0.8318048506284316  0.6875848704904817  0.5356230342763775   T   T   T
  0.8480480639412391  0.3249171502475672  0.5472355291708773   T   T   T
  0.8518310444514827  0.5453039712034599  0.5520264140183070   T   T   T
  0.8784063988666680  0.4352609907606966  0.5384925908770792   T   T   T
  0.8801028688904603  0.8014290769370688  0.5449181692292480   T   T   T
  0.9688570892005324  0.2406991910397949  0.5404093150959264   T   T   T
  0.9723359130460285  0.6138784942975364  0.5370147504056059   T   T   T
  0.9969396839535892  0.7261397527138037  0.5399568046080506   T   T   T
  0.9972044986016678  0.3655667779997003  0.5429218195086842   T   T   T
  0.1086024639933551  0.2843210471948505  0.5470118699437641   T   T   T
  0.1141797352635889  0.0808234148094036  0.5479850360924480   T   T   T
  0.1384810230091085  0.4047870667163628  0.5460544858076812   T   T   T
  0.1422960455301626  0.5478284334408000  0.5377934014317789   T   T   T
  0.1747052274950752  0.8287511871407387  0.5397952311188774   T   T   T
  0.1903642762933342  0.6961860883253032  0.5366425987908057   T   T   T
  0.1994771411039547  0.1856497859301467  0.5339959509909801   T   T   T
  0.2029307956235751  0.9658776784425238  0.5425515293062854   T   T   T
  0.2841112517124563  0.4426746188822159  0.5302810405612529   T   T   T
  0.2965288824581064  0.3120049663161064  0.5352846532630948   T   T   T
  0.2982330648895934  0.5737734229679538  0.5348047756440154   T   T   T
  0.3008150952484856  0.0835856282381455  0.5410546758779301   T   T   T
  0.3572745239376048  0.2003694107519643  0.5436568333162828   T   T   T
  0.3699818149090532  0.6859468861388480  0.5436166724104501   T   T   T
  0.3742764689877364  0.9648920102003746  0.5487176789599547   T   T   T
  0.3794142141015792  0.8202904904799191  0.5385426318134781   T   T   T
  0.4814764276538879  0.2594282932855157  0.5440764612321451   T   T   T
  0.4860671167249924  0.1261044303014632  0.5403118025918779   T   T   T
  0.4963999322320113  0.5170991243648010  0.5482084006093495   T   T   T
  0.4987970215659018  0.8852342694830824  0.5395523459089965   T   T   T
  0.5066096217327304  0.3682006429144312  0.5489391439042777   T   T   T
  0.5065564066280642  0.6284992024724597  0.5464611750620449   T   T   T
  0.5080636787741245  0.7578342479907511  0.5404902756304303   T   T   T
  0.5106188732600357  0.0062046767151288  0.5429550548905809   T   T   T
  0.0000000000000000  0.0000000000000000  0.1972002481458333   F   F   F
  0.0000000000000000  0.5000000000000000  0.1972002481458333   F   F   F
  0.0000000000000000  0.6249999998929567  0.1972002481458333   F   F   F
  0.0000000000000000  0.7500000002140865  0.1972002481458333   F   F   F
  0.0000000000000000  0.8750000001070433  0.1972002481458333   F   F   F
  0.0000000000000000  0.1249999998929567  0.1972002481458333   F   F   F
  0.0000000000000000  0.2500000002140865  0.1972002481458333   F   F   F
  0.0000000000000000  0.3750000001070433  0.1972002481458333   F   F   F
  0.9996681140604698  0.4997589500423602  0.3699499222578575   T   T   T
  0.0000150827442253  0.8750483885383937  0.3695326496657829   T   T   T
  0.0001867671235651  0.1244694316419140  0.3696974238674066   T   T   T
  0.0005943575497235  0.7500742803269591  0.3694925488357585   T   T   T
  0.0007160512097573  0.6251960189681366  0.3696258000169957   T   T   T
  0.0007594723270734  0.9996928204042241  0.3696302998269797   T   T   T
  0.5825346300460907  0.4375000002676046  0.2838671249793236   F   F   F
  0.5825346300460907  0.5625000001605613  0.2838671249793236   F   F   F
  0.5825346300460907  0.0625000001605613  0.2838671249793236   F   F   F
  0.5825346300460907  0.6875000000535181  0.2838671249793236   F   F   F
  0.5825346300460907  0.8124999999464819  0.2838671249793236   F   F   F
  0.5825346300460907  0.9375000002676046  0.2838671249793236   F   F   F
  0.5825346300460907  0.1875000000535181  0.2838671249793236   F   F   F
  0.5825346300460907  0.3124999999464819  0.2838671249793236   F   F   F
  0.5829481908099511  0.1883412325876550  0.4570355919197825   T   T   T
  0.5836828093776254  0.3142590912096050  0.4553475844876022   T   T   T
  0.5843437916761638  0.5619473860560081  0.4557642037904717   T   T   T
  0.5844341630891746  0.4386060518207205  0.4569907632843193   T   T   T
  0.5843839223967601  0.8116373409425520  0.4547969665030754   T   T   T
  0.5846678649231478  0.9371628150560621  0.4535557814263899   T   T   T
  0.5848299090895155  0.6872722168313519  0.4555664376490799   T   T   T
  0.5849558043503769  0.0624323620743672  0.4546271143235576   T   T   T
  0.6657105641648826  0.4375000002676046  0.2025710526275901   F   F   F
  0.6657105641648826  0.5625000001605613  0.2025710526275901   F   F   F
  0.6657105641648826  0.0625000001605613  0.2025710526275901   F   F   F
  0.6657105641648826  0.6875000000535181  0.2025710526275901   F   F   F
  0.6657105641648826  0.8124999999464819  0.2025710526275901   F   F   F
  0.6657105641648826  0.9375000002676046  0.2025710526275901   F   F   F
  0.6657105641648826  0.1875000000535181  0.2025710526275901   F   F   F
  0.6657105641648826  0.3124999999464819  0.2025710526275901   F   F   F
  0.6666997820990825  0.1877161223634358  0.3687311564436304   T   T   T
  0.6667942462983016  0.3126777358028362  0.3685871762557963   T   T   T
  0.6672326687543093  0.4376853072883051  0.3688694958125743   T   T   T
  0.6672937193109549  0.5623934358161587  0.3687677591159239   T   T   T
  0.6674186754114161  0.0626767784936535  0.3684378266983758   T   T   T
  0.6674550701811057  0.8123057668066662  0.3681483099400059   T   T   T
  0.6677973761122229  0.9374623211348831  0.3679692045285434   T   T   T
  0.6676897322898698  0.6873411329927503  0.3682441470440986   T   T   T
  0.7471167407380195  0.2499789530151076  0.4547585816949842   T   T   T
  0.7486931575072363  0.1248467506175021  0.4566987956673282   T   T   T
  0.7499999997239044  0.0000000000000000  0.2777865629422820   F   F   F
  0.7499999997239044  0.5000000000000000  0.2777865629422820   F   F   F
  0.7499999997239044  0.6249999998929567  0.2777865629422820   F   F   F
  0.7499999997239044  0.7500000002140865  0.2777865629422820   F   F   F
  0.7499999997239044  0.8750000001070433  0.2777865629422820   F   F   F
  0.7499999997239044  0.1249999998929567  0.2777865629422820   F   F   F
  0.7499999997239044  0.2500000002140865  0.2777865629422820   F   F   F
  0.7499999997239044  0.3750000001070433  0.2777865629422820   F   F   F
  0.7494514959869577  0.8737980392774621  0.4548641413058570   T   T   T
  0.7508859657283855  0.3750551551314544  0.4541783871136813   T   T   T
  0.7510119874480493  0.9992023555095371  0.4562102550075985   T   T   T
  0.7515395095303443  0.5019595927701834  0.4560964245090102   T   T   T
  0.7517765328656264  0.6266965993491616  0.4539720075136438   T   T   T
  0.7523292095522467  0.7508837477272879  0.4539152537873467   T   T   T
  0.0825346300460907  0.4375000002676046  0.2838671249793236   F   F   F
  0.0825346300460907  0.5625000001605613  0.2838671249793236   F   F   F
  0.0825346300460907  0.0625000001605613  0.2838671249793236   F   F   F
  0.0825346300460907  0.6875000000535181  0.2838671249793236   F   F   F
  0.0825346300460907  0.8124999999464819  0.2838671249793236   F   F   F
  0.0825346300460907  0.9375000002676046  0.2838671249793236   F   F   F
  0.0825346300460907  0.1875000000535181  0.2838671249793236   F   F   F
  0.0825346300460907  0.3124999999464819  0.2838671249793236   F   F   F
  0.0823930993239954  0.1864688580740334  0.4539339647937463   T   T   T
  0.8316241995575445  0.1871417906419283  0.3679280112299355   T   T   T
  0.8318128252181635  0.0622414946865274  0.3680786545327412   T   T   T
  0.8321900794915259  0.3122032255222270  0.3680335066928377   T   T   T
  0.8322341720525832  0.9374173001872738  0.3680588314583872   T   T   T
  0.8324761990430318  0.4374516945884852  0.3683061651722825   T   T   T
  0.8323858595773074  0.8126222630676445  0.3679056142078461   T   T   T
  0.8326596203927189  0.5624437714538520  0.3683199200570667   T   T   T
  0.8328984397527651  0.6875997280053293  0.3675533506602777   T   T   T
  0.8342894060167296  0.4375000002676046  0.2025710526275901   F   F   F
  0.8342894060167296  0.5625000001605613  0.2025710526275901   F   F   F
  0.8342894060167296  0.0625000001605613  0.2025710526275901   F   F   F
  0.8342894060167296  0.6875000000535181  0.2025710526275901   F   F   F
  0.8342894060167296  0.8124999999464819  0.2025710526275901   F   F   F
  0.8342894060167296  0.9375000002676046  0.2025710526275901   F   F   F
  0.8342894060167296  0.1875000000535181  0.2025710526275901   F   F   F
  0.8342894060167296  0.3124999999464819  0.2025710526275901   F   F   F
  0.0835194625819287  0.3112357969800446  0.4561716211931328   T   T   T
  0.0837334867196316  0.4370248070712060  0.4548026366358887   T   T   T
  0.0842747802846286  0.0615804766568339  0.4558367674873244   T   T   T
  0.0844116078721284  0.8123069285496829  0.4532455618490747   T   T   T
  0.0844466110688437  0.9370597395749363  0.4539299970639246   T   T   T
  0.0853539414493272  0.5628749269295683  0.4537408209925631   T   T   T
  0.0857653990039344  0.6876352516946953  0.4550656616983676   T   T   T
  0.9141983620637659  0.1855623525937765  0.4539591589777695   T   T   T
  0.9146957854767508  0.3109191344645404  0.4550323039796397   T   T   T
  0.9155927014265740  0.9375922701033359  0.4540505508236042   T   T   T
  0.9163526223161037  0.4369648605233086  0.4547109737334367   T   T   T
  0.9163703652945230  0.5632368408162516  0.4553410595866165   T   T   T
  0.9174653699539093  0.4375000002676046  0.2838671249793236   F   F   F
  0.9174653699539093  0.5625000001605613  0.2838671249793236   F   F   F
  0.9174653699539093  0.0625000001605613  0.2838671249793236   F   F   F
  0.9174653699539093  0.6875000000535181  0.2838671249793236   F   F   F
  0.9174653699539093  0.8124999999464819  0.2838671249793236   F   F   F
  0.9174653699539093  0.9375000002676046  0.2838671249793236   F   F   F
  0.9174653699539093  0.1875000000535181  0.2838671249793236   F   F   F
  0.9174653699539093  0.3124999999464819  0.2838671249793236   F   F   F
  0.9168111946328683  0.8130420154700070  0.4547760470971092   T   T   T
  0.9170170439758667  0.0609385596250758  0.4530762739026646   T   T   T
  0.9182880674875459  0.6884006180389336  0.4523203259568643   T   T   T
  0.9994004565981189  0.2497672265743628  0.3699959711930220   T   T   T
  0.9995679076994345  0.3747255651684196  0.3700295838812603   T   T   T
  0.1657105641648826  0.4375000002676046  0.2025710526275901   F   F   F
  0.1657105641648826  0.5625000001605613  0.2025710526275901   F   F   F
  0.1657105641648826  0.0625000001605613  0.2025710526275901   F   F   F