Cu	N	Ru	Ta                              
   1.00000000000000     
    18.1096308199999996    0.0000000000000000    0.0000000000000000
     0.0000000000000000   23.3551997799999995    0.0000000000000000
     0.0000000000000000    0.0000000000000000   30.4818171199999988
   Cu   N    Ru   Ta
     3   240    36   204
Selective dynamics
Direct
  0.5824460486505981  0.4390586834786588  0.6100751624450700   T   T   T
  0.1106547337022053  0.0698946248886199  0.5880487393698559   T   T   T
  0.4467068320727101  0.4433227216195770  0.6165498693122983   T   T   T
  0.9998446636690407  0.8741855337768907  0.4736885751826314   T   T   T
  0.0002988828998237  0.3745192585758571  0.4733419406598912   T   T   T
  0.0007546365873381  0.7508357331636546  0.3024712727493721   F   F   F
  0.0007546365873381  0.2508357331636546  0.3024712727493721   F   F   F
  0.0007971388342227  0.6259226757939587  0.3025555019798603   F   F   F
  0.0007971388342227  0.1259226757939587  0.3025555019798603   F   F   F
  0.0009289261701255  0.8759179472966139  0.3027706837052264   F   F   F
  0.0009289261701255  0.3759179472966139  0.3027706837052264   F   F   F
  0.0009959888293309  0.0008861705399639  0.3028813086718003   F   F   F
  0.0009959888293309  0.5008861705399639  0.3028813086718003   F   F   F
  0.0017797973218710  0.0003117770420577  0.4736702141599252   T   T   T
  0.0022411937825437  0.5005657617176964  0.4723726861006420   T   T   T
  0.5622050163398161  0.7610171222634037  0.5813485541942418   T   T   T
  0.5627398909500202  0.2621845098784786  0.5798663978579824   T   T   T
  0.5944407181460178  0.8759335502460033  0.2316533513143781   F   F   F
  0.5944407181460178  0.3759335502460033  0.2316533513143781   F   F   F
  0.5944879250719026  0.6260651198762730  0.2317376786361365   F   F   F
  0.5944879250719026  0.1260651198762730  0.2317376786361365   F   F   F
  0.5945319922319641  0.7509793277392376  0.2318466107902424   F   F   F
  0.5945319922319641  0.2509793277392376  0.2318466107902424   F   F   F
  0.5946973191803622  0.0011281697544092  0.2317203788144795   F   F   F
  0.5946973191803622  0.5011281697544092  0.2317203788144795   F   F   F
  0.5991879914026784  0.7516354258040701  0.4022784163654773   T   T   T
  0.5994707516253693  0.2515981455452297  0.4021494558994702   T   T   T
  0.5997888276090926  0.6265670498965934  0.4016234580152328   T   T   T
  0.6000305886140711  0.1263921467709548  0.4012335059741283   T   T   T
  0.6001821493436306  0.8760689823089438  0.4011198968650122   T   T   T
  0.6003115997246218  0.3760284276650955  0.4017012032090146   T   T   T
  0.6007438719027921  0.0013361193399315  0.4006917380103752   T   T   T
  0.6006899749643532  0.5013306506683168  0.4014113500871821   T   T   T
  0.6049053928916801  0.8759663746867848  0.5691942954405115   T   T   T
  0.6050471272471536  0.9979877026140337  0.5688564087502020   T   T   T
  0.6066729004146741  0.5010464695398873  0.5721205138520505   T   T   T
  0.6078734993866036  0.3765486490241607  0.5716191153069951   T   T   T
  0.6138225332555809  0.6421398190780672  0.5668605600305295   T   T   T
  0.6149029840247643  0.1415318853302112  0.5673844301143458   T   T   T
  0.0639882041485584  0.1403279499228639  0.5767821593094544   T   T   T
  0.6479587653510587  0.7514112659197144  0.4873458181678111   T   T   T
  0.6484079717271861  0.2497960541263033  0.4872146627359463   T   T   T
  0.6520299351131678  0.1257619037940937  0.4849329869343510   T   T   T
  0.6525228312622475  0.6268842982141820  0.4849492391702414   T   T   T
  0.6531554965317244  0.8795988188770008  0.4844429529249007   T   T   T
  0.6536949513659700  0.3785863165581215  0.4859100033646903   T   T   T
  0.6547906822775620  0.9991040971255083  0.4855796016606366   T   T   T
  0.6549923804575926  0.7511371041673840  0.3152775575080256   F   F   F
  0.6549923804575926  0.2511371041673840  0.3152775575080256   F   F   F
  0.6552059756456146  0.6260466862938543  0.3150601846403305   F   F   F
  0.6552059756456146  0.1260466862938543  0.3150601846403305   F   F   F
  0.6552570788408829  0.8758846061131820  0.3149041322638837   F   F   F
  0.6552570788408829  0.3758846061131820  0.3149041322638837   F   F   F
  0.6554052259801963  0.0012023099894023  0.3149218625060755   F   F   F
  0.6554052259801963  0.5012023099894023  0.3149218625060755   F   F   F
  0.6554959925701217  0.4992881164719004  0.4865617824599538   T   T   T
  0.0697043094151015  0.6324287197755916  0.5735332501646907   T   T   T
  0.7277177696526680  0.7618735683950354  0.5568188891022180   T   T   T
  0.7284253657394311  0.2637815988843984  0.5563117861146326   T   T   T
  0.7501854474621693  0.7509520282680178  0.3869840015106212   T   T   T
  0.7504686495412448  0.2509524910866265  0.3869109683379713   T   T   T
  0.7503837756312706  0.8759246053428527  0.1980143607002915   F   F   F
  0.7503837756312706  0.3759246053428527  0.1980143607002915   F   F   F
  0.7504065850415813  0.0010474442621131  0.1995662990185920   F   F   F
  0.7504065850415813  0.5010474442621131  0.1995662990185920   F   F   F
  0.7504116177228610  0.6259067547141299  0.1982016356247982   F   F   F
  0.7504116177228610  0.1259067547141299  0.1982016356247982   F   F   F
  0.7504539896523426  0.7509563452768688  0.1993173260006742   F   F   F
  0.7504539896523426  0.2509563452768688  0.1993173260006742   F   F   F
  0.7505786475274110  0.6259775562986635  0.3866869016393177   T   T   T
  0.7508554957556435  0.1259112689381149  0.3866703639755870   T   T   T
  0.7508432714008080  0.8762092598233043  0.3858079128732613   T   T   T
  0.7508781618677255  0.3761731821130954  0.3860902811114899   T   T   T
  0.7513356262672028  0.0009361338055054  0.3865214655344953   T   T   T
  0.7511781622525007  0.5010019085685222  0.3867076685678756   T   T   T
  0.7563532538757420  0.8817214919255769  0.5562829977380536   T   T   T
  0.7595476091507563  0.3836716550150439  0.5563428109853928   T   T   T
  0.7624794836382049  0.9977069854196418  0.5552223983212774   T   T   T
  0.7665903428030413  0.4980071869429481  0.5566099973008259   T   T   T
  0.7702942757022889  0.1385087749515595  0.5567059284292343   T   T   T
  0.7728932130175827  0.6390700198884295  0.5575676102716406   T   T   T
  0.0792351238430964  0.2466181038004796  0.5722128893263204   T   T   T
  0.0804467754468264  0.7435025762130419  0.5718272484674137   T   T   T
  0.0832480503846353  0.9948710201350633  0.5771367827142432   T   T   T
  0.8457971856104365  0.7508865770875488  0.3147238720130474   F   F   F
  0.8457971856104365  0.2508865770875488  0.3147238720130474   F   F   F
  0.8459094352758285  0.6257770200071491  0.3148105564777453   F   F   F
  0.8459094352758285  0.1257770200071491  0.3148105564777453   F   F   F
  0.8459894799777032  0.8758569369000710  0.3146601051453359   F   F   F
  0.8459894799777032  0.3758569369000710  0.3146601051453359   F   F   F
  0.8462370857983075  0.0009253177109869  0.3148622358114821   F   F   F
  0.8462370857983075  0.5009253177109869  0.3148622358114821   F   F   F
  0.8462633473824436  0.7542235205448707  0.4850592927884632   T   T   T
  0.8466689774364214  0.2544570087564452  0.4845502678701818   T   T   T
  0.8489194649500710  0.8727902448017250  0.4849681074093732   T   T   T
  0.8493246943646841  0.1247917441190666  0.4844272643547957   T   T   T
  0.8496096022888029  0.6249980166609458  0.4846450850387601   T   T   T
  0.8498476734551348  0.3731688569242476  0.4850305126340824   T   T   T
  0.8514656192822032  0.0006319129544184  0.4857408477334646   T   T   T
  0.8520509815906706  0.5012670513340871  0.4857724495103740   T   T   T
  0.0891113841972690  0.3641286414240186  0.5739852541093602   T   T   T
  0.8960127868041472  0.8704470346534420  0.5708366046490082   T   T   T
  0.8963418396775256  0.2497354135376470  0.5670041420341947   T   T   T
  0.8970948813222893  0.3704390343226704  0.5716434975369868   T   T   T
  0.8975414834309985  0.7492234461039080  0.5672276814448103   T   T   T
  0.8994559817393798  0.1080369088659508  0.5676377720470603   T   T   T
  0.0896262994663654  0.8630935335379492  0.5732250741788106   T   T   T
  0.9005489388370508  0.7505355110536946  0.4006173982300852   T   T   T
  0.9009827674242686  0.2504844763806430  0.4005282834573272   T   T   T
  0.9010773673399107  0.6257525579684039  0.4010831792185821   T   T   T
  0.9016091982799201  0.1255370570042550  0.4013249239396877   T   T   T
  0.9019305123477154  0.8759070897619299  0.4008783760574712   T   T   T
  0.9020407102796916  0.3760075229561450  0.4008050336805984   T   T   T
  0.9021888968705113  0.5006325247956493  0.4011652216863741   T   T   T
  0.9024866435786135  0.0006367242830708  0.4013336629348576   T   T   T
  0.9030119433722276  0.6069025314511808  0.5670734851690443   T   T   T
  0.9063370116785165  0.7509661375287990  0.2314450664875594   F   F   F
  0.9063370116785165  0.2509661375287990  0.2314450664875594   F   F   F
  0.9065036119825223  0.6258452416457985  0.2314281613274076   F   F   F
  0.9065036119825223  0.1258452416457985  0.2314281613274076   F   F   F
  0.9065431196901699  0.0009511492176983  0.2315080614196674   F   F   F
  0.9065431196901699  0.5009511492176983  0.2315080614196674   F   F   F
  0.9067333030259945  0.8759844438376305  0.2313964578368939   F   F   F
  0.9067333030259945  0.3759844438376305  0.2313964578368939   F   F   F
  0.9116921440202422  0.9852928409837270  0.5704320312555086   T   T   T
  0.9241512876982847  0.4841260548637188  0.5701230933747943   T   T   T
  0.0952407101582224  0.7510020395980561  0.2320892091881959   F   F   F
  0.0952407101582224  0.2510020395980561  0.2320892091881959   F   F   F
  0.0953260277450525  0.0008979764762245  0.2323666739458474   F   F   F
  0.0953260277450525  0.5008979764762245  0.2323666739458474   F   F   F
  0.0953735919394063  0.6258547564434522  0.2322437075234305   F   F   F
  0.0953735919394063  0.1258547564434522  0.2322437075234305   F   F   F
  0.0955543013107132  0.8759987254538473  0.2323923499085652   F   F   F
  0.0955543013107132  0.3759987254538473  0.2323923499085652   F   F   F
  0.0995397458825240  0.1248055696026301  0.4023106563170065   T   T   T
  0.0994351585095761  0.6251679361133101  0.4015775136644821   T   T   T
  0.0994265994904942  0.7507846944404789  0.4015939250243102   T   T   T
  0.0997325717419514  0.2505187917053259  0.4020127687625085   T   T   T
  0.9983849990130818  0.7504802507778321  0.4722441089491272   T   T   T
  0.9986727850005511  0.2502915441149524  0.4722360682284111   T   T   T
  0.9984835324352355  0.6245059834116747  0.4719196547748716   T   T   T
  0.9989984503511127  0.1243298695958790  0.4729748503927220   T   T   T
  0.1002107435367620  0.8757225252449113  0.4030488905117031   T   T   T
  0.1004906028114657  0.3755266378854213  0.4028153782442070   T   T   T
  0.1007412156707078  0.0010630894662659  0.4035235909188941   T   T   T
  0.1008705093290405  0.5011084148681727  0.4027420289214524   T   T   T
  0.1040871030822844  0.5024582462722617  0.5667604990115803   T   T   T
  0.1481029513552713  0.6283724895433282  0.4860444353508021   T   T   T
  0.1486690024175722  0.7459186684168617  0.4868544853371786   T   T   T
  0.1489099541342717  0.2458159235550990  0.4873361620010100   T   T   T
  0.1500679974540432  0.1271752752476290  0.4876803146448848   T   T   T
  0.1533663783487922  0.3761468639300861  0.4880702577898996   T   T   T
  0.1536072133087412  0.8749666263422197  0.4880992776556133   T   T   T
  0.1548006887660653  0.5013893416563742  0.4869822724432901   T   T   T
  0.1552707643325637  0.0007236200132786  0.4895878950523409   T   T   T
  0.1554278840897965  0.7509669489112838  0.3157714680232928   F   F   F
  0.1554278840897965  0.2509669489112767  0.3157714680232928   F   F   F
  0.1555300833018336  0.8760083006234964  0.3161854069282626   F   F   F
  0.1555300833018336  0.3760083006234964  0.3161854069282626   F   F   F
  0.1556347359045702  0.6258770940815310  0.3158690852351640   F   F   F
  0.1556347359045702  0.1258770940815310  0.3158690852351640   F   F   F
  0.1557688557010550  0.0008265358541948  0.3160543218953578   F   F   F
  0.1557688557010550  0.5008265358541948  0.3160543218953578   F   F   F
  0.2056597112073982  0.1156550334514105  0.5709689085717141   T   T   T
  0.2102353997675792  0.6138535857351849  0.5657946377664356   T   T   T
  0.2207663881759228  0.2510349281573919  0.5633377075163353   T   T   T
  0.2219726935262985  0.7508422835762422  0.5628552999997183   T   T   T
  0.2501337293838266  0.7512222573947773  0.3874970165866292   T   T   T
  0.2502564592275172  0.2513238888779432  0.3876709690400710   T   T   T
  0.2505429881225388  0.6255054664371726  0.3886838030399687   T   T   T
  0.2505885058919268  0.1253881890630823  0.3886584923088504   T   T   T
  0.2506886730670530  0.7509740783728773  0.1986783637654739   F   F   F
  0.2506886730670530  0.2509740783728773  0.1986783637654739   F   F   F
  0.2507303928573421  0.8760426103278647  0.2004520155719618   F   F   F
  0.2507303928573421  0.3760426103278647  0.2004520155719618   F   F   F
  0.2507887378504120  0.8753979152421014  0.3886555565741988   T   T   T
  0.2507787477911734  0.6260460958471867  0.2004465916827201   F   F   F
  0.2507787477911734  0.1260460958471867  0.2004465916827201   F   F   F
  0.2507842901460080  0.0010521164550710  0.1987081864626035   F   F   F
  0.2507842901460080  0.5010521164550710  0.1987081864626035   F   F   F
  0.2509856094158086  0.0012387562531622  0.3877121936454789   T   T   T
  0.2510548556847859  0.3755796851344919  0.3888362647954181   T   T   T
  0.2512716935941285  0.5013179037904456  0.3881126102801835   T   T   T
  0.2798806923368559  0.5016611582474475  0.5642196864583445   T   T   T
  0.2856559350438026  0.3658063975559418  0.5629048375680433   T   T   T
  0.2836900376272448  0.0022627357505962  0.5621228413741640   T   T   T
  0.2895944322062844  0.8661222467252927  0.5646067596882387   T   T   T
  0.3450581726009771  0.7520647743580906  0.4857507190707245   T   T   T
  0.3455666469105376  0.2524849953350697  0.4855380827010538   T   T   T
  0.3457709857389588  0.7509801434034244  0.3160634932646005   F   F   F
  0.3457709857389588  0.2509801434034244  0.3160634932646005   F   F   F
  0.3458124879654534  0.8762438730036024  0.3160546332285037   F   F   F
  0.3458124879654534  0.3762438730036024  0.3160546332285037   F   F   F
  0.3458692307014104  0.0011300682609701  0.3160825482309733   F   F   F
  0.3458692307014104  0.5011300682609701  0.3160825482309733   F   F   F
  0.3458914509224655  0.6260993829100983  0.3163092197569100   F   F   F
  0.3458914509224655  0.1260993829100983  0.3163092197569100   F   F   F
  0.3476277834746047  0.6268726042819617  0.4878366531373537   T   T   T
  0.3488190153294701  0.1273911310758840  0.4877203860761015   T   T   T
  0.3523105550892956  0.4974163182943814  0.4877061308428762   T   T   T
  0.3525035024665706  0.9972067517168827  0.4874845488270999   T   T   T
  0.3531115188347351  0.8786402990096941  0.4865872464257049   T   T   T
  0.3534606923505818  0.3783693849812328  0.4863801967731278   T   T   T
  0.3880002997933749  0.2533461988118934  0.5653428595944886   T   T   T
  0.3886814812219174  0.7539524432711315  0.5651550662042182   T   T   T
  0.4007761909523333  0.7517319967305675  0.4025186175917312   T   T   T
  0.4009965034866232  0.2518901393560024  0.4023981671775820   T   T   T
  0.4012775821341231  0.1260856292280663  0.4028661341911862   T   T   T
  0.4014994956253629  0.6259909535904294  0.4030491186434337   T   T   T
  0.4017923192863413  0.0017708503026207  0.4021336730871052   T   T   T
  0.4019043889939118  0.8757405236596646  0.4019377240809376   T   T   T
  0.4022353080369823  0.5017187236310996  0.4023673860334536   T   T   T
  0.4024545527173838  0.3759622639517179  0.4020740832313727   T   T   T
  0.4059113337573805  0.8760558925948985  0.2324750129594619   F   F   F
  0.4059113337573805  0.3760558925948985  0.2324750129594619   F   F   F
  0.4059234726022964  0.6261621252550071  0.2326545521246786   F   F   F
  0.4059234726022964  0.1261621252550071  0.2326545521246786   F   F   F
  0.4060644417929637  0.7510364413590125  0.2325227387887452   F   F   F
  0.4060644417929637  0.2510364413590125  0.2325227387887452   F   F   F
  0.4061374416245584  0.0011248655651599  0.2324172293308493   F   F   F
  0.4061374416245584  0.5011248655651599  0.2324172293308493   F   F   F
  0.4151856684815231  0.6149322860063630  0.5732682227698674   T   T   T
  0.4196056408553367  0.1143556847348124  0.5733931233729704   T   T   T
  0.4203991254715593  0.4985041778542800  0.5734152558937737   T   T   T
  0.4271007307277015  0.9941480985934147  0.5725668643723821   T   T   T
  0.4298635249793128  0.3835859581360364  0.5755799257382631   T   T   T
  0.4362736161120349  0.8876280708795419  0.5748398043354049   T   T   T
  0.4983060321346933  0.7520818486550277  0.4735330458176791   T   T   T
  0.4988307416668871  0.2518598981195271  0.4733763675057779   T   T   T
  0.5004630585837617  0.7510598909550410  0.3031888444713573   F   F   F
  0.5004630585837617  0.2510598909550410  0.3031888444713573   F   F   F
  0.5004977600090044  0.6261199205207575  0.3031516629609641   F   F   F
  0.5004977600090044  0.1261199205207575  0.3031516629609641   F   F   F
  0.5005209432535551  0.8761149809355189  0.3028206587442455   F   F   F
  0.5005209432535551  0.3761149809355189  0.3028206587442455   F   F   F
  0.5006083602757840  0.0011215981985515  0.3028334437431965   F   F   F
  0.5006083602757840  0.5011215981985515  0.3028334437431965   F   F   F
  0.5015754709101743  0.6273689474710912  0.4744025706331953   T   T   T
  0.5018331932375756  0.1272113017537797  0.4737148755338221   T   T   T
  0.5022406628467998  0.8769968488066925  0.4726046054530483   T   T   T
  0.5028590293794801  0.0017248380791604  0.4723682755738773   T   T   T
  0.5028278991087101  0.3770654033674419  0.4738806546728483   T   T   T
  0.5032315217605021  0.5019445964053655  0.4739026510077609   T   T   T
  0.0038996448320147  0.4986714554734916  0.5403282632673490   T   T   T
  0.9947559472224898  0.9946182427967950  0.5427803417509510   T   T   T
  0.6256614849215287  0.3012951198354541  0.5450458295341446   T   T   T
  0.6261259632197395  0.7992203319016903  0.5471070386173624   T   T   T
  0.6276927150465114  0.0678319912192309  0.5393117213337594   T   T   T
  0.6296197632639952  0.5686407641061593  0.5383054630870919   T   T   T
  0.6997431754936067  0.6876143165315843  0.5380831680181792   T   T   T
  0.6996874401263561  0.1898184666623002  0.5379627375143704   T   T   T
  0.8055401485051310  0.0661161001118540  0.5370730655481516   T   T   T
  0.8072782522942520  0.5668946684710545  0.5371556584821328   T   T   T
  0.8434861717242425  0.9362666101822246  0.5362467403749279   T   T   T
  0.8483974632622835  0.4375481287360798  0.5369903858173959   T   T   T
  0.8700137349868905  0.1783124815947192  0.5414999238821199   T   T   T
  0.8743249608020853  0.6777917677290894  0.5417825563980155   T   T   T
  0.9914193057796855  0.1199658091952760  0.5404560306423986   T   T   T
  0.9942401562653272  0.2555874302143136  0.5391839147972946   T   T   T
  0.9957994016301693  0.7542157829893190  0.5393916452129482   T   T   T
  0.9967882780770611  0.6168026155675248  0.5394680021628571   T   T   T
  0.1179167926654238  0.9329834956319598  0.5446849528240257   T   T   T
  0.1208258536543125  0.4306023435788814  0.5426236030908852   T   T   T
  0.1406612781370245  0.3046879678053744  0.5404830103874877   T   T   T
  0.1406844327361351  0.8039693335244187  0.5404936180316938   T   T   T
  0.2008304029374380  0.5430261484695290  0.5424072148440331   T   T   T
  0.2167063174916332  0.0497120227420035  0.5368731677439327   T   T   T
  0.2976691395685957  0.2946488602757183  0.5403991622685180   T   T   T
  0.2983850014125025  0.7952434167134652  0.5408024323618587   T   T   T
  0.3599949751322719  0.5562048634814645  0.5414349175999725   T   T   T
  0.3671764661205796  0.0550261065164894  0.5419655141447002   T   T   T
  0.3763277541878540  0.6794481363701623  0.5417503025503146   T   T   T
  0.3776850823592127  0.1785072022059743  0.5420636756642163   T   T   T
  0.4872582330579739  0.2527864738361472  0.5413710329242599   T   T   T
  0.4875203783347415  0.7519790706369134  0.5417391763309066   T   T   T
  0.5089052977773389  0.5011783388924284  0.5413038388694064   T   T   T
  0.5103383773133885  0.9976416980668956  0.5396987747989426   T   T   T
  0.5117405340425192  0.3835075254136752  0.5412537754546211   T   T   T
  0.5120399671410524  0.8822225597505063  0.5401263625984494   T   T   T
  0.0003102053835816  0.7509073123826289  0.3689770890981732   T   T   T
  0.0003776034439444  0.6255932797206361  0.3691044313403389   T   T   T
  0.0008199843093918  0.1255330073845846  0.3693254929963461   T   T   T
  0.0008110654058517  0.2507370609994901  0.3690863586908276   T   T   T
  0.0010343750342656  0.7509675273691911  0.1970340395507222   F   F   F
  0.0010343750342656  0.2509675273691911  0.1970340395507222   F   F   F
  0.0013074606674977  0.0009931951008113  0.1970949867046485   F   F   F
  0.0013074606674977  0.5009931951008113  0.1970949867046485   F   F   F
  0.0014056432322107  0.6258753569951239  0.1970772590869743   F   F   F
  0.0014056432322107  0.1258753569951239  0.1970772590869743   F   F   F
  0.0016982268172951  0.8758002018379557  0.3694801888127171   T   T   T
  0.0016300205284878  0.8760244032474702  0.1970602374639512   F   F   F
  0.0016300205284878  0.3760244032474702  0.1970602374639512   F   F   F
  0.0018413915885206  0.3758147145352080  0.3694106240975268   T   T   T
  0.0018937488418614  0.5006497888657611  0.3695650871926145   T   T   T
  0.0021674052949432  0.0005738928242675  0.3697861562832526   T   T   T
  0.5828489970288615  0.8134981673875430  0.2835797008416634   F   F   F
  0.5828489970288615  0.3134981673875430  0.2835797008416634   F   F   F
  0.5829043521053947  0.6885407361734863  0.2836251512160501   F   F   F
  0.5829043521053947  0.1885407361734863  0.2836251512160501   F   F   F
  0.5829602019462925  0.4385545752758304  0.2833243807611936   F   F   F
  0.5829602019462925  0.9385545752758304  0.2833243807611936   F   F   F
  0.5830265959005345  0.5635893986773652  0.2835447360626375   F   F   F
  0.5830265959005345  0.0635893986773652  0.2835447360626375   F   F   F
  0.5842774481797377  0.6896164440477697  0.4537949428975424   T   T   T
  0.5842598964825779  0.8147131184526160  0.4551633575101723   T   T   T
  0.5844821638550449  0.1889424610964819  0.4531913737006635   T   T   T
  0.5846406574565014  0.3142359480482855  0.4554696161818808   T   T   T
  0.5852200375861540  0.9392591394046655  0.4523138766011071   T   T   T
  0.5860128695112389  0.4389519424705718  0.4534417375150900   T   T   T
  0.5864423977774498  0.0632814254299291  0.4530730946865045   T   T   T
  0.5867380776797902  0.5636202204681464  0.4538530997014912   T   T   T
  0.6662453414939336  0.5635923628994988  0.2021068355520654   F   F   F
  0.6662453414939336  0.0635923628994988  0.2021068355520654   F   F   F
  0.6663404610475681  0.8134949072998268  0.2022484366903115   F   F   F
  0.6663404610475681  0.3134949072998268  0.2022484366903115   F   F   F
  0.6663750951053373  0.6883939277525641  0.2022233082671292   F   F   F
  0.6663750951053373  0.1883939277525641  0.2022233082671292   F   F   F
  0.6663864277493872  0.4383644600106251  0.2021335334354930   F   F   F
  0.6663864277493872  0.9383644600106251  0.2021335334354930   F   F   F
  0.6680509924204542  0.8135901592677994  0.3678679327345023   T   T   T
  0.6680585384815909  0.6887661072780591  0.3677146679177274   T   T   T
  0.6681457516887580  0.3136486483623294  0.3679350332771607   T   T   T
  0.6684412052632889  0.1887088638075750  0.3675898679899324   T   T   T
  0.6685230149865090  0.5637229692104617  0.3676073876514463   T   T   T
  0.6685350509108157  0.4386277715632506  0.3673356002890997   T   T   T
  0.6688271100768626  0.9386035645449783  0.3668676899921850   T   T   T
  0.6689371716377798  0.0637066797682380  0.3673746284713889   T   T   T
  0.6750284861433840  0.9355666797176789  0.5397479127595249   T   T   T
  0.6798511435042438  0.4369475777045003  0.5398578737521773   T   T   T
  0.7473076811025119  0.7522778550038709  0.4551803196902154   T   T   T
  0.7477052571404861  0.2523171455877986  0.4550072087987755   T   T   T
  0.7500199530951523  0.1256339472900778  0.4546208585348927   T   T   T
  0.7501730562611186  0.7507079098083409  0.2774330469442816   F   F   F
  0.7501730562611186  0.2507079098083409  0.2774330469442816   F   F   F
  0.7504664513229790  0.6264391762848285  0.4545989239646113   T   T   T
  0.7504750055418299  0.6259680682551618  0.2773981497465243   F   F   F
  0.7504750055418299  0.1259680682551618  0.2773981497465243   F   F   F
  0.7505173338481086  0.8759365097582545  0.2770578193141517   F   F   F
  0.7505173338481086  0.3759365097582545  0.2770578193141517   F   F   F
  0.7507337004896470  0.0010587017123740  0.2774432067716575   F   F   F
  0.7507337004896470  0.5010587017123740  0.2774432067716575   F   F   F
  0.7509718931064708  0.8755653989134518  0.4533538838771990   T   T   T
  0.7512586967367605  0.3756821584710134  0.4537161316652084   T   T   T
  0.7534176103886432  0.0006770131357355  0.4543990792413584   T   T   T
  0.7536860311869099  0.5005162144824523  0.4546075780408187   T   T   T
  0.0812529251880778  0.6876862807061704  0.4525980510842028   T   T   T
  0.0819458674746924  0.1870567621761128  0.4534275823042799   T   T   T
  0.8257996268850050  0.8144952679202718  0.5404807622204872   T   T   T
  0.8270755523692250  0.3149494990642399  0.5402588507733018   T   T   T
  0.8322732191513431  0.6883284846209625  0.3670532032179864   T   T   T
  0.8323443873980478  0.8133620791473062  0.3669743547491100   T   T   T
  0.8324994950607284  0.3133788990747939  0.3669384212178263   T   T   T
  0.8326005221263614  0.1882422652271439  0.3671041305309941   T   T   T
  0.8329280286933766  0.5633544552853336  0.3672295113591698   T   T   T
  0.8331688376613242  0.0633037378788147  0.3673363212659601   T   T   T
  0.8332721763669506  0.4383760277717491  0.3671756508729343   T   T   T
  0.8334218056168585  0.9383834274083610  0.3671603511540725   T   T   T
  0.8344344719226058  0.6883603527882158  0.2020465356692611   F   F   F
  0.8344344719226058  0.1883603527882158  0.2020465356692611   F   F   F
  0.8344691253071090  0.4383027932291981  0.2021423465583752   F   F   F
  0.8344691253071090  0.9383027932291981  0.2021423465583752   F   F   F
  0.8345236995836203  0.8136019065986346  0.2020593032807980   F   F   F
  0.8345236995836203  0.3136019065986346  0.2020593032807980   F   F   F
  0.8345432068835521  0.5635442939465207  0.2020614199525141   F   F   F
  0.8345432068835521  0.0635442939465207  0.2020614199525141   F   F   F
  0.0835181835032017  0.8134609632527869  0.2839000862688721   F   F   F
  0.0835181835032017  0.3134609632527869  0.2839000862688721   F   F   F
  0.0836480050342630  0.5633752300961916  0.2839758639034855   F   F   F
  0.0836480050342630  0.0633752300961916  0.2839758639034855   F   F   F
  0.0836768758602418  0.6884091217994310  0.2837888281379435   F   F   F
  0.0836768758602418  0.1884091217994310  0.2837888281379435   F   F   F
  0.0836920180794749  0.4383888699923588  0.2841732146708722   F   F   F
  0.0836920180794749  0.9383888699923588  0.2841732146708722   F   F   F
  0.0849034293719251  0.8124866762066806  0.4544688483674551   T   T   T
  0.0850234634481432  0.3124015625060001  0.4545751420836310   T   T   T
  0.0856159872819748  0.5635773014000803  0.4551095817694628   T   T   T
  0.0863307647106019  0.0627201430142719  0.4562212700472275   T   T   T
  0.0861498638144281  0.4380792180368607  0.4550033458361613   T   T   T
  0.0870466732022979  0.9378293418787041  0.4564736351519660   T   T   T
  0.9145701697073004  0.6887467117773872  0.4536726580422565   T   T   T
  0.9149215595884828  0.1886216501732559  0.4537161221588354   T   T   T
  0.9165461890026025  0.8125485604613033  0.4518731736116376   T   T   T
  0.9171337993480566  0.3126167241549890  0.4518043752363356   T   T   T
  0.9173623266140105  0.5628612967009382  0.4528829142262296   T   T   T
  0.9179892172287156  0.0625914271241286  0.4533622169273119   T   T   T
  0.9180292492238548  0.4377922321698250  0.4534719596739022   T   T   T
  0.9182182666294756  0.9377762836068866  0.4534711481370625   T   T   T
  0.9181839152478091  0.6884040565462470  0.2831378587445599   F   F   F
  0.9181839152478091  0.1884040565462470  0.2831378587445599   F   F   F
  0.9183594213103916  0.8134327656776748  0.2832265145484243   F   F   F
  0.9183594213103916  0.3134327656776748  0.2832265145484243   F   F   F
  0.9184058656586132  0.5633566590711467  0.2833389507587185   F   F   F
  0.9184058656586132  0.0633566590711467  0.2833389507587185   F   F   F
  0.9185001265531056  0.4384185648785746  0.2832681567508857   F   F   F
  0.9185001265531056  0.9384185648785746  0.2832681567508857   F   F   F
  0.9916436782917717  0.8666606410584999  0.5418770724174029   T   T   T
  0.9921141038090820  0.3672878915766376  0.5418882341451048   T   T   T
  0.1505281456606758  0.1833327005678940  0.5452965907864111   T   T   T
  0.1524742582562165  0.6817443296376802  0.5435783047706012   T   T   T
  0.1667765378554549  0.5633392265506032  0.2026421323795375   F   F   F
  0.1667765378554549  0.0633392265506032  0.2026421323795375   F   F   F
  0.1668059973185052  0.6886073834303943  0.2025943133799615   F   F   F
  0.1668059973185052  0.1886073834303943  0.2025943133799615   F   F   F
  0.1668155121452699  0.8133424731509606  0.2025799106952988   F   F   F
  0.1668155121452699  0.3133424731509606  0.2025799106952988   F   F   F
  0.1668272738427916  0.4386259927766716  0.2026791524822329   F   F   F