Ru                                      
   1.00000000000000     
     2.7155795390853510    0.0000000000000000    0.0000000000000000
    -1.3577897695426748    2.3517608668451508    0.0000000000000000
     0.0000000000000003    0.0000000000000005    4.2844610823658957
   Ru
     2
Direct
  0.3333333333333357  0.6666666666666643  0.7500000000000000
  0.6666666666666643  0.3333333333333357  0.2500000000000000
 
  0.00000000E+00  0.00000000E+00  0.00000000E+00
  0.00000000E+00  0.00000000E+00  0.00000000E+00
