Ta  N  W Cu                             
   1.00000000000000     
    18.1096308199999996    0.0000000000000000    0.0000000000000000
     0.0000000000000000   23.3551997799999995    0.0000000000000000
     0.0000000000000000    0.0000000000000000   30.4818171199999988
   Ta   N    W    Cu
   228   240    12     4
Direct
  0.9996312897897326  0.0000206994883172  0.1973595525946692
  0.3339156276356263  0.0626442619332934  0.2025592311996434
  0.1656132140906692  0.0625944910803753  0.2025852781968069
  0.2496894386449000  0.1251252641962850  0.2778087405113325
  0.0823739450588832  0.0625773637470957  0.2838648201085405
  0.4168502161995065  0.0625767074201846  0.2838956754012116
  0.9997440933686050  0.1250181989785233  0.3696736522906789
  0.3321868573559996  0.0625725127577681  0.3682666920089304
  0.1670361759957473  0.0625861203095894  0.3681427170307927
  0.2500985433594138  0.1252743490001009  0.4548554122747319
  0.0836984513968702  0.0625282968797976  0.4543658019316652
  0.4160020534760918  0.0624598414937410  0.4542305649053944
  0.0000514297250547  0.1251578166927558  0.5406764604518415
  0.3349341766445235  0.0626763948736837  0.5418071147904300
  0.9996657839853995  0.1250764780728275  0.1973824529598147
  0.3339725963928117  0.1876250855204589  0.2026261150786155
  0.1656019442667187  0.1875733033432851  0.2026277557663931
  0.2497804949398130  0.2500672392479615  0.2778575364941176
  0.0823265102377277  0.1875715641209084  0.2838344715849530
  0.4169161505950072  0.1875976710368974  0.2839598843397013
  0.9997800413292026  0.2500593184457145  0.3696766021617748
  0.3322967453650136  0.1875310311980556  0.3683001121844995
  0.1672745306922110  0.1875405177907155  0.3681275345069395
  0.2501811402664202  0.2497287478440029  0.4548136981474968
  0.0834131374874829  0.1874810331304957  0.4544211271676986
  0.4159824072512990  0.1873453814305819  0.4542813424497893
  0.0004060460493065  0.2498117409207978  0.5405887364684503
  0.3355768749864865  0.1865615623589392  0.5411949252792994
  0.1652769198391084  0.1874434531036542  0.5416515064340999
  0.9996494032278491  0.2500760216280469  0.1973872842787472
  0.3339533165884774  0.3126873636375151  0.2026537345591350
  0.1656761896683392  0.3126395770505397  0.2026371750092721
  0.2497696953516026  0.3751348665376213  0.2778158435515721
  0.0823011439731118  0.3125768414315360  0.2837907411193328
  0.4169135260508980  0.3125947234751933  0.2840366872211675
  0.9997856199752562  0.3750234347638042  0.3696599818086668
  0.3324094446411010  0.3125647792220079  0.3685300739941368
  0.1673082060732369  0.3125789676223221  0.3680052916740237
  0.2499860148233068  0.3754308503085326  0.4548152009944957
  0.0836427139876577  0.3124898738966309  0.4540779700891093
  0.4162336311580717  0.3124134613239207  0.4546617935904536
  0.0004768135196116  0.3750728233311520  0.5402032969824120
  0.3324781019666290  0.3116600646477394  0.5415784267845254
  0.9996171578813460  0.3751689632982291  0.1973282387472750
  0.3339459717858375  0.4376178555159242  0.2026723414092686
  0.1657071455772439  0.4375818985619659  0.2026573139565571
  0.2496469167958253  0.0000877400238650  0.2777685622991868
  0.0822327423094151  0.4376358402985261  0.2838159884834184
  0.4169541051578491  0.4375987457331263  0.2840630384635219
  0.9996699910715705  0.0001029354769457  0.3696773782822618
  0.3324124483120912  0.4376339901813964  0.3685299223786984
  0.1673688076271276  0.4376635049458102  0.3680296729079728
  0.2501986449956917  0.9997032418850651  0.4548111979653982
  0.0832463756291659  0.4376235718631776  0.4541801093213707
  0.4160224386441769  0.4376264487508976  0.4544575578735603
  0.9999283632784994  0.0000373473850956  0.5409135247565189
  0.3311661329789288  0.4376378716315088  0.5400775151725199
  0.1638446844847223  0.4376986219289520  0.5413762702836209
  0.9995824158820596  0.5001680038323784  0.1973561975957594
  0.3340181530251272  0.5626237052555254  0.2026374752415236
  0.1655839315137300  0.5625877160344857  0.2026217202937133
  0.2497240922672077  0.6251177007464790  0.2778879445394082
  0.0822442316325009  0.5626483280359764  0.2838373253922342
  0.4168809442554533  0.5625896299942781  0.2840694687273952
  0.9996164506585572  0.6252002387884019  0.3697046016289391
  0.3323563904285791  0.5627016345572287  0.3685289488516261
  0.1672175402625484  0.5627407363335166  0.3680327284658347
  0.2498573505216157  0.6256013454386533  0.4548415721364378
  0.0834606182310225  0.5628031194766479  0.4541035501613777
  0.4160805049070433  0.5627381575943815  0.4547982017612284
  0.0001987745832253  0.6254260972018599  0.5405164123888468
  0.3327735945374499  0.5639900839283598  0.5416055937395186
  0.9995393616478125  0.6250684334620047  0.1974449536343883
  0.3339507501163936  0.6875691326011122  0.2026545721452777
  0.1656286298461680  0.6875574020987614  0.2026466060593251
  0.2496337139308267  0.7500979276143340  0.2778336727346229
  0.0822766607195788  0.6876380575373773  0.2838512840802565
  0.4168445007100061  0.6875860367878985  0.2840180013865563
  0.9995587937346357  0.7502208416171783  0.3697111984781571
  0.3321713959903292  0.6876986516434869  0.3683906539635871
  0.1670642622637146  0.6877585720706989  0.3681589805512502
  0.2499657579531629  0.7499190111149900  0.4548035954554308
  0.0831745024078145  0.6878266287057215  0.4543908478900676
  0.4160160031534943  0.6877729825644820  0.4544528059883604
  0.9997964623406830  0.7501369184801163  0.5408162986550593
  0.3350949019551379  0.6881614470828623  0.5414190458809003
  0.1649771878321644  0.6878882771078381  0.5416516768903819
  0.9995512512761380  0.7501363222471937  0.1974237065133266
  0.3339314478919704  0.8126036649905402  0.2025896551262676
  0.1656194485248648  0.8125769629653306  0.2026323677537718
  0.2495827702591171  0.8751575880950639  0.2777655447420742
  0.0822837220737540  0.8126354026235205  0.2838638721329474
  0.4167871037166080  0.8126039117071500  0.2839333538970621
  0.9996066108918882  0.8751636828579024  0.3696888216050596
  0.3320674402275330  0.8126747799135430  0.3682931760341788
  0.1669167778996581  0.8127300175477359  0.3681443590296496
  0.2498700538642709  0.8755779112996009  0.4548570215031020
  0.0835137565412793  0.8127688609616968  0.4543957104739249
  0.4157858261813629  0.8128009399412122  0.4542140901308969
  0.9998182392342798  0.8752478946292470  0.5408546487812345
  0.3346130004534231  0.8133543408743478  0.5417070992092121
  0.9995826225533762  0.8751524957827215  0.1973939253565433
  0.3339504457859945  0.9376068119366110  0.2025296121687887
  0.1656000030723064  0.9375767928443324  0.2025554802235874
  0.2497701674721640  0.5001656964495922  0.2778553752440160
  0.0823110933438116  0.9376060454048414  0.2838511215878441
  0.4168180040473501  0.9375796860794594  0.2839181154923338
  0.9997318181008978  0.5002008496192758  0.3696800785487753
  0.3320551599214667  0.9376171541115070  0.3682671678183098
  0.1670168495878954  0.9376271015854769  0.3682086248982941
  0.2498685106650811  0.4998680492000958  0.4548301307747522
  0.0832686121221684  0.9376450781790524  0.4544746928077004
  0.4159363464290777  0.9375571694108942  0.4541966241212663
  0.0004442415298840  0.5000762842469584  0.5402021184955359
  0.3353238291006733  0.9373395816596428  0.5415750797569601
  0.1653709197466426  0.9376842175779885  0.5417628614432459
  0.4997537124228515  0.0000581712890835  0.1974250979085213
  0.8338371180507806  0.0626589223883869  0.2026458994660914
  0.6655817261786368  0.0625890419213633  0.2026291821291011
  0.7496241204272920  0.1250915141001769  0.2779181651915437
  0.5824886331479462  0.0625755751438462  0.2839611394419634
  0.9169008749813941  0.0625880003162607  0.2839251573033295
  0.4997708939143806  0.1249704103318123  0.3696984426006296
  0.8322864998349786  0.0625630307703133  0.3682286175013445
  0.6671359611409144  0.0625506867141397  0.3683819140386788
  0.7495000790096640  0.1252409504969307  0.4550047235969927
  0.5834627595150508  0.0624396365473885  0.4543423505796937
  0.9158906077295086  0.0624788245147911  0.4543962051045156
  0.4999506353993581  0.1251050361483337  0.5413531845508714
  0.6647257628558165  0.0623385946903383  0.5418966706504875
  0.4997752843878658  0.1251120881779073  0.1974507685290874
  0.8338364205678914  0.1876228937827378  0.2026988751325902
  0.6655406058688413  0.1875586851768674  0.2027079212421157
  0.7495058392907623  0.2500654232330533  0.2779816029671167
  0.5824277522320926  0.1875873333292191  0.2840278336093220
  0.9169299989074631  0.1875842384955035  0.2839127718507157
  0.4997679499781924  0.2498969955156198  0.3697914828990818
  0.8321649262365298  0.1875116197042530  0.3682763677470220
  0.6671046936574854  0.1875073484109748  0.3685161383728612
  0.7493379335653998  0.2495910552666487  0.4551102548493873
  0.5833715735528315  0.1872985011106891  0.4545713389974537
  0.9163005994396158  0.1874238270851620  0.4544221125593637
  0.8351066904178595  0.1872709892809752  0.5415949558421715
  0.6647203763691110  0.1857695615910231  0.5419424319019299
  0.4997485477694923  0.2501423703064276  0.1975367795520810
  0.8337592889190120  0.3127041370777306  0.2027149320658523
  0.6655361706441951  0.3126022926852556  0.2027631065634168
  0.7494877987337460  0.3751089486437422  0.2780016551900388
  0.5824647406576346  0.3125799425248843  0.2841221177430029
  0.9169318945442626  0.3125894660946997  0.2838860797286813
  0.4997566566923055  0.3751196754943464  0.3699817421072211
  0.8321192538671909  0.3125255589597344  0.3681538655361649
  0.6669270822757341  0.3125408170262389  0.3687494355662295
  0.7496051180291161  0.3753574507769883  0.4550253674094193
  0.5831437727739157  0.3123980146153329  0.4549587851499197
  0.9161437890265205  0.3124160259368693  0.4541265789278697
  0.4988313269345710  0.3744263754516552  0.5417828198441654
  0.6700367988698872  0.3113292060306279  0.5407132112706918
  0.4997733716676436  0.3751618881190808  0.1975697092316437
  0.8337241488989804  0.4376400281709962  0.2027336935352224
  0.6655328613128333  0.4375741531730171  0.2027922164118721
  0.7496271851422094  0.0000722731682288  0.2778960782034403
  0.5823642451829940  0.4375734966573646  0.2841634072585890
  0.9169534722077941  0.4376289089872643  0.2839002218703683
  0.4996829960233171  0.0000050359707728  0.3695659324153482
  0.8320639256779998  0.4375927609409658  0.3682101950435595
  0.6668580871247869  0.4375846212029444  0.3688219364481782
  0.7493085914652582  0.9996627461868641  0.4549199807522513
  0.5829932339886881  0.4376203162783128  0.4549799051347563
  0.9165276496319024  0.4375727451800628  0.4541636388593346
  0.8371981498135099  0.4375399491341270  0.5411830128344590
  0.6702669584052856  0.4375035604719741  0.5405502925392511
  0.4997745996992435  0.5001202807927925  0.1975809677686584
  0.8337909874747638  0.5626024351550853  0.2027240901743284
  0.6654489144842515  0.5625497368140060  0.2027935929196190
  0.7494107513527126  0.6250624876619995  0.2780912915494511
  0.5823912783780330  0.5625678698519678  0.2841882242831062
  0.9168800606221907  0.5626298721303442  0.2839383611990272
  0.4996413479754480  0.6251956336676159  0.3699479099437468
  0.8320280723047304  0.5626674445207911  0.3681988727710817
  0.6668192853587129  0.5626248936473530  0.3687992399471298
  0.7492987761936405  0.6255934685787352  0.4551852663547749
  0.5830426373703119  0.5627105639402430  0.4551094524177017
  0.9160808223351466  0.5627633735003741  0.4541719897827434
  0.4986191136377300  0.6239621767306005  0.5421110594447995
  0.6697386333999304  0.5638687285375283  0.5407922903221944
  0.4997862105058317  0.6250431082344079  0.1975729584944119
  0.8337104041266912  0.6876001744233875  0.2027572647658005
  0.6655573008151947  0.6875262584385098  0.2028207345505990
  0.7494838482011446  0.7500876425840062  0.2780160116624444
  0.5823621013041134  0.6875595267218202  0.2841444476116948
  0.9168184353595876  0.6876530551094504  0.2839858063744103
  0.4996329128564483  0.7501552337519541  0.3697202540389100
  0.8320817555945084  0.6876926371704997  0.3683477527460610
  0.6669798706331775  0.6876295956400185  0.3686571166100876
  0.7492828164556755  0.7498481790260385  0.4550189710918318
  0.5830097528117832  0.6877740346497703  0.4547410228027147
  0.9161212930851264  0.6877915323219668  0.4544328698880733
  0.8349752033219104  0.6877981377957596  0.5417008829093675
  0.6647114322549612  0.6888907385942815  0.5421496796897429
  0.4997580146561802  0.7500392133941531  0.1975229091037534
  0.8337493935858902  0.8126230277359738  0.2027286144227247
  0.6655672918713051  0.8125625443517990  0.2027315811506014
  0.7496064130871574  0.8751489857417383  0.2779329355947979
  0.5824236049645961  0.8125955724521532  0.2840134028710040
  0.9168287463106708  0.8126382937988836  0.2839724342061487
  0.4996223923738583  0.8751731524208637  0.3696600022699599
  0.8321911818616030  0.8126903603225841  0.3682673019840550
  0.6670688272153171  0.8126223876551606  0.3684324990705719
  0.7494179828823206  0.8754983529474316  0.4549779165388799
  0.5833884611264537  0.8127635816283885  0.4543338012408356
  0.9157147993463255  0.8127317641692571  0.4544586378275284
  0.4996315388566401  0.8749363742639105  0.5413968502950510
  0.6644904903334776  0.8134964003819931  0.5418391643409990
  0.4997502416294850  0.8751152791073551  0.1974568830807186
  0.8338587238106996  0.9376190383716434  0.2026167277230897
  0.6655441296623223  0.9375641994887118  0.2026229408922831
  0.7494229911089079  0.5001384017560468  0.2780631790780888
  0.5824163472643917  0.9375762230020968  0.2839760807971530
  0.9168978048610512  0.9376183792806430  0.2839262318542879
  0.4997004015665496  0.5001242185076933  0.3699611771889408
  0.8322076838612631  0.9376093041205067  0.3682979332592495
  0.6671877651026890  0.9375809532477390  0.3683602311116232
  0.7496353431132405  0.4998133129620754  0.4550353201109871
  0.5833503434998448  0.9375365350338001  0.4542759805000287
  0.9161004234947612  0.9376160564400919  0.4545184114721934
  0.8341868220503841  0.9375957275348270  0.5418560791879514
  0.6641127568445455  0.9372464623256391  0.5416847899272739
  0.4052903217626067  0.0000850530477479  0.2321811156249041
  0.2497723279170785  0.0001008716393756  0.1992797108488986
  0.0940457066798146  0.0000733581080965  0.2321328039820187
  0.1546019307813538  0.1250972816174212  0.3155719352547166
  0.9996565892041502  0.1250679399456516  0.3030105837227737
  0.3447558438015292  0.1251186674867100  0.3156799891748250
  0.4006801703302969  0.1250143548753186  0.4021649755336085
  0.2496240013228146  0.1250428829399581  0.3870932702149901
  0.0988364014557135  0.1250772908239881  0.4021543260551184
  0.1521569737496264  0.1248827426878094  0.4874351592086938
  0.9998381224418935  0.1247926777454182  0.4727851446266698
  0.3481858061766658  0.1247201686464976  0.4876909139865617
  0.4023557333395900  0.1252935005945943  0.5702582842701318
  0.2488981769749969  0.1239100302583296  0.5574209743348462
  0.0985883964306851  0.1230731287740028  0.5693401960185867
  0.4053288391584502  0.1251160444519783  0.2321929122015476
  0.2497744869710274  0.1251183319317519  0.1992024749153742
  0.0940535809259373  0.1250723536688270  0.2321452447579588
  0.1546675917989973  0.2500766524498914  0.3155354507414430
  0.9996554080705522  0.2500880032055193  0.3030180444710666
  0.3448191230096711  0.2501133976129282  0.3157744538783760
  0.4007840951859052  0.2500214137517816  0.4022451339837119
  0.2496987944507509  0.2500410102265889  0.3870883364906916
  0.0989505233689059  0.2499575362209185  0.4020497839240846
  0.1521677582632464  0.2502055614945817  0.4873885237992468
  0.9999284185128658  0.2501664512722925  0.4726908245953396
  0.3479968710818255  0.2499248075181697  0.4876872979311173
  0.4051109507844544  0.2502731396016173  0.5693369377869502
  0.2490677189321957  0.2513681696824364  0.5578505085168501
  0.0986820941102380  0.2520152626256547  0.5694794604056028
  0.4053036371238861  0.2501412768593170  0.2322855916657716
  0.2497857364745784  0.2501144631576437  0.1994644725148760
  0.0940410373398990  0.2500938609756602  0.2321444579849370
  0.1547200058567952  0.3751313311250470  0.3155183411989384
  0.9996454305180364  0.3750887973511254  0.3030192418653996
  0.3447594030850922  0.3751366887426286  0.3158459119734758
  0.4007574572035821  0.3750757042559911  0.4023986921318325
  0.2496066479777710  0.3750764909424902  0.3871641783630508
  0.0989515827458760  0.3751248911999312  0.4019041977743782
  0.1516550914815156  0.3749378214542816  0.4871600248272401
  0.9999536690607727  0.3747676726987308  0.4723120631381903
  0.3481299335692398  0.3748822473108291  0.4877785865372033
  0.3979353606493774  0.3746420189153312  0.5709586324135927
  0.2471764400237433  0.3739552014027510  0.5572606153878894
  0.0981614913237152  0.3728786706066316  0.5694564534006616
  0.4053148531628352  0.3751367555236911  0.2323216035671933
  0.2497903016935936  0.3751143663826753  0.1991270604409223
  0.0939588643421274  0.3751243209801487  0.2321257544101059
  0.1545646591061001  0.0000778397883892  0.3155757572321605
  0.9996421676268810  0.0001083671962263  0.3030094361850857
  0.3446604034821306  0.0000995122755612  0.3156300581982023
  0.4005459998065746  0.0000191329405013  0.4020127362503558
  0.2495953978450842  0.0001395296317739  0.3870428569029158
  0.0987665410511553  0.0000769256344810  0.4021976024615128
  0.1523092148944372  0.0002316559686335  0.4875798416409722
  0.9997445615426415  0.0002735828928024  0.4730050280687763
  0.3481016396625236  0.0000709057615822  0.4876774476737964
  0.4068655274740962  0.9998122941703897  0.5693327073120642
  0.2496076665828681  0.0012696375739978  0.5579904403969849
  0.0986316296278389  0.0021899519751543  0.5694997317135417
  0.4053145731721699  0.5001045269128923  0.2323426095429681
  0.2497967535255725  0.5001479818177472  0.1994703156783117
  0.0939705156635640  0.5001153525560156  0.2321503160316851
  0.1545784541292292  0.6252120350484134  0.3155551224114390
  0.9995779543868082  0.6251412830424670  0.3030436362070574
  0.3447109596010307  0.6251205619666322  0.3158199448803600
  0.4006104330362987  0.6251640987901510  0.4024184696093940
  0.2495397575872147  0.6252301716926638  0.3871572390136038
  0.0987809193693323  0.6253207809047581  0.4020379600471244
  0.1517456433940225  0.6251068601181800  0.4873531487818497
  0.9997408087520370  0.6251245617710808  0.4725747095968771
  0.3479218344077779  0.6254141900583434  0.4878090799040820
  0.4004204934234252  0.6251874856090538  0.5704862264483026
  0.2479810108970852  0.6238791471030609  0.5573693959021426
  0.0983735848349738  0.6233081961124043  0.5694298087006828
  0.4053387509543498  0.6250626718656420  0.2323227591965349
  0.2497780328995987  0.6250667021203498  0.1993465279229056
  0.0939996797039484  0.6250966770494344  0.2321518760319066
  0.1545192397522896  0.7501664414174130  0.3155761954225653
  0.9995658133110936  0.7501493490772617  0.3030480504214026
  0.3446288290266750  0.7501143391476717  0.3157040992035078
  0.4005210660956919  0.7501437519060659  0.4020935649288262
  0.2495139749056108  0.7502286029091962  0.3870483515853351
  0.0986890569748482  0.7502712875000199  0.4021755933292042
  0.1520842170736856  0.7503858832218882  0.4875124550546559
  0.9996247721200717  0.7504753383090232  0.4729190995298680
  0.3478295311114508  0.7503876931877898  0.4875852230622044
  0.4066063316554107  0.7499346484783729  0.5691377696798128
  0.2493294689101901  0.7512603780362852  0.5579193725289571
  0.0983776689879576  0.7523039972185757  0.5694792594047300
  0.4052950389561474  0.7500696019353583  0.2322460950171248
  0.2497812076231725  0.7500761207544926  0.1992835129157342
  0.0939862645815595  0.7501101157436665  0.2321345167966200
  0.1545222086554290  0.8751606317037286  0.3155887376363609
  0.9996010948780096  0.8751265007754014  0.3030157634447050
  0.3446287689926422  0.8751088702950724  0.3156672979740733
  0.4004824147962935  0.8751910586666014  0.4021598514152771
  0.2494311784777423  0.8751235245215270  0.3870801308825804
  0.0986510021455160  0.8752132019010617  0.4022007750837773
  0.1519692758642464  0.8750873584202381  0.4875130430908854
  0.9996434827487590  0.8750177019318528  0.4729422641929872
  0.3480064378387127  0.8752588599999811  0.4878123094162774
  0.4020146060846486  0.8752464764431522  0.5703650325195682
  0.2487106757935749  0.8738813591481076  0.5574961574238984
  0.0984054816417697  0.8731986678207235  0.5694187541358602
  0.4052855054772664  0.8751037958914551  0.2321982753659384
  0.2497848872391586  0.8750942509772557  0.1991999033345735
  0.0940283497424161  0.8751051344988028  0.2321384791912777
  0.1546599731864546  0.5001391839551772  0.3155189930900661
  0.9996125777465252  0.5001582190293234  0.3030265368167946
  0.3447974894699186  0.5000797550089899  0.3158545292097301
  0.4007809209664899  0.5001603177781746  0.4024194943928023
  0.2496541074714926  0.5002181126333340  0.3871518666369482
  0.0989159776051167  0.5001610698687315  0.4019494503549339
  0.1516448375786155  0.5004072594607436  0.4872539187651697
  0.9998920417275627  0.5004165753191074  0.4723392869256386
  0.3478617329105305  0.5002927061070821  0.4876901701064753
  0.4005336435053479  0.5010974427283656  0.5701215074186621
  0.2474260388330976  0.5011462328608047  0.5576439226599845
  0.0980538780064322  0.5023344224557320  0.5694850991318603
  0.9052883423343161  0.0001012991323037  0.2322192129836509
  0.7497117938269753  0.0001016770809272  0.1994039425147420
  0.5941487457876704  0.0000609505422418  0.2322498412619680
  0.6545692277889330  0.1251330960547676  0.3158217906024916
  0.4996734822885927  0.1250725594437867  0.3030061144263314
  0.8446899580316654  0.1250994153199159  0.3156702190753933
  0.9006839359018954  0.1250324830475407  0.4021932138000892
  0.7497875976088082  0.1250043672655750  0.3872448740284824
  0.5987442958723790  0.1250350552717734  0.4023459754243319
  0.6513828875894134  0.1247096983553533  0.4879661389969598
  0.4997313387711202  0.1248053980719561  0.4734004046330185
  0.8475301322662787  0.1247832643361306  0.4874969342477939
  0.9014267941404981  0.1227547693379307  0.5693713250502270
  0.7508315680744602  0.1242533871105849  0.5574757841840139
  0.5976660331596975  0.1250648198885571  0.5706427214217413
  0.9053402636405536  0.1251040682817077  0.2322234236391623
  0.7496953852183594  0.1251113259389172  0.1992699801127600
  0.5941353132143590  0.1250973971634508  0.2322632313257884
  0.6545223280940178  0.2500841113376779  0.3159563065233328
  0.4996743894732560  0.2501055216598544  0.3031184775725322
  0.8446029464961953  0.2500601528937665  0.3156573290359788
  0.9006375862854341  0.2499305774526093  0.4020821885915637
  0.7496956175532787  0.2500254999124181  0.3873547678929583
  0.5986250791680874  0.2499979934573204  0.4024653056448244
  0.6512993011511909  0.2495150625973039  0.4883648359827575
  0.4996412338270915  0.2497260091164151  0.4732726650003301
  0.8477091659783511  0.2500104966049790  0.4874259452585576
  0.9020327524670648  0.2517668820837642  0.5695052680589399
  0.7518004960396993  0.2514030665575007  0.5581236762807222
  0.5951920574288039  0.2497559243594054  0.5715143864017733
  0.9053175540170386  0.2501284420397738  0.2322248406047080
  0.7497167778566478  0.2501243083816291  0.1995128265636339
  0.5941401331023783  0.2501075287277743  0.2323573793439238
  0.6545248092555838  0.3751132227776779  0.3160574703430754
  0.4996620561621370  0.3750828363856371  0.3032478262140330
  0.8445352069511287  0.3750874953919094  0.3156555399648155
  0.9006389396082071  0.3750442833929313  0.4019340383597765
  0.7497546350931685  0.3750185873731695  0.3874180296685026
  0.5985860294093257  0.3750936608479023  0.4026854004794345
  0.6513413817540226  0.3750726336463188  0.4882728322396304
  0.4995330181709008  0.3750655051764156  0.4736430134147298
  0.8483086104651534  0.3748544308375230  0.4871454502361559
  0.9026644770405028  0.3727138245210639  0.5694677754495103
  0.7535823156057830  0.3739560330960643  0.5573196703600090
  0.6036074924345769  0.3745818271221779  0.5720499145366134
  0.9053764447737151  0.3751490447524048  0.2322337756744517
  0.7496549607090017  0.3751165570788473  0.1993809605031771
  0.5941393901225496  0.3751037621749091  0.2324204014894207
  0.6545899917443379  0.0000774837021993  0.3157322809909360
  0.4996380410865768  0.0000826167549803  0.3029419091399106
  0.8447162316041741  0.0000869908125338  0.3156647362913105
  0.9006030611803837  0.0000627738456629  0.4022402932613929
  0.7497355343920873  0.0001049579551164  0.3871554551581369
  0.5987949259825882  0.9999862511338264  0.4021026049099987
  0.6513526497656486  0.9999711999414203  0.4877645579314347
  0.4996966194118642  0.0000004135066050  0.4726234570928725
  0.8471919561262951  0.0001659893028005  0.4876476922048880
  0.9011455849655619  0.0020230762285252  0.5694791791593445
  0.7500440942474285  0.0012427197589346  0.5581025507233264
  0.5928934330445017  0.9996868876770435  0.5694980730408759
  0.9053168589272289  0.5001310558412797  0.2322732184069096
  0.7496495762308015  0.5001239291848165  0.1996298650384176
  0.5941146650797648  0.5000777625957156  0.2324719159997599
  0.6544387633189288  0.6250726602032088  0.3160596171475731
  0.4995900625481227  0.6250622409564954  0.3032345721525189
  0.8445235430454829  0.6251658911486260  0.3157271918933588
  0.9005019247421160  0.6252468309538415  0.4021133335642375
  0.7496202436411536  0.6251279078548109  0.3874763884747594
  0.5985356646535536  0.6251222638066523  0.4026794110829641
  0.6510199990117727  0.6257147921961348  0.4885551077422718
  0.4994493741003367  0.6252767927711389  0.4737619215929243
  0.8477492004534071  0.6251097697516670  0.4874506105907059
  0.9020178095954776  0.6233379630201981  0.5695052781281262
  0.7524473961641007  0.6236483742895516  0.5578183321597407
  0.5991358075513986  0.6250808635291278  0.5725032939779311
  0.9052162639099777  0.6251170754918576  0.2322943706094236
  0.7496398949225451  0.6250562599377290  0.1995457308016313
  0.5940988983752931  0.6250356156933350  0.2324589809268218
  0.6544922859265085  0.7500523499723997  0.3159031461573036
  0.4995848585011515  0.7500813267534951  0.3030535579409985
  0.8445800580651905  0.7501244584259013  0.3157242108940679
  0.9004938795692183  0.7502331653177521  0.4022522213609037
  0.7496332511653634  0.7501802462674831  0.3872594682005683
  0.5986073088175701  0.7500713136126649  0.4022793722317317
  0.6513283214270871  0.7502629175244735  0.4878639400223790
  0.4995569203230090  0.7505309799988567  0.4725810133853727
  0.8472042050805939  0.7503373099279358  0.4876497492395728
  0.9011096122836122  0.7523885161512354  0.5695878322317682
  0.7497849708759290  0.7506084853895558  0.5579750592234376
  0.5929472041539228  0.7498415784914840  0.5694552457755790
  0.9052368526312904  0.7501195729796990  0.2322722084368252
  0.7496555605099786  0.7500774958235681  0.1993900857306272
  0.5940998145461762  0.7500459786870692  0.2323649055739381
  0.6545236454048080  0.8750752920008651  0.3157937128620034
  0.4996003748562927  0.8750782719718728  0.3029856748407980
  0.8446764925443517  0.8751488963365261  0.3157055377297411
  0.9005609459613666  0.8751733575978307  0.4022663309922621
  0.7497694097470173  0.8750868303297281  0.3872159798193451
  0.5987101261224339  0.8751711821165173  0.4022565520739150
  0.6512352089829676  0.8752142370990441  0.4879211688980547
  0.4996025367141357  0.8750917136335872  0.4733548482414989
  0.8473303479889438  0.8750743981370519  0.4876174526141952
  0.9011253460182616  0.8731386546871249  0.5694586073227157
  0.7506907069553392  0.8736919220236175  0.5576415028226549
  0.5973662944436384  0.8752701073352469  0.5704893878310955
  0.9052456084461369  0.8751282807463809  0.2322548300145044
  0.7496806366681810  0.8751075308258436  0.1993662591498335
  0.5941201555803772  0.8750941790571289  0.2322788217871832
  0.6544189634213851  0.5000251610093969  0.3160885677652558
  0.4996268073223717  0.5000632172568089  0.3032530315274968
  0.8445368572600955  0.5001083240392674  0.3156675467020804
  0.9005575430837780  0.5001331624267422  0.4019838255005084
  0.7496248987592153  0.5001363578836617  0.3874023171167735
  0.5984309964960275  0.5000868637237872  0.4027095334162283
  0.6515783735487162  0.5000670817796475  0.4881743411890440
  0.4995217547359587  0.5000117364669663  0.4742397801244707
  0.8482411023561127  0.5002595635774156  0.4872278042113081
  0.9026141489127539  0.5022716372184632  0.5694842830369211
  0.7532957151276065  0.5009162566835457  0.5576175067680538
  0.6017223948210457  0.5004187434226068  0.5712388797460974
  0.1645285001567700  0.0625566537457516  0.5401754694595056
  0.1636306286090985  0.3126101734246021  0.5398579132127423
  0.1636437203136083  0.5627467630514076  0.5399184997364443
  0.1642536368341965  0.8127374058634587  0.5401935231436070
  0.8354013614817433  0.0623823132841821  0.5402509965420919
  0.4988509270525654  0.2520048226321165  0.5404756630155347
  0.8376958246718758  0.3123992885148255  0.5399400436730062
  0.4998504793121725  0.9999151232372583  0.5398257409677143
  0.8375049484111514  0.5627153088510894  0.5399941079050237
  0.4996524772237692  0.7497484144818642  0.5396998084510471
  0.8353385674607523  0.8127431951404915  0.5402810532445415
  0.4988961341910709  0.5004591506968552  0.5413157854443043
  0.5658361967068757  0.4376681299141936  0.6101151424574240
  0.4337902228784714  0.4380209214986834  0.6085992901441912
  0.5614711205886991  0.5611402957791967  0.6088465797233198
  0.5618703778660503  0.3132319025130954  0.6091436972761812
 
  0.00000000E+00  0.00000000E+00  0.00000000E+00
  0.00000000E+00  0.00000000E+00  0.00000000E+00
  0.00000000E+00  0.00000000E+00  0.00000000E+00