Mo  S Ru                                
   1.00000000000000     
    15.9215000000000000    0.0000000000000000    0.0000000000000000
    -7.9622500000000000   13.7910219999999999    0.0000000000000000
     0.0000000000000000    0.0000000000000000   13.5822000000000003
   Mo   S    Ru
    25    50     1
Direct
  0.1320042393557657  0.0652000082225257  0.6791363081417288
  0.1292368169676834  0.2640706450837342  0.6777518685604349
  0.1319782351394423  0.4656927567519560  0.6793818499907829
  0.1326221199677988  0.6658327539103936  0.6784336909520619
  0.1326164775221770  0.8656496784205103  0.6782300663829943
  0.3327678794608673  0.0652004107889681  0.6791245638174033
  0.3330179681893668  0.2664576357539374  0.6870382311357019
  0.3329812163202988  0.4655290919879533  0.6870921504578291
  0.3327923146637346  0.6665217348652774  0.6793368426356068
  0.3325352648910140  0.8657292397318344  0.6774722352614546
  0.5328150425588731  0.0652689705905090  0.6761622353027619
  0.5344042743557083  0.2640681531727580  0.6776683483311174
  0.5321073906921328  0.4655207975662350  0.6870461156001397
  0.5344101990884198  0.6692529090260209  0.6778012986939288
  0.5328337636038540  0.8664935775070930  0.6762824215177830
  0.7327009638316468  0.0658310787767249  0.6755777338726432
  0.7332237331246461  0.2656743867724103  0.6762870551457638
  0.7332846831997344  0.4656943577139288  0.6792950164358231
  0.7333018149837329  0.6665182561931076  0.6792618029615056
  0.7332344494341356  0.8664917879074352  0.6762593813633018
  0.9320264841675581  0.0652683024239380  0.6761890394721704
  0.9320218369567712  0.2656727879380512  0.6763380974416151
  0.9327532184551188  0.4659333198410991  0.6776926982233604
  0.9327917530132979  0.6658307023855983  0.6783811415817098
  0.9327724583641697  0.8657241292494220  0.6774275203337865
  0.0663827464649458  0.1317376619454436  0.5622277014329526
  0.0627512049617209  0.1301909201074380  0.7928640689315358
  0.0663662747792344  0.3336048012669082  0.5623691845606942
  0.0627426311025943  0.3313587372930229  0.7930145037513796
  0.0666115943923060  0.5326390400818113  0.5632928444575498
  0.0652814745085735  0.5326000925358159  0.7937053637666764
  0.0659818895330631  0.7323404940900105  0.5632521303445728
  0.0660300434194809  0.7325068866665205  0.7935615374226828
  0.0666509641387663  0.9328547566485881  0.5630319184953194
  0.0652973549439224  0.9315825239840905  0.7934271780588276
  0.2676478830416045  0.1357289253983041  0.5674966510169881
  0.2645198557460446  0.1294583806487495  0.7960977437095380
  0.2683601719703788  0.3336883779168076  0.5706586328411589
  0.2501374854782483  0.3245608689802353  0.8050172815192411
  0.2675714022206250  0.5309180612618860  0.5676598443392749
  0.2645376492450353  0.5340029831185547  0.7962786337523937
  0.2657726388912849  0.7317812770668013  0.5632053705108078
  0.2659260852529712  0.7332947604674160  0.7936086517337415
  0.2657987122357852  0.9328428464648653  0.5630469037356605
  0.2658642566001461  0.9316006425388821  0.7934460799439549
  0.4649084670027577  0.1317083632390208  0.5621920362933182
  0.4670336377160709  0.1302170197605363  0.7928280351491139
  0.4648759479434830  0.3336836617294523  0.5706161205836224
  0.4740202221832774  0.3245583180667708  0.8049833546556968
  0.4648609550164053  0.5301836101714628  0.5706658684974570
  0.4739425016887608  0.5482892709792893  0.8050202305391707
  0.4649114100938263  0.7321323240407338  0.5623731878390004
  0.4671243972251133  0.7357911306614184  0.7930084964376647
  0.4652236918272976  0.9320300438925671  0.5612476305435123
  0.4664963644584006  0.9327618326342062  0.7917431259621992
  0.6660108852799880  0.1325905792121347  0.5606761955165993
  0.6663679810134155  0.1320616509883195  0.7910412585412558
  0.6668190654052211  0.3335984970348562  0.5622987299223965
  0.6681866573287252  0.3313702229015973  0.7929419955083432
  0.6629026106395841  0.5309129363546603  0.5675928098286391
  0.6690486693448321  0.5340038314398754  0.7962081095615474
  0.6667726897760033  0.7321355236883136  0.5623400730499739
  0.6682643406287241  0.7357806702553660  0.7929720791983286
  0.6659677632686112  0.9323708536922339  0.5607312186709663
  0.6664549576327232  0.9333165019075977  0.7910876011596386
  0.8661705298815363  0.1326053891843202  0.5606990673249754
  0.8652493656917528  0.1320432630452046  0.7910649806321430
  0.8664733292093416  0.3333335995961306  0.5613858116592567
  0.8657396915404405  0.3319355195422773  0.7918896222285596
  0.8656318037114730  0.5326348662486424  0.5632463238813088
  0.8668702045053180  0.5326052581128948  0.7936588353843277
  0.8656031447535142  0.7317821370811259  0.5631437180978622
  0.8669405822604901  0.7332796856298600  0.7935432576502421
  0.8663947549671462  0.9320545484472973  0.5612296357337740
  0.8658423882987876  0.9327307786268406  0.7917203744281025
  0.3993527503763588  0.3990560370379299  0.8615599344148066
 
  0.00000000E+00  0.00000000E+00  0.00000000E+00
  0.00000000E+00  0.00000000E+00  0.00000000E+00
  0.00000000E+00  0.00000000E+00  0.00000000E+00
  0.00000000E+00  0.00000000E+00  0.00000000E+00
  0.00000000E+00  0.00000000E+00  0.00000000E+00
  0.00000000E+00  0.00000000E+00  0.00000000E+00
  0.00000000E+00  0.00000000E+00  0.00000000E+00
  0.00000000E+00  0.00000000E+00  0.00000000E+00
  0.00000000E+00  0.00000000E+00  0.00000000E+00
  0.00000000E+00  0.00000000E+00  0.00000000E+00
  0.00000000E+00  0.00000000E+00  0.00000000E+00
  0.00000000E+00  0.00000000E+00  0.00000000E+00
  0.00000000E+00  0.00000000E+00  0.00000000E+00
  0.00000000E+00  0.00000000E+00  0.00000000E+00
  0.00000000E+00  0.00000000E+00  0.00000000E+00
  0.00000000E+00  0.00000000E+00  0.00000000E+00
  0.00000000E+00  0.00000000E+00  0.00000000E+00
  0.00000000E+00  0.00000000E+00  0.00000000E+00
  0.00000000E+00  0.00000000E+00  0.00000000E+00
  0.00000000E+00  0.00000000E+00  0.00000000E+00
  0.00000000E+00  0.00000000E+00  0.00000000E+00
  0.00000000E+00  0.00000000E+00  0.00000000E+00
  0.00000000E+00  0.00000000E+00  0.00000000E+00
  0.00000000E+00  0.00000000E+00  0.00000000E+00
  0.00000000E+00  0.00000000E+00  0.00000000E+00
  0.00000000E+00  0.00000000E+00  0.00000000E+00
  0.00000000E+00  0.00000000E+00  0.00000000E+00
  0.00000000E+00  0.00000000E+00  0.00000000E+00
  0.00000000E+00  0.00000000E+00  0.00000000E+00
  0.00000000E+00  0.00000000E+00  0.00000000E+00
  0.00000000E+00  0.00000000E+00  0.00000000E+00
  0.00000000E+00  0.00000000E+00  0.00000000E+00
  0.00000000E+00  0.00000000E+00  0.00000000E+00
  0.00000000E+00  0.00000000E+00  0.00000000E+00
  0.00000000E+00  0.00000000E+00  0.00000000E+00
  0.00000000E+00  0.00000000E+00  0.00000000E+00
  0.00000000E+00  0.00000000E+00  0.00000000E+00
  0.00000000E+00  0.00000000E+00  0.00000000E+00
  0.00000000E+00  0.00000000E+00  0.00000000E+00
  0.00000000E+00  0.00000000E+00  0.00000000E+00
  0.00000000E+00  0.00000000E+00  0.00000000E+00
  0.00000000E+00  0.00000000E+00  0.00000000E+00
  0.00000000E+00  0.00000000E+00  0.00000000E+00
  0.00000000E+00  0.00000000E+00  0.00000000E+00
  0.00000000E+00  0.00000000E+00  0.00000000E+00
  0.00000000E+00  0.00000000E+00  0.00000000E+00
  0.00000000E+00  0.00000000E+00  0.00000000E+00
  0.00000000E+00  0.00000000E+00  0.00000000E+00
  0.00000000E+00  0.00000000E+00  0.00000000E+00
  0.00000000E+00  0.00000000E+00  0.00000000E+00
  0.00000000E+00  0.00000000E+00  0.00000000E+00
  0.00000000E+00  0.00000000E+00  0.00000000E+00
  0.00000000E+00  0.00000000E+00  0.00000000E+00
  0.00000000E+00  0.00000000E+00  0.00000000E+00
  0.00000000E+00  0.00000000E+00  0.00000000E+00
  0.00000000E+00  0.00000000E+00  0.00000000E+00
  0.00000000E+00  0.00000000E+00  0.00000000E+00
  0.00000000E+00  0.00000000E+00  0.00000000E+00
  0.00000000E+00  0.00000000E+00  0.00000000E+00
  0.00000000E+00  0.00000000E+00  0.00000000E+00
  0.00000000E+00  0.00000000E+00  0.00000000E+00
  0.00000000E+00  0.00000000E+00  0.00000000E+00
  0.00000000E+00  0.00000000E+00  0.00000000E+00
  0.00000000E+00  0.00000000E+00  0.00000000E+00
  0.00000000E+00  0.00000000E+00  0.00000000E+00
  0.00000000E+00  0.00000000E+00  0.00000000E+00
  0.00000000E+00  0.00000000E+00  0.00000000E+00
  0.00000000E+00  0.00000000E+00  0.00000000E+00
  0.00000000E+00  0.00000000E+00  0.00000000E+00
  0.00000000E+00  0.00000000E+00  0.00000000E+00
  0.00000000E+00  0.00000000E+00  0.00000000E+00
  0.00000000E+00  0.00000000E+00  0.00000000E+00
  0.00000000E+00  0.00000000E+00  0.00000000E+00
  0.00000000E+00  0.00000000E+00  0.00000000E+00
  0.00000000E+00  0.00000000E+00  0.00000000E+00
  0.00000000E+00  0.00000000E+00  0.00000000E+00
