Mo  S Cu                                
   1.00000000000000     
    15.9214998300000001    0.0000000000000000    0.0000000000000000
    -7.9622501300000001   13.7910221699999997    0.0000000000000000
     0.0000000000000000    0.0000000000000000   13.5821998300000004
   Mo   S    Co
    25    50     2
Direct
  0.1328281421458044  0.0660608691492897  0.6794194816430021
  0.1313734078065352  0.2652543584921858  0.6783223790388249
  0.1329599986011800  0.4659637153787628  0.6796788937286280
  0.1330016689802633  0.6661460052912105  0.6789502986086973
  0.1329308217558207  0.8660045597847486  0.6787655214282609
  0.3327540577730090  0.0657137644408010  0.6791510828277367
  0.3334846843388988  0.2655432192351839  0.6793732545371682
  0.3335647341381431  0.4674506189273160  0.6790116679249039
  0.3328092115737817  0.6661056391426854  0.6790159150684048
  0.3329242607700778  0.8660162582354332  0.6787482782334422
  0.5329954165059334  0.0660973894997241  0.6792508060183522
  0.5317297998445198  0.2655187478056931  0.6789048099529609
  0.5329088570755758  0.4660246233893801  0.6800498875378551
  0.5331133931911012  0.6661609467138589  0.6790174169981853
  0.5329393779163283  0.8660064850246485  0.6787032847541568
  0.7327133812697539  0.0657858026553697  0.6786876177744432
  0.7336056771112496  0.2653451315303172  0.6784348664232382
  0.7337000312266326  0.4675043135968480  0.6785969272654668
  0.7328718462532393  0.6661561865983145  0.6788780748381953
  0.7329102577584337  0.8660119312490551  0.6786074264481528
  0.9327999919776175  0.0657521553099514  0.6787225626534124
  0.9330157090072007  0.2663093024407601  0.6789300751395473
  0.9328264820736152  0.4660148860390549  0.6794728041206781
  0.9331375684889167  0.6661169589401865  0.6788051167364912
  0.9328868578375165  0.8659881031276626  0.6787020992446244
  0.0659179795442242  0.1320392614802088  0.5636097218962277
  0.0659231115575309  0.1326860300345558  0.7943505053007698
  0.0659979392874348  0.3331356797345322  0.5637766510514837
  0.0662174416650458  0.3324040955815803  0.7946190335134702
  0.0662214915793626  0.5324866494660867  0.5643515665636301
  0.0663175143064265  0.5329547612249641  0.7943789975457634
  0.0663681113812515  0.7327066653107792  0.5636656784395200
  0.0663697454999266  0.7328358714113747  0.7939144081024310
  0.0664179229771307  0.9329719797073324  0.5638745351996377
  0.0660829071188047  0.9324290414833314  0.7939824787836187
  0.2661821938102165  0.1324712688906402  0.5642262868842209
  0.2661804876876701  0.1324656247048139  0.7946963004789609
  0.2664007006864821  0.3328048950493852  0.5654783062879005
  0.2654625491855782  0.3326975837986268  0.7945767599688196
  0.2659671303374154  0.5328993264786845  0.5640352485368751
  0.2664556714471544  0.5329624590901219  0.7947415446470387
  0.2662458787068118  0.7326529619988804  0.5637420298801956
  0.2662889824093639  0.7329094211786753  0.7939914661336758
  0.2662867483420257  0.9327522244844815  0.5637322163203606
  0.2660912333712631  0.9323085367977342  0.7939551561525064
  0.4658935957105186  0.1323026109575949  0.5639495182327181
  0.4662165247076402  0.1326365178600284  0.7944971336785329
  0.4662802375323949  0.3331599557025910  0.5641586656514690
  0.4662712825830013  0.3324137981844046  0.7951748319202920
  0.4667966068823262  0.5328138368000452  0.5642089480031558
  0.4663494868802260  0.5331794114422763  0.7947199445558084
  0.4661213514189768  0.7324970141791951  0.5638324851638430
  0.4663688239726866  0.7329112195635261  0.7939911428401132
  0.4663760239643580  0.9329226613520873  0.5637973382686212
  0.4662348392668250  0.9325422320462806  0.7938977275421593
  0.6659686969625724  0.1321564555379311  0.5635475880737317
  0.6664870851764704  0.1326877622588185  0.7942149683487614
  0.6662079915976165  0.3327680432119067  0.5651689139913927
  0.6666428580209498  0.3328638954339596  0.7943144789863084
  0.6656907435302912  0.5328559431136455  0.5639842429244055
  0.6667593327882173  0.5331040973013685  0.7945491684400778
  0.6661976115852895  0.7326480998814375  0.5636708126014938
  0.6664729675852712  0.7330047775679276  0.7939476240496219
  0.6661967842001388  0.9326163143274400  0.5635151744214753
  0.6662106798060137  0.9325393891167550  0.7937541017831578
  0.8663117614552576  0.1328441984035393  0.5638531441895296
  0.8660966745887180  0.1324969813032837  0.7938542317762156
  0.8668539956111445  0.3330917975967083  0.5637208844244839
  0.8660455913327425  0.3325082349387571  0.7944471589508382
  0.8668725319556501  0.5329834736019450  0.5636955430261139
  0.8662645303006400  0.5329910201783932  0.7944008141022181
  0.8662188639626791  0.7325768955327234  0.5636994088440233
  0.8663695087192878  0.7328109976292225  0.7938623327760510
  0.8662326384523809  0.9326061951776907  0.5635394731595653
  0.8661175235034761  0.9324809268071661  0.7937810211718102
  0.2520746264569524  0.3304650389940491  0.9406048895656483
  0.6695482018994170  0.3328741108231696  0.9408905799872826
 
  0.00000000E+00  0.00000000E+00  0.00000000E+00
  0.00000000E+00  0.00000000E+00  0.00000000E+00
  0.00000000E+00  0.00000000E+00  0.00000000E+00
  0.00000000E+00  0.00000000E+00  0.00000000E+00
  0.00000000E+00  0.00000000E+00  0.00000000E+00
  0.00000000E+00  0.00000000E+00  0.00000000E+00
  0.00000000E+00  0.00000000E+00  0.00000000E+00
  0.00000000E+00  0.00000000E+00  0.00000000E+00
  0.00000000E+00  0.00000000E+00  0.00000000E+00
  0.00000000E+00  0.00000000E+00  0.00000000E+00
  0.00000000E+00  0.00000000E+00  0.00000000E+00
  0.00000000E+00  0.00000000E+00  0.00000000E+00
  0.00000000E+00  0.00000000E+00  0.00000000E+00
  0.00000000E+00  0.00000000E+00  0.00000000E+00
  0.00000000E+00  0.00000000E+00  0.00000000E+00
  0.00000000E+00  0.00000000E+00  0.00000000E+00
  0.00000000E+00  0.00000000E+00  0.00000000E+00
  0.00000000E+00  0.00000000E+00  0.00000000E+00
  0.00000000E+00  0.00000000E+00  0.00000000E+00
  0.00000000E+00  0.00000000E+00  0.00000000E+00
  0.00000000E+00  0.00000000E+00  0.00000000E+00
  0.00000000E+00  0.00000000E+00  0.00000000E+00
  0.00000000E+00  0.00000000E+00  0.00000000E+00
  0.00000000E+00  0.00000000E+00  0.00000000E+00
  0.00000000E+00  0.00000000E+00  0.00000000E+00
  0.00000000E+00  0.00000000E+00  0.00000000E+00
  0.00000000E+00  0.00000000E+00  0.00000000E+00
  0.00000000E+00  0.00000000E+00  0.00000000E+00
  0.00000000E+00  0.00000000E+00  0.00000000E+00
  0.00000000E+00  0.00000000E+00  0.00000000E+00
  0.00000000E+00  0.00000000E+00  0.00000000E+00
  0.00000000E+00  0.00000000E+00  0.00000000E+00
  0.00000000E+00  0.00000000E+00  0.00000000E+00
  0.00000000E+00  0.00000000E+00  0.00000000E+00
  0.00000000E+00  0.00000000E+00  0.00000000E+00
  0.00000000E+00  0.00000000E+00  0.00000000E+00
  0.00000000E+00  0.00000000E+00  0.00000000E+00
  0.00000000E+00  0.00000000E+00  0.00000000E+00
  0.00000000E+00  0.00000000E+00  0.00000000E+00
  0.00000000E+00  0.00000000E+00  0.00000000E+00
  0.00000000E+00  0.00000000E+00  0.00000000E+00
  0.00000000E+00  0.00000000E+00  0.00000000E+00
  0.00000000E+00  0.00000000E+00  0.00000000E+00
  0.00000000E+00  0.00000000E+00  0.00000000E+00
  0.00000000E+00  0.00000000E+00  0.00000000E+00
  0.00000000E+00  0.00000000E+00  0.00000000E+00
  0.00000000E+00  0.00000000E+00  0.00000000E+00
  0.00000000E+00  0.00000000E+00  0.00000000E+00
  0.00000000E+00  0.00000000E+00  0.00000000E+00
  0.00000000E+00  0.00000000E+00  0.00000000E+00
  0.00000000E+00  0.00000000E+00  0.00000000E+00
  0.00000000E+00  0.00000000E+00  0.00000000E+00
  0.00000000E+00  0.00000000E+00  0.00000000E+00
  0.00000000E+00  0.00000000E+00  0.00000000E+00
  0.00000000E+00  0.00000000E+00  0.00000000E+00
  0.00000000E+00  0.00000000E+00  0.00000000E+00
  0.00000000E+00  0.00000000E+00  0.00000000E+00
  0.00000000E+00  0.00000000E+00  0.00000000E+00
  0.00000000E+00  0.00000000E+00  0.00000000E+00
  0.00000000E+00  0.00000000E+00  0.00000000E+00
  0.00000000E+00  0.00000000E+00  0.00000000E+00
  0.00000000E+00  0.00000000E+00  0.00000000E+00
  0.00000000E+00  0.00000000E+00  0.00000000E+00
  0.00000000E+00  0.00000000E+00  0.00000000E+00
  0.00000000E+00  0.00000000E+00  0.00000000E+00
  0.00000000E+00  0.00000000E+00  0.00000000E+00
  0.00000000E+00  0.00000000E+00  0.00000000E+00
  0.00000000E+00  0.00000000E+00  0.00000000E+00
  0.00000000E+00  0.00000000E+00  0.00000000E+00
  0.00000000E+00  0.00000000E+00  0.00000000E+00
  0.00000000E+00  0.00000000E+00  0.00000000E+00
  0.00000000E+00  0.00000000E+00  0.00000000E+00
  0.00000000E+00  0.00000000E+00  0.00000000E+00
  0.00000000E+00  0.00000000E+00  0.00000000E+00
  0.00000000E+00  0.00000000E+00  0.00000000E+00
  0.00000000E+00  0.00000000E+00  0.00000000E+00
  0.00000000E+00  0.00000000E+00  0.00000000E+00
