Ta  N  W Cu                             
   1.00000000000000     
    18.1096308199999996    0.0000000000000000    0.0000000000000000
     0.0000000000000000   23.3551997799999995    0.0000000000000000
     0.0000000000000000    0.0000000000000000   30.4818171199999988
   Ta   N    W    Cu
   228   240    12     4
Selective dynamics
Direct
  0.9996312900000000  0.0000206994880000  0.1973595500000000   F   F   F
  0.3339156300000000  0.0626442620000000  0.2025592300000000   F   F   F
  0.1656132100000000  0.0625944910000000  0.2025852800000000   F   F   F
  0.2496894400000000  0.1251252600000000  0.2778087400000000   F   F   F
  0.0823739450000000  0.0625773640000000  0.2838648200000000   F   F   F
  0.4168502200000000  0.0625767070000000  0.2838956800000000   F   F   F
  0.9997440900000000  0.1250182000000000  0.3696736500000000   F   F   F
  0.3321868600000000  0.0625725130000000  0.3682666900000000   F   F   F
  0.1670361800000000  0.0625861200000000  0.3681427200000000   F   F   F
  0.2474294705210576  0.1285731282147249  0.4538921434154207   T   T   T
  0.0811767098287582  0.0633315192516953  0.4532354946679680   T   T   T
  0.4140685830287003  0.0611020307446729  0.4555840388377024   T   T   T
  0.9966237601295022  0.1226291333918612  0.5375915893233004   T   T   T
  0.3371674739609048  0.0625909238526881  0.5395434848211859   T   T   T
  0.9996657799999999  0.1250764800000000  0.1973824500000000   F   F   F
  0.3339726000000000  0.1876250900000000  0.2026261200000000   F   F   F
  0.1656019400000000  0.1875733000000000  0.2026277600000000   F   F   F
  0.2497804900000000  0.2500672400000000  0.2778575400000000   F   F   F
  0.0823265100000000  0.1875715600000000  0.2838344700000000   F   F   F
  0.4169161500000000  0.1875976700000000  0.2839598800000000   F   F   F
  0.9997800400000000  0.2500593200000000  0.3696766000000000   F   F   F
  0.3322967500000000  0.1875310300000000  0.3683001100000000   F   F   F
  0.1672745300000000  0.1875405200000000  0.3681275300000000   F   F   F
  0.2510917059206932  0.2504315071645490  0.4550145028759036   T   T   T
  0.0793993185342571  0.1892320072545217  0.4553023862533634   T   T   T
  0.4144522249586476  0.1863185480988758  0.4530631091938757   T   T   T
  0.9951446809834151  0.2447914868723561  0.5387394093009701   T   T   T
  0.3314037661897388  0.1847345934819359  0.5407418384887682   T   T   T
  0.1642516592032052  0.1860880602945736  0.5394119368056315   T   T   T
  0.9996494000000000  0.2500760200000000  0.1973872800000000   F   F   F
  0.3339533200000000  0.3126873600000000  0.2026537300000000   F   F   F
  0.1656761900000000  0.3126395800000000  0.2026371800000000   F   F   F
  0.2497697000000000  0.3751348700000000  0.2778158400000000   F   F   F
  0.0823011440000000  0.3125768400000000  0.2837907400000000   F   F   F
  0.4169135300000000  0.3125947200000000  0.2840366900000000   F   F   F
  0.9997856200000000  0.3750234300000000  0.3696599800000000   F   F   F
  0.3324094400000000  0.3125647800000000  0.3685300700000000   F   F   F
  0.1673082100000000  0.3125789700000000  0.3680052900000000   F   F   F
  0.2533939978136391  0.3769877278796395  0.4557773618332281   T   T   T
  0.0829448658799807  0.3145559017923429  0.4517388733809883   T   T   T
  0.4107577835248034  0.3097991191065532  0.4540182456618940   T   T   T
  0.9970130365138429  0.3746009578084383  0.5403262375860928   T   T   T
  0.3329974569031053  0.3097122461011812  0.5404403439075985   T   T   T
  0.9996171600000000  0.3751689600000000  0.1973282400000000   F   F   F
  0.3339459700000000  0.4376178600000000  0.2026723400000000   F   F   F
  0.1657071500000000  0.4375819000000000  0.2026573100000000   F   F   F
  0.2496469200000000  0.0000877400240000  0.2777685600000000   F   F   F
  0.0822327420000000  0.4376358400000000  0.2838159900000000   F   F   F
  0.4169541100000000  0.4375987500000000  0.2840630400000000   F   F   F
  0.9996699900000000  0.0001029354800000  0.3696773800000000   F   F   F
  0.3324124500000000  0.4376339900000000  0.3685299200000000   F   F   F
  0.1673688100000000  0.4376635000000000  0.3680296700000000   F   F   F
  0.2493350631450059  0.9989126977308841  0.4556608313883058   T   T   T
  0.0822884278757300  0.4389652848256174  0.4554486377115453   T   T   T
  0.4185906411588926  0.4361762550461497  0.4538409717004864   T   T   T
  0.9980331505387814  0.9987150072253381  0.5402299261459561   T   T   T
  0.3320974267783444  0.4381107834572536  0.5425848035713675   T   T   T
  0.1643025956968976  0.4353312737184060  0.5436773031583280   T   T   T
  0.9995824200000000  0.5001679999999999  0.1973562000000000   F   F   F
  0.3340181500000000  0.5626237100000000  0.2026374800000000   F   F   F
  0.1655839300000000  0.5625877200000000  0.2026217200000000   F   F   F
  0.2497240900000000  0.6251177000000000  0.2778879400000000   F   F   F
  0.0822442320000000  0.5626483300000000  0.2838373300000000   F   F   F
  0.4168809400000000  0.5625896300000000  0.2840694700000000   F   F   F
  0.9996164500000000  0.6252002400000000  0.3697046000000000   F   F   F
  0.3323563900000000  0.5627016300000000  0.3685289500000000   F   F   F
  0.1672175400000000  0.5627407400000000  0.3680327300000000   F   F   F
  0.2488333979842956  0.6178219833374516  0.4567535772090384   T   T   T
  0.0781396837436773  0.5608517920791816  0.4543066411499863   T   T   T
  0.4152610077650626  0.5569110996742879  0.4548975475280376   T   T   T
  0.0042398972142729  0.6237354593472276  0.5399258442105107   T   T   T
  0.3347920334600119  0.5642713569052994  0.5429486298747896   T   T   T
  0.9995393600000000  0.6250684300000000  0.1974449500000000   F   F   F
  0.3339507500000000  0.6875691300000000  0.2026545700000000   F   F   F
  0.1656286300000000  0.6875574000000000  0.2026466100000000   F   F   F
  0.2496337100000000  0.7500979300000000  0.2778336700000000   F   F   F
  0.0822766610000000  0.6876380600000001  0.2838512800000000   F   F   F
  0.4168445000000000  0.6875860400000000  0.2840180000000000   F   F   F
  0.9995587900000000  0.7502208400000000  0.3697112000000000   F   F   F
  0.3321714000000000  0.6876986500000000  0.3683906500000000   F   F   F
  0.1670642600000000  0.6877585700000000  0.3681589800000000   F   F   F
  0.2525566697879351  0.7480987539410572  0.4551070989626765   T   T   T
  0.0869451166416274  0.6843636113532456  0.4545716108465395   T   T   T
  0.4160045531325652  0.6866799640653480  0.4547251208029096   T   T   T
  0.0048805523722607  0.7512469930380171  0.5444399953978377   T   T   T
  0.3391729845771032  0.6853509736370952  0.5413896097240010   T   T   T
  0.1726018359203381  0.6904186134022098  0.5394682220853583   T   T   T
  0.9995512500000000  0.7501363200000000  0.1974237100000000   F   F   F
  0.3339314500000000  0.8126036599999999  0.2025896600000000   F   F   F
  0.1656194500000000  0.8125769600000000  0.2026323700000000   F   F   F
  0.2495827700000000  0.8751575900000000  0.2777655400000000   F   F   F
  0.0822837220000000  0.8126354000000000  0.2838638700000000   F   F   F
  0.4167871000000000  0.8126039100000000  0.2839333500000000   F   F   F
  0.9996066100000000  0.8751636800000000  0.3696888200000000   F   F   F
  0.3320674400000000  0.8126747800000000  0.3682931800000000   F   F   F
  0.1669167800000000  0.8127300200000001  0.3681443600000000   F   F   F
  0.2458091963064878  0.8761799656140363  0.4558483112067471   T   T   T
  0.0813910272702555  0.8115809578381610  0.4555329566756537   T   T   T
  0.4164380642041751  0.8132234373342706  0.4544734482956671   T   T   T
  0.0009815352489975  0.8733101761084741  0.5400222573140874   T   T   T
  0.3397269786602400  0.8121918583136913  0.5401565270757366   T   T   T
  0.9995826200000000  0.8751525000000000  0.1973939300000000   F   F   F
  0.3339504500000000  0.9376068100000000  0.2025296100000000   F   F   F
  0.1656000000000000  0.9375767900000000  0.2025554800000000   F   F   F
  0.2497701700000000  0.5001657000000000  0.2778553800000000   F   F   F
  0.0823110930000000  0.9376060500000000  0.2838511200000000   F   F   F
  0.4168180000000000  0.9375796900000000  0.2839181200000000   F   F   F
  0.9997318200000000  0.5002008500000000  0.3696800800000000   F   F   F
  0.3320551600000000  0.9376171500000000  0.3682671700000000   F   F   F
  0.1670168500000000  0.9376271000000000  0.3682086200000000   F   F   F
  0.2457053730809447  0.4995292274184667  0.4541744662369467   T   T   T
  0.0813915400879422  0.9387935997181268  0.4544479443547547   T   T   T
  0.4163155929007589  0.9388169986891984  0.4544950088776232   T   T   T
  0.0019433852040943  0.4918614675647043  0.5405958250821454   T   T   T
  0.3346447234740474  0.9350306701622966  0.5415920046722573   T   T   T
  0.1674822657429947  0.9376690758327841  0.5394061377774432   T   T   T
  0.4997537100000000  0.0000581712890000  0.1974251000000000   F   F   F
  0.8338371200000000  0.0626589220000000  0.2026459000000000   F   F   F
  0.6655817300000000  0.0625890420000000  0.2026291800000000   F   F   F
  0.7496241200000000  0.1250915100000000  0.2779181700000000   F   F   F
  0.5824886300000000  0.0625755750000000  0.2839611400000000   F   F   F
  0.9169008700000000  0.0625880000000000  0.2839251600000000   F   F   F
  0.4997708900000000  0.1249704100000000  0.3696984400000000   F   F   F
  0.8322865000000000  0.0625630310000000  0.3682286200000000   F   F   F
  0.6671359600000000  0.0625506870000000  0.3683819100000000   F   F   F
  0.7503415996491885  0.1269970920971555  0.4545225391603619   T   T   T
  0.5764730356601381  0.0621472494795977  0.4542330978607779   T   T   T
  0.9162616722290138  0.0599049910317757  0.4534145297474931   T   T   T
  0.4988805977414739  0.1268000531721017  0.5422446020924379   T   T   T
  0.6647167809442666  0.0629107693193372  0.5413794991107244   T   T   T
  0.4997752800000000  0.1251120900000000  0.1974507700000000   F   F   F
  0.8338364200000000  0.1876228900000000  0.2026988800000000   F   F   F
  0.6655406100000000  0.1875586900000000  0.2027079200000000   F   F   F
  0.7495058400000000  0.2500654200000000  0.2779816000000000   F   F   F
  0.5824277500000000  0.1875873300000000  0.2840278300000000   F   F   F
  0.9169300000000000  0.1875842400000000  0.2839127700000000   F   F   F
  0.4997679500000000  0.2498970000000000  0.3697914800000000   F   F   F
  0.8321649300000000  0.1875116200000000  0.3682763700000000   F   F   F
  0.6671046899999999  0.1875073500000000  0.3685161400000000   F   F   F
  0.7471569622888689  0.2490534643998963  0.4553867434258453   T   T   T
  0.5829868555789812  0.1840542912332361  0.4546749562266926   T   T   T
  0.9183386833537510  0.1890957185351894  0.4563388297459400   T   T   T
  0.8311083906814983  0.1857517882293237  0.5398930266967887   T   T   T
  0.6629500751764384  0.1857902050116127  0.5414894037143280   T   T   T
  0.4997485500000000  0.2501423700000000  0.1975367800000000   F   F   F
  0.8337592900000000  0.3127041400000000  0.2027149300000000   F   F   F
  0.6655361700000000  0.3126022900000000  0.2027631100000000   F   F   F
  0.7494878000000000  0.3751089500000000  0.2780016600000000   F   F   F
  0.5824647400000000  0.3125799400000000  0.2841221200000000   F   F   F
  0.9169318900000000  0.3125894700000000  0.2838860800000000   F   F   F
  0.4997566600000000  0.3751196800000000  0.3699817400000000   F   F   F
  0.8321192500000000  0.3125255600000000  0.3681538700000000   F   F   F
  0.6669270800000000  0.3125408200000000  0.3687494400000000   F   F   F
  0.7489133859165747  0.3726494888668916  0.4558578789291248   T   T   T
  0.5776157154328063  0.3142810719899137  0.4538639662849023   T   T   T
  0.9140443155883474  0.3133369286431933  0.4549292534351704   T   T   T
  0.4990219248231261  0.3729201795762372  0.5383875091680017   T   T   T
  0.6683501360767952  0.3113760473464791  0.5393504024214082   T   T   T
  0.4997733700000000  0.3751618900000000  0.1975697100000000   F   F   F
  0.8337241500000000  0.4376400300000000  0.2027336900000000   F   F   F
  0.6655328600000000  0.4375741500000000  0.2027922200000000   F   F   F
  0.7496271900000000  0.0000722731680000  0.2778960800000000   F   F   F
  0.5823642500000000  0.4375735000000000  0.2841634100000000   F   F   F
  0.9169534700000000  0.4376289100000000  0.2839002200000000   F   F   F
  0.4996830000000000  0.0000050359708000  0.3695659300000000   F   F   F
  0.8320639300000000  0.4375927600000000  0.3682102000000000   F   F   F
  0.6668580900000000  0.4375846200000000  0.3688219400000000   F   F   F
  0.7534137974645106  0.0011626784665032  0.4560145948714844   T   T   T
  0.5860773034849566  0.4361387830689134  0.4547732804731993   T   T   T
  0.9174743230164645  0.4370460271862880  0.4554110890905658   T   T   T
  0.8378496293280150  0.4372274645358574  0.5423983895130701   T   T   T
  0.6684756830119232  0.4379997453007349  0.5407624480819181   T   T   T
  0.4997746000000000  0.5001202800000000  0.1975809700000000   F   F   F
  0.8337909900000000  0.5626024400000000  0.2027240900000000   F   F   F
  0.6654489099999999  0.5625497400000000  0.2027935900000000   F   F   F
  0.7494107500000000  0.6250624900000000  0.2780912900000000   F   F   F
  0.5823912800000000  0.5625678700000000  0.2841882200000000   F   F   F
  0.9168800600000000  0.5626298700000000  0.2839383600000000   F   F   F
  0.4996413500000000  0.6251956300000000  0.3699479100000000   F   F   F
  0.8320280700000000  0.5626674400000000  0.3681988700000000   F   F   F
  0.6668192900000000  0.5626248900000000  0.3687992400000000   F   F   F
  0.7504793196597354  0.6249130060553629  0.4551397693647188   T   T   T
  0.5821227563518289  0.5630836578153726  0.4559747853478617   T   T   T
  0.9180119817673491  0.5612890558799793  0.4562591875764253   T   T   T
  0.5049282034525628  0.6230122327507559  0.5431511221972787   T   T   T
  0.6652430104393180  0.5644484968728577  0.5421453587291466   T   T   T
  0.4997862100000000  0.6250431100000000  0.1975729600000000   F   F   F
  0.8337104000000000  0.6876001700000000  0.2027572600000000   F   F   F
  0.6655573000000000  0.6875262599999999  0.2028207300000000   F   F   F
  0.7494838500000000  0.7500876400000001  0.2780160100000000   F   F   F
  0.5823621000000000  0.6875595300000000  0.2841444500000000   F   F   F
  0.9168184400000000  0.6876530600000000  0.2839858100000000   F   F   F
  0.4996329100000000  0.7501552300000000  0.3697202500000000   F   F   F
  0.8320817600000000  0.6876926400000000  0.3683477500000000   F   F   F
  0.6669798700000000  0.6876296000000000  0.3686571200000000   F   F   F
  0.7499744567586880  0.7477678997824138  0.4545627914383928   T   T   T
  0.5797254543121759  0.6879071238888025  0.4551121109097940   T   T   T
  0.9159510963282897  0.6881216634123466  0.4534760472008830   T   T   T
  0.8390291093381256  0.6852338348502071  0.5401108332466531   T   T   T
  0.6675562999233433  0.6895484242928075  0.5447931075576194   T   T   T
  0.4997580100000000  0.7500392100000000  0.1975229100000000   F   F   F
  0.8337493900000000  0.8126230300000000  0.2027286100000000   F   F   F
  0.6655672900000000  0.8125625400000001  0.2027315800000000   F   F   F
  0.7496064099999999  0.8751489900000000  0.2779329400000000   F   F   F
  0.5824236000000000  0.8125955700000000  0.2840134000000000   F   F   F
  0.9168287500000000  0.8126382900000000  0.2839724300000000   F   F   F
  0.4996223900000000  0.8751731500000000  0.3696600000000000   F   F   F
  0.8321911800000000  0.8126903599999999  0.3682673000000000   F   F   F
  0.6670688299999999  0.8126223900000000  0.3684325000000000   F   F   F
  0.7505846322816216  0.8744031613169467  0.4549484146823530   T   T   T
  0.5878162683096460  0.8128980771372500  0.4533421161971686   T   T   T
  0.9152141561560044  0.8125565418009852  0.4546739830732980   T   T   T
  0.4982791308565936  0.8777023957766406  0.5427311315921409   T   T   T
  0.6670665713184503  0.8151048823039329  0.5447278899242343   T   T   T
  0.4997502400000000  0.8751152800000001  0.1974568800000000   F   F   F
  0.8338587200000001  0.9376190400000000  0.2026167300000000   F   F   F
  0.6655441300000000  0.9375642000000000  0.2026229400000000   F   F   F
  0.7494229900000000  0.5001384000000000  0.2780631800000000   F   F   F
  0.5824163500000000  0.9375762200000000  0.2839760800000000   F   F   F
  0.9168978000000000  0.9376183800000000  0.2839262300000000   F   F   F
  0.4997004000000000  0.5001242200000000  0.3699611800000000   F   F   F
  0.8322076800000000  0.9376093000000000  0.3682979300000000   F   F   F
  0.6671877700000000  0.9375809500000000  0.3683602300000000   F   F   F
  0.7502458389136475  0.5009154405515498  0.4554600875093560   T   T   T
  0.5832823774384186  0.9375679337758843  0.4528774112964701   T   T   T
  0.9172535995949546  0.9346377880798196  0.4555445767754003   T   T   T
  0.8330767125196302  0.9339547959022630  0.5456889593770647   T   T   T
  0.6653669150524134  0.9351764249026969  0.5414701926830918   T   T   T
  0.4052903200000000  0.0000850530480000  0.2321811200000000   F   F   F
  0.2497723300000000  0.0001008716400000  0.1992797100000000   F   F   F
  0.0940457070000000  0.0000733581080000  0.2321328000000000   F   F   F
  0.1546019300000000  0.1250972800000000  0.3155719400000000   F   F   F
  0.9996565900000000  0.1250679400000000  0.3030105800000000   F   F   F
  0.3447558400000000  0.1251186700000000  0.3156799900000000   F   F   F
  0.4006801700000000  0.1250143500000000  0.4021649800000000   F   F   F
  0.2496240000000000  0.1250428800000000  0.3870932700000000   F   F   F
  0.0988364010000000  0.1250772900000000  0.4021543300000000   F   F   F
  0.1465942784751662  0.1231761591545208  0.4884791354888418   T   T   T
  0.9936175736318866  0.1211958879510667  0.4706740646692436   T   T   T
  0.3421290274586383  0.1253127599381018  0.4882810548976131   T   T   T
  0.3987511919745289  0.1307663248935340  0.5700803202114209   T   T   T
  0.2414510636396967  0.1187459760729201  0.5580287879041118   T   T   T
  0.0895029095985564  0.1230062930341832  0.5718113525658055   T   T   T
  0.4053288400000000  0.1251160400000000  0.2321929100000000   F   F   F
  0.2497744900000000  0.1251183300000000  0.1992024700000000   F   F   F
  0.0940535810000000  0.1250723500000000  0.2321452400000000   F   F   F
  0.1546675900000000  0.2500766500000000  0.3155354500000000   F   F   F
  0.9996554100000000  0.2500880000000000  0.3030180400000000   F   F   F
  0.3448191200000000  0.2501134000000000  0.3157744500000000   F   F   F
  0.4007841000000000  0.2500214100000000  0.4022451300000000   F   F   F
  0.2496987900000000  0.2500410100000000  0.3870883400000000   F   F   F
  0.0989505230000000  0.2499575400000000  0.4020497800000000   F   F   F
  0.1540237550240814  0.2540127141572105  0.4867133701124132   T   T   T
  0.0022448467806489  0.2565116952026629  0.4726543836700957   T   T   T
  0.3495422485432846  0.2455358241224391  0.4859597610582375   T   T   T
  0.4020130080002915  0.2503795144406135  0.5706529392552002   T   T   T
  0.2479043912165114  0.2455837138679393  0.5557905327368531   T   T   T
  0.0961271753333863  0.2564597224693159  0.5681105263559548   T   T   T
  0.4053036400000000  0.2501412800000000  0.2322855900000000   F   F   F
  0.2497857400000000  0.2501144600000000  0.1994644700000000   F   F   F
  0.0940410370000000  0.2500938600000000  0.2321444600000000   F   F   F
  0.1547200100000000  0.3751313300000000  0.3155183400000000   F   F   F
  0.9996454299999999  0.3750888000000000  0.3030192400000000   F   F   F
  0.3447594000000000  0.3751366900000000  0.3158459100000000   F   F   F
  0.4007574600000000  0.3750757000000000  0.4023986900000000   F   F   F
  0.2496066500000000  0.3750764900000000  0.3871641800000000   F   F   F
  0.0989515830000000  0.3751248900000000  0.4019042000000000   F   F   F
  0.1530828361924784  0.3728485641855978  0.4855603174901499   T   T   T
  0.9992018674285071  0.3738168408977617  0.4741851566150681   T   T   T
  0.3534934458488211  0.3786757362545411  0.4939378195979573   T   T   T
  0.4035629341737642  0.3685006755769426  0.5739972745164138   T   T   T
  0.2451103763579025  0.3723840136438356  0.5575079261732344   T   T   T
  0.0953239645996655  0.3728982618550972  0.5678711599733750   T   T   T
  0.4053148500000000  0.3751367600000000  0.2323216000000000   F   F   F
  0.2497903000000000  0.3751143700000000  0.1991270600000000   F   F   F
  0.0939588640000000  0.3751243200000000  0.2321257500000000   F   F   F
  0.1545646600000000  0.0000778397880000  0.3155757600000000   F   F   F
  0.9996421700000000  0.0001083672000000  0.3030094400000000   F   F   F
  0.3446604000000000  0.0000995122760000  0.3156300600000000   F   F   F
  0.4005460000000000  0.0000191329410000  0.4020127400000000   F   F   F
  0.2495954000000000  0.0001395296300000  0.3870428600000000   F   F   F
  0.0987665410000000  0.0000769256340000  0.4021976000000000   F   F   F
  0.1512055444919420  0.0057699743292142  0.4861477743534874   T   T   T
  0.9975291078930583  0.0015199219148862  0.4711542798993804   T   T   T
  0.3467884634178344  0.9989284184871834  0.4882559967778485   T   T   T
  0.4102734334490019  0.9932367298895836  0.5697300920329876   T   T   T
  0.2522549221797337  0.9965531082190819  0.5515787003699261   T   T   T
  0.0988264871201976  0.0031306841007903  0.5700274265512881   T   T   T
  0.4053145700000000  0.5001045300000000  0.2323426100000000   F   F   F
  0.2497967500000000  0.5001479800000000  0.1994703200000000   F   F   F
  0.0939705160000000  0.5001153500000000  0.2321503200000000   F   F   F
  0.1545784500000000  0.6252120400000000  0.3155551200000000   F   F   F
  0.9995779500000000  0.6251412800000000  0.3030436400000000   F   F   F
  0.3447109600000000  0.6251205600000000  0.3158199400000000   F   F   F
  0.4006104300000000  0.6251641000000000  0.4024184700000000   F   F   F
  0.2495397600000000  0.6252301700000000  0.3871572400000000   F   F   F
  0.0987809190000000  0.6253207800000000  0.4020379600000000   F   F   F
  0.1458464671469606  0.6233455324987781  0.4888716689582313   T   T   T
  0.9943516972443164  0.6258275262773094  0.4717209497350039   T   T   T
  0.3508013376614884  0.6214610638662154  0.4885876099291800   T   T   T
  0.4050658183396310  0.6225455445019878  0.5710763229826692   T   T   T
  0.2546524418630602  0.6232588469015327  0.5615808374239722   T   T   T
  0.0947739690815806  0.6114593654805140  0.5722322959070913   T   T   T
  0.4053387500000000  0.6250626700000000  0.2323227600000000   F   F   F
  0.2497780300000000  0.6250667000000000  0.1993465300000000   F   F   F
  0.0939996800000000  0.6250966800000000  0.2321518800000000   F   F   F
  0.1545192400000000  0.7501664400000000  0.3155762000000000   F   F   F
  0.9995658100000000  0.7501493500000000  0.3030480500000000   F   F   F
  0.3446288300000000  0.7501143400000000  0.3157041000000000   F   F   F
  0.4005210700000000  0.7501437500000000  0.4020935600000000   F   F   F
  0.2495139700000000  0.7502286000000000  0.3870483500000000   F   F   F
  0.0986890570000000  0.7502712900000000  0.4021755900000000   F   F   F
  0.1525860706167811  0.7507242848502406  0.4829002051849939   T   T   T
  0.9983947213224585  0.7510030522844207  0.4742266119892853   T   T   T
  0.3500069425958858  0.7542481901684308  0.4885441460326359   T   T   T
  0.4123188640333209  0.7510734611231681  0.5657633299154773   T   T   T
  0.2559409033274962  0.7542104153489023  0.5508459997403609   T   T   T
  0.1011232236417832  0.7500137515760791  0.5681096468494762   T   T   T
  0.4052950400000000  0.7500696000000000  0.2322461000000000   F   F   F
  0.2497812100000000  0.7500761200000000  0.1992835100000000   F   F   F
  0.0939862650000000  0.7501101200000000  0.2321345200000000   F   F   F
  0.1545222100000000  0.8751606300000000  0.3155887400000000   F   F   F
  0.9996010900000000  0.8751265000000000  0.3030157600000000   F   F   F
  0.3446287700000000  0.8751088700000000  0.3156673000000000   F   F   F
  0.4004824100000000  0.8751910600000000  0.4021598500000000   F   F   F
  0.2494311800000000  0.8751235200000000  0.3870801300000000   F   F   F
  0.0986510020000000  0.8752132000000000  0.4022007800000000   F   F   F
  0.1535595531526288  0.8738849726762674  0.4908332931415352   T   T   T
  0.0020809447334463  0.8755110510890297  0.4736419372502507   T   T   T
  0.3470812719238529  0.8773122387920176  0.4879844125060601   T   T   T
  0.4032886440908543  0.8760040565960032  0.5710985508325656   T   T   T
  0.2555504029787933  0.8763667027700447  0.5556987819246867   T   T   T
  0.0996692239274479  0.8652922703971465  0.5715072086832099   T   T   T
  0.4052855100000000  0.8751038000000000  0.2321982800000000   F   F   F
  0.2497848900000000  0.8750942500000000  0.1991999000000000   F   F   F
  0.0940283500000000  0.8751051300000000  0.2321384800000000   F   F   F
  0.1546599700000000  0.5001391800000000  0.3155189900000000   F   F   F
  0.9996125800000000  0.5001582200000000  0.3030265400000000   F   F   F
  0.3447974900000000  0.5000797600000000  0.3158545300000000   F   F   F
  0.4007809200000000  0.5001603200000000  0.4024194900000000   F   F   F
  0.2496541100000000  0.5002181100000000  0.3871518700000000   F   F   F
  0.0989159780000000  0.5001610700000000  0.4019494500000000   F   F   F
  0.1522855451460819  0.4990838977549157  0.4866280228311250   T   T   T
  0.9963548146643761  0.5001387093371236  0.4709914770213343   T   T   T
  0.3447438616967368  0.5000505247202909  0.4892876466133547   T   T   T
  0.4060824807917515  0.5015751131507620  0.5732790566590130   T   T   T
  0.2481284027376635  0.5022059838669938  0.5578611588975685   T   T   T
  0.1012870412504276  0.5018847739002745  0.5716557928490522   T   T   T
  0.9052883400000000  0.0001012991300000  0.2322192100000000   F   F   F
  0.7497117900000000  0.0001016770800000  0.1994039400000000   F   F   F
  0.5941487500000000  0.0000609505420000  0.2322498400000000   F   F   F
  0.6545692300000000  0.1251331000000000  0.3158217900000000   F   F   F
  0.4996734800000000  0.1250725600000000  0.3030061100000000   F   F   F
  0.8446899600000000  0.1250994200000000  0.3156702200000000   F   F   F
  0.9006839400000000  0.1250324800000000  0.4021932100000000   F   F   F
  0.7497876000000000  0.1250043700000000  0.3872448700000000   F   F   F
  0.5987443000000000  0.1250350600000000  0.4023459800000000   F   F   F
  0.6506936431914301  0.1248283354551884  0.4882917060208352   T   T   T
  0.5009554783350793  0.1247203247733200  0.4742123446896668   T   T   T
  0.8478629357009285  0.1225174747582267  0.4894311948456199   T   T   T
  0.8961226364338550  0.1241274759956004  0.5696927303107417   T   T   T
  0.7500142025880632  0.1232523654837567  0.5579430614651867   T   T   T
  0.6007689571749165  0.1218825256182357  0.5696020672667448   T   T   T
  0.9053402600000000  0.1251040700000000  0.2322234200000000   F   F   F
  0.7496953900000000  0.1251113300000000  0.1992699800000000   F   F   F
  0.5941353100000000  0.1250974000000000  0.2322632300000000   F   F   F
  0.6545223300000000  0.2500841100000000  0.3159563100000000   F   F   F
  0.4996743900000000  0.2501055200000000  0.3031184800000000   F   F   F
  0.8446029500000000  0.2500601500000000  0.3156573300000000   F   F   F
  0.9006375900000000  0.2499305800000000  0.4020821900000000   F   F   F
  0.7496956200000000  0.2500255000000000  0.3873547700000000   F   F   F
  0.5986250800000000  0.2499979900000000  0.4024653100000000   F   F   F
  0.6463454749062839  0.2471072484039803  0.4876748981157226   T   T   T
  0.4975962114494628  0.2477002395865999  0.4723316676133706   T   T   T
  0.8438777327859478  0.2533234287063840  0.4869018494554622   T   T   T
  0.9066218040142954  0.2400427951583988  0.5697554033718455   T   T   T
  0.7546195561979728  0.2535757196283769  0.5611963137104872   T   T   T
  0.5988325675852659  0.2465486994896657  0.5741070644875359   T   T   T
  0.9053175500000000  0.2501284400000000  0.2322248400000000   F   F   F
  0.7497167800000000  0.2501243100000000  0.1995128300000000   F   F   F
  0.5941401300000000  0.2501075300000000  0.2323573800000000   F   F   F
  0.6545248100000000  0.3751132200000000  0.3160574700000000   F   F   F
  0.4996620600000000  0.3750828400000000  0.3032478300000000   F   F   F
  0.8445352100000000  0.3750875000000000  0.3156555400000000   F   F   F
  0.9006389400000000  0.3750442800000000  0.4019340400000000   F   F   F
  0.7497546400000000  0.3750185900000000  0.3874180300000000   F   F   F
  0.5985860300000000  0.3750936600000000  0.4026854000000000   F   F   F
  0.6487335353928311  0.3723819765807567  0.4847179270314637   T   T   T
  0.4963300354124342  0.3759330281677505  0.4714218837956506   T   T   T
  0.8498757340572167  0.3770999924907675  0.4852164245901786   T   T   T
  0.9001334198359000  0.3686417510582118  0.5716087437505735   T   T   T
  0.7439885444009561  0.3744224399600011  0.5551679965107864   T   T   T
  0.5985607856860343  0.3758927797084502  0.5695674312355354   T   T   T
  0.9053764399999999  0.3751490400000000  0.2322337800000000   F   F   F
  0.7496549600000000  0.3751165600000000  0.1993809600000000   F   F   F
  0.5941393900000000  0.3751037600000000  0.2324204000000000   F   F   F
  0.6545899900000000  0.0000774837020000  0.3157322800000000   F   F   F
  0.4996380400000000  0.0000826167550000  0.3029419100000000   F   F   F
  0.8447162300000000  0.0000869908130000  0.3156647400000000   F   F   F
  0.9006030600000000  0.0000627738460000  0.4022402900000000   F   F   F
  0.7497355300000000  0.0001049579600000  0.3871554600000000   F   F   F
  0.5987949299999999  0.9999862500000000  0.4021026000000000   F   F   F
  0.6520550613420806  0.9968087494468056  0.4853463587961712   T   T   T
  0.4976499123129834  0.0009615059242218  0.4733248798701982   T   T   T
  0.8482275146578822  0.9999172567512771  0.4901722254090090   T   T   T
  0.9018486708921737  0.9965283236504519  0.5736890711440076   T   T   T