Cu	N	Ru	Ta                              
   1.00000000000000     
    18.1096308199999996    0.0000000000000000    0.0000000000000000
     0.0000000000000000   23.3551997799999995    0.0000000000000000
     0.0000000000000000    0.0000000000000000   30.4818171199999988
   Cu   N    Ru   Ta
     3   240    24   216
Selective dynamics
Direct
  0.5684930421639444  0.4631783879161107  0.6137160427336821   T   T   T
  0.4330717746763030  0.4640819203664693  0.6128091267243515   T   T   T
  0.4995979938647193  0.4603876799765219  0.6785917801835327   T   T   T
  0.0000000000000000  0.0000770226766207  0.3028264943543491   F   F   F
  0.0000000000000000  0.5000770226766207  0.3028264943543491   F   F   F
  0.0000000000000000  0.6248851796377153  0.3029475127301708   F   F   F
  0.0000000000000000  0.7500770228907001  0.3028264943543491   F   F   F
  0.0000000000000000  0.8748851798518018  0.3029475127301708   F   F   F
  0.0000000000000000  0.1248851796377153  0.3029475127301708   F   F   F
  0.0000000000000000  0.2500770228907001  0.3028264943543491   F   F   F
  0.0000000000000000  0.3748851798518018  0.3029475127301708   F   F   F
  0.0000448344702655  0.3758588413389122  0.4751931219983340   T   T   T
  0.0000204729442821  0.7512750218205602  0.4740958648676719   T   T   T
  0.0000485482660485  0.2513654445456698  0.4746707055460006   T   T   T
  0.0005236517631017  0.8755820211519572  0.4755839844733065   T   T   T
  0.5899943550180293  0.8974273366674402  0.5694741417384264   T   T   T
  0.5929212622129756  0.3973197297410361  0.5729572979890252   T   T   T
  0.5937799487300405  0.7679197165044274  0.5653272718419703   T   T   T
  0.5943504772119894  0.6250779795299195  0.2321437935324795   F   F   F
  0.5943504772119894  0.8750779797440060  0.2321437935324795   F   F   F
  0.5943504772119894  0.1250779795299195  0.2321437935324795   F   F   F
  0.5943504772119894  0.3750779797440060  0.2321437935324795   F   F   F
  0.5943930523482663  0.9999373617004466  0.2321734905809336   F   F   F
  0.5943930523482663  0.4999373617004466  0.2321734905809336   F   F   F
  0.5943930523482663  0.7499373619145331  0.2321734905809336   F   F   F
  0.5943930523482663  0.2499373619145331  0.2321734905809336   F   F   F
  0.5954133293142516  0.6425978761268722  0.5692713611833082   T   T   T
  0.5957927370653121  0.2663307182388574  0.5669069128252345   T   T   T
  0.5957915594368012  0.1430471970057741  0.5698425180592822   T   T   T
  0.5977347315294042  0.0192926162369659  0.5674674287925021   T   T   T
  0.5983896624289514  0.5186726296034864  0.5682125238632070   T   T   T
  0.5988064033065114  0.8743807799201828  0.4027310630462613   T   T   T
  0.5987950460686011  0.6246000928936652  0.4022513768512817   T   T   T
  0.5987955016298893  0.7507129271706913  0.4017782253931712   T   T   T
  0.5988242451834135  0.1246344423260152  0.4025670713624094   T   T   T
  0.5989129331739984  0.0006627473253675  0.4017324641955321   T   T   T
  0.5989519976550503  0.3744841052363120  0.4024444228189638   T   T   T
  0.5989702683440036  0.2507197704030553  0.4020137911853399   T   T   T
  0.5990282846925115  0.5008457016654321  0.4013810537047153   T   T   T
  0.6501499838943257  0.3785565033460818  0.4882969937780950   T   T   T
  0.6504018545359262  0.7467147879136385  0.4834153549844743   T   T   T
  0.6506875128684708  0.8779444513068096  0.4886502086329641   T   T   T
  0.6510137194090522  0.9969959265742567  0.4836360466277514   T   T   T
  0.6509827941241452  0.2470520176551371  0.4841481865475921   T   T   T
  0.6513132226639120  0.4977736783186504  0.4834875928238178   T   T   T
  0.6515552851933601  0.6278737744717818  0.4878846918118693   T   T   T
  0.6518454030398541  0.1279762211963092  0.4881961056686940   T   T   T
  0.6547082680948861  0.6251230654212776  0.3157550047659328   F   F   F
  0.6547082680948861  0.8751230656353641  0.3157550047659328   F   F   F
  0.6547082680948861  0.1251230654212776  0.3157550047659328   F   F   F
  0.6547082680948861  0.3751230656353641  0.3157550047659328   F   F   F
  0.6547523877132235  0.9998547719551993  0.3156484409089586   F   F   F
  0.6547523877132235  0.4998547719551993  0.3156484409089586   F   F   F
  0.6547523877132235  0.7498547721692859  0.3156484409089586   F   F   F
  0.6547523877132235  0.2498547721692859  0.3156484409089586   F   F   F
  0.7487695939107464  0.7565502768446161  0.5586896747818005   T   T   T
  0.7494670782880086  0.5039713258610100  0.5606752211043857   T   T   T
  0.7493933223628662  0.6343359906726533  0.5590785374896633   T   T   T
  0.7496531329427184  0.0054642010532530  0.5608281238808207   T   T   T
  0.7499402524461879  0.3827981183484493  0.5539395929912664   T   T   T
  0.7499277426383804  0.7502945498632088  0.3868899242506260   T   T   T
  0.7499548315993944  0.8748120728618830  0.3886824589256972   T   T   T
  0.7499266393061000  0.1334501622739745  0.5596436002519004   T   T   T
  0.7499999997239044  0.0000513585844359  0.1992858820091215   F   F   F
  0.7499999997239044  0.5000513585844431  0.1992858820091215   F   F   F
  0.7499999997239044  0.6250070552811167  0.1993925282102751   F   F   F
  0.7499999997239044  0.7500513587985225  0.1992858820091215   F   F   F
  0.7499999997239044  0.8750070554952032  0.1993925282102751   F   F   F
  0.7499999997239044  0.1250070552811167  0.1993925282102751   F   F   F
  0.7499999997239044  0.2500513587985225  0.1992858820091215   F   F   F
  0.7499999997239044  0.3750070554952032  0.1993925282102751   F   F   F
  0.7499817845452907  0.6248797484888275  0.3879062470449273   T   T   T
  0.7499812944229202  0.9999738315975036  0.3867035653937738   T   T   T
  0.7499897491379415  0.1248959908724333  0.3879999349624232   T   T   T
  0.7499942840851475  0.2501874914897314  0.3869882947313527   T   T   T
  0.7500096064345703  0.3748657041389114  0.3887324048205930   T   T   T
  0.7500551071977786  0.4999893754226241  0.3865988391070535   T   T   T
  0.7499919368487582  0.2548206869300619  0.5599684842963365   T   T   T
  0.7509305182549153  0.8849247466567403  0.5542030137246410   T   T   T
  0.8452476122867765  0.9998547719551993  0.3156484409089586   F   F   F
  0.8452476122867765  0.4998547719551993  0.3156484409089586   F   F   F
  0.8452476122867765  0.7498547721692859  0.3156484409089586   F   F   F
  0.8452476122867765  0.2498547721692859  0.3156484409089586   F   F   F
  0.8452917319051139  0.6251230654212776  0.3157550047659328   F   F   F
  0.8452917319051139  0.8751230656353641  0.3157550047659328   F   F   F
  0.8452917319051139  0.1251230654212776  0.3157550047659328   F   F   F
  0.8452917319051139  0.3751230656353641  0.3157550047659328   F   F   F
  0.8483080340074834  0.6280369296515931  0.4879921160684005   T   T   T
  0.8483230349067061  0.1280677318447067  0.4881856400035196   T   T   T
  0.8488743781718219  0.7470013949396774  0.4837516669539553   T   T   T
  0.8491037878391711  0.4976136844055634  0.4836443328474588   T   T   T
  0.8490484593500699  0.9972865119142139  0.4836066638650108   T   T   T
  0.8490291267752723  0.2471374437326113  0.4838086476531925   T   T   T
  0.8494247860959534  0.8787479104711285  0.4883120613790077   T   T   T
  0.8496783697785724  0.3786881319500248  0.4882871094341125   T   T   T
  0.0876938509423933  0.6495748630508713  0.5686189723212254   T   T   T
  0.0894021185731597  0.1477199063054587  0.5694328567954695   T   T   T
  0.9009490806128474  0.7508717001710090  0.4018455620385951   T   T   T
  0.9010575121668135  0.6248188012026120  0.4023100037410570   T   T   T
  0.9011102051631280  0.5009007333217645  0.4015580401826948   T   T   T
  0.9011280993073918  0.2508158058825156  0.4018921953684133   T   T   T
  0.9011098872085367  0.0007945571789080  0.4016722877369492   T   T   T
  0.9011645899192166  0.3746031573523927  0.4025563926087219   T   T   T
  0.9011706085402545  0.8745779070229598  0.4026942406044259   T   T   T
  0.9011487182877482  0.1247218331546709  0.4024854814828135   T   T   T
  0.9022632256484489  0.0199810626413374  0.5675873172941146   T   T   T
  0.9024278739182570  0.6441833806736551  0.5701532249937307   T   T   T
  0.9028001241261508  0.5198746972548368  0.5670656030764738   T   T   T
  0.9040055302750608  0.1435039846755204  0.5700243806412459   T   T   T
  0.9044989031503750  0.2675037311083102  0.5663343246157803   T   T   T
  0.9052022405841491  0.7681987969543448  0.5654977255084794   T   T   T
  0.9056069476517337  0.9999373617004466  0.2321734905809336   F   F   F
  0.9056069476517337  0.4999373617004466  0.2321734905809336   F   F   F
  0.9056069476517337  0.7499373619145331  0.2321734905809336   F   F   F
  0.9056069476517337  0.2499373619145331  0.2321734905809336   F   F   F
  0.9056495227880106  0.6250779795299195  0.2321437935324795   F   F   F
  0.9056495227880106  0.8750779797440060  0.2321437935324795   F   F   F
  0.9056495227880106  0.1250779795299195  0.2321437935324795   F   F   F
  0.9056495227880106  0.3750779797440060  0.2321437935324795   F   F   F
  0.9075897739948608  0.3972407836886373  0.5708448166985612   T   T   T
  0.9109124752353575  0.8986995348959922  0.5692243968392240   T   T   T
  0.0931338510408210  0.3966889273838967  0.5705539554977981   T   T   T
  0.0942219511246965  0.0177308902759183  0.5650671547571449   T   T   T
  0.0943504772119894  0.6250779795299195  0.2321437935324795   F   F   F
  0.0943504772119894  0.8750779797440060  0.2321437935324795   F   F   F
  0.0943504772119894  0.1250779795299195  0.2321437935324795   F   F   F
  0.0943504772119894  0.3750779797440060  0.2321437935324795   F   F   F
  0.0943930523482663  0.9999373617004466  0.2321734905809336   F   F   F
  0.0943930523482663  0.4999373617004466  0.2321734905809336   F   F   F
  0.0943930523482663  0.7499373619145331  0.2321734905809336   F   F   F
  0.0943930523482663  0.2499373619145331  0.2321734905809336   F   F   F
  0.0944733326168447  0.5185237733316547  0.5660142235311327   T   T   T
  0.0968018206002335  0.2685514454417638  0.5674073230174465   T   T   T
  0.0971492155680111  0.8937039250285395  0.5699349301045494   T   T   T
  0.0976230166702530  0.7703558387598677  0.5674300883969241   T   T   T
  0.0986559650262970  0.6247296202511188  0.4025484602593223   T   T   T
  0.0987309291106675  0.1245581843132046  0.4028049832031087   T   T   T
  0.0988038470482536  0.3746596921934962  0.4024234165697552   T   T   T
  0.0987921088777883  0.7508960984126738  0.4016052483753150   T   T   T
  0.0988670115309817  0.8747357445675383  0.4022719199298174   T   T   T
  0.0988738958277495  0.2508786334514736  0.4018471622113118   T   T   T
  0.0989526950206206  0.5010478570600790  0.4016950702362956   T   T   T
  0.0989395270717303  0.0008574399678941  0.4017707384233793   T   T   T
  0.9991680064406058  0.6257020572074228  0.4754823076065445   T   T   T
  0.9994807868820964  0.1255274007953709  0.4759767095818845   T   T   T
  0.9997992515864370  0.0009861065621088  0.4739120029360590   T   T   T
  0.9998698580076598  0.5012623536820271  0.4738152007236037   T   T   T
  0.1502160236764042  0.3788174796176795  0.4879460645583991   T   T   T
  0.1502161559434501  0.6296037100673317  0.4876912488563664   T   T   T
  0.1503997746070961  0.1286421896177407  0.4883785376623724   T   T   T
  0.1507861944695242  0.4972687385810567  0.4837158818087200   T   T   T
  0.1509776571321500  0.9968741048264279  0.4834894462522666   T   T   T
  0.1509337345050428  0.7475356746536943  0.4835524087431572   T   T   T
  0.1512007221370812  0.2471820586448821  0.4838298444011613   T   T   T
  0.1516221900955429  0.8780905342596519  0.4879302776945314   T   T   T
  0.1547082680948861  0.6251230654212776  0.3157550047659328   F   F   F
  0.1547082680948861  0.8751230656353641  0.3157550047659328   F   F   F
  0.1547082680948861  0.1251230654212776  0.3157550047659328   F   F   F
  0.1547082680948861  0.3751230656353641  0.3157550047659328   F   F   F
  0.1547523877132235  0.9998547719551993  0.3156484409089586   F   F   F
  0.1547523877132235  0.4998547719551993  0.3156484409089586   F   F   F
  0.1547523877132235  0.7498547721692859  0.3156484409089586   F   F   F
  0.1547523877132235  0.2498547721692859  0.3156484409089586   F   F   F
  0.2468279088929535  0.6340459709013726  0.5539513315327131   T   T   T
  0.2493685482356200  0.3826741382221142  0.5547327479848536   T   T   T
  0.2496743673105016  0.1334875197156447  0.5536730836119858   T   T   T
  0.2499839608712083  0.6248990128032899  0.3886328723498758   T   T   T
  0.2499994796417548  0.7499658737028910  0.3866811131449960   T   T   T
  0.2499999997239044  0.0000513585844359  0.1992858820091215   F   F   F
  0.2499999997239044  0.5000513585844431  0.1992858820091215   F   F   F
  0.2499999997239044  0.6250070552811167  0.1993925282102751   F   F   F
  0.2499999997239044  0.7500513587985225  0.1992858820091215   F   F   F
  0.2499999997239044  0.8750070554952032  0.1993925282102751   F   F   F
  0.2499999997239044  0.1250070552811167  0.1993925282102751   F   F   F
  0.2499999997239044  0.2500513587985225  0.1992858820091215   F   F   F
  0.2499999997239044  0.3750070554952032  0.1993925282102751   F   F   F
  0.2500415537554510  0.8748223907680388  0.3878977715265378   T   T   T
  0.2500084718104225  0.5001892503545282  0.3868271947494330   T   T   T
  0.2500695083559026  0.0003205034432751  0.3868666405569349   T   T   T
  0.2500612831265265  0.3748306417157414  0.3886407088236919   T   T   T
  0.2500770409253782  0.2499956119986599  0.3869039243467516   T   T   T
  0.2500787086225175  0.1248190678217629  0.3887805595608688   T   T   T
  0.2502873095349419  0.2543074177908785  0.5603471220476985   T   T   T
  0.2503089470115327  0.8843548555382433  0.5590824190449896   T   T   T
  0.2502570230699055  0.7551005087994017  0.5613659267109896   T   T   T
  0.2506349500516201  0.0066045535793987  0.5582247116419153   T   T   T
  0.2509416508551639  0.5052255972025423  0.5581324928106149   T   T   T
  0.3452476122867765  0.9998547719551993  0.3156484409089586   F   F   F
  0.3452476122867765  0.4998547719551993  0.3156484409089586   F   F   F
  0.3452476122867765  0.7498547721692859  0.3156484409089586   F   F   F
  0.3452476122867765  0.2498547721692859  0.3156484409089586   F   F   F
  0.3452917319051139  0.6251230654212776  0.3157550047659328   F   F   F
  0.3452917319051139  0.8751230656353641  0.3157550047659328   F   F   F
  0.3452917319051139  0.1251230654212776  0.3157550047659328   F   F   F
  0.3452917319051139  0.3751230656353641  0.3157550047659328   F   F   F
  0.3484374669930799  0.8779713958188050  0.4879304795680670   T   T   T
  0.3488273672167295  0.7471959232731323  0.4838762850780952   T   T   T
  0.3490850159081587  0.6275439074061401  0.4891101589814808   T   T   T
  0.3491067757298483  0.2470412714202469  0.4840524154432107   T   T   T
  0.3493412033689711  0.4974012783337543  0.4831251638500529   T   T   T
  0.3495054750659225  0.9966283578767440  0.4833715691638396   T   T   T
  0.3496808005151795  0.1282122669613286  0.4885147524529754   T   T   T
  0.3501732091515121  0.3785061755469582  0.4881813226506508   T   T   T
  0.4010255794384336  0.7505768096611810  0.4017746758131447   T   T   T
  0.4010006333922149  0.6245123968333841  0.4027292810828956   T   T   T
  0.4011011188537356  0.5009115375949627  0.4014401725350610   T   T   T
  0.4012141286508858  0.8744815863513710  0.4023201590471289   T   T   T
  0.4012059441780528  0.0007217486293937  0.4017695317479153   T   T   T
  0.4012452127595396  0.2507441356622389  0.4019576125965688   T   T   T
  0.4012315531409805  0.3744592464409532  0.4022790149989388   T   T   T
  0.4014082728803138  0.1244925306732860  0.4028589362310526   T   T   T
  0.4022478236063898  0.7693720141974932  0.5671503135030872   T   T   T
  0.4032300065656534  0.2678718228448403  0.5674315794331646   T   T   T
  0.4039148285377191  0.8928443578949624  0.5696477943279779   T   T   T
  0.4041460788890265  0.5178402878100621  0.5656818353438094   T   T   T
  0.4056667217480861  0.3965394693406244  0.5731356999648600   T   T   T
  0.4056069476517337  0.9999373617004466  0.2321734905809336   F   F   F
  0.4056069476517337  0.4999373617004466  0.2321734905809336   F   F   F
  0.4056069476517337  0.7499373619145331  0.2321734905809336   F   F   F
  0.4056069476517337  0.2499373619145331  0.2321734905809336   F   F   F
  0.4056495227880106  0.6250779795299195  0.2321437935324795   F   F   F
  0.4056495227880106  0.8750779797440060  0.2321437935324795   F   F   F
  0.4056495227880106  0.1250779795299195  0.2321437935324795   F   F   F
  0.4056495227880106  0.3750779797440060  0.2321437935324795   F   F   F
  0.4060635756960277  0.0172817935437089  0.5653245702890519   T   T   T
  0.4094988381948488  0.6469459335860683  0.5700431093493923   T   T   T
  0.4101832481611027  0.1469234064272279  0.5694369181974911   T   T   T
  0.4995381687838774  0.8750359789433059  0.4757792877770655   T   T   T
  0.4995816552138141  0.7506104447998732  0.4738767003520580   T   T   T
  0.5000000000000000  0.0000770226766207  0.3028264943543491   F   F   F
  0.5000000000000000  0.5000770226766207  0.3028264943543491   F   F   F
  0.5000000000000000  0.6248851796377153  0.3029475127301708   F   F   F
  0.5000000000000000  0.7500770228907001  0.3028264943543491   F   F   F
  0.5000000000000000  0.8748851798518018  0.3029475127301708   F   F   F
  0.5000000000000000  0.1248851796377153  0.3029475127301708   F   F   F
  0.5000000000000000  0.2500770228907001  0.3028264943543491   F   F   F
  0.5000000000000000  0.3748851798518018  0.3029475127301708   F   F   F
  0.5000212034622750  0.3758963791449958  0.4746658842480980   T   T   T
  0.5001573994606057  0.2516392881453301  0.4752331631056788   T   T   T
  0.5002451089514262  0.6249918374311705  0.4758605389989291   T   T   T
  0.5003887562986986  0.0006559491440634  0.4738969978698861   T   T   T
  0.5003300075145257  0.5010972504226298  0.4729228697230006   T   T   T
  0.5006506812228326  0.1253623245054716  0.4761908043463189   T   T   T
  0.0016665679710286  0.2681694494473160  0.5411604143914677   T   T   T
  0.0030250217377116  0.7662661595862492  0.5404937656680996   T   T   T
  0.6565433793000005  0.3305598771374346  0.5463694937040446   T   T   T
  0.6597557783557092  0.8329511261284586  0.5474290132212108   T   T   T
  0.6664946750810857  0.0789080904369435  0.5441973715067728   T   T   T
  0.6674811953273572  0.5794793213197932  0.5441272372205428   T   T   T
  0.8336590576249364  0.0794858922439093  0.5442522878553000   T   T   T
  0.8337299164405834  0.5797104063670623  0.5440355487209977   T   T   T
  0.8409592637529663  0.3322386113110141  0.5456977739702488   T   T   T
  0.8429871339672255  0.8334056351558145  0.5465053805512434   T   T   T
  0.9964692729341456  0.0147312514360027  0.5402321880429922   T   T   T
  0.9974394875399586  0.5156336873636059  0.5401588606594582   T   T   T
  0.1536128204918315  0.5830703563124546  0.5452648020506270   T   T   T
  0.1577008779067778  0.0828253302989967  0.5464338680546604   T   T   T
  0.1592186164412621  0.3317507594089505  0.5446444316914557   T   T   T
  0.1665384579607370  0.8296205590647016  0.5440107340337456   T   T   T
  0.3334415530229273  0.8293362906585723  0.5438291042290767   T   T   T
  0.3367305355573285  0.5845175429160451  0.5490116920495138   T   T   T
  0.3409925655053248  0.3307417764322842  0.5453849072161103   T   T   T
  0.3409827335867268  0.0820381553767952  0.5467763877924950   T   T   T
  0.4964272657990757  0.7644665893033671  0.5400707160116935   T   T   T
  0.4986918709551260  0.2708500769957716  0.5419302831881141   T   T   T
  0.5027787711968714  0.5127139097860793  0.5389927180416899   T   T   T
  0.5035570492341623  0.0139971264128826  0.5402119084123680   T   T   T
  0.0000000000000000  0.9999830748611132  0.1973415402473861   F   F   F
  0.0000000000000000  0.4999830748611132  0.1973415402473861   F   F   F
  0.0000000000000000  0.6250597900044994  0.1972695212469660   F   F   F
  0.0000000000000000  0.7499830750751997  0.1973415402473861   F   F   F
  0.0000000000000000  0.8750597902185859  0.1972695212469660   F   F   F
  0.0000000000000000  0.1250597900044994  0.1972695212469660   F   F   F
  0.0000000000000000  0.2499830750751997  0.1973415402473861   F   F   F
  0.0000000000000000  0.3750597902185859  0.1972695212469660   F   F   F
  0.9999785449087493  0.2504039268576601  0.3694369744743210   T   T   T
  0.9999866709224450  0.6248777967656017  0.3695254775762394   T   T   T
  0.0000277121391294  0.5004700065362253  0.3693305939882038   T   T   T
  0.0000485072873961  0.0004007276428727  0.3693656057478395   T   T   T
  0.0000612988767128  0.1247508775488557  0.3696425591566933   T   T   T
  0.0001668228942581  0.3726239396945888  0.5439455836600272   T   T   T
  0.0028822625136324  0.8710013400276569  0.5441488116907005   T   T   T
  0.5824959423441172  0.4374754614066489  0.2839355729984092   F   F   F
  0.5824959423441172  0.6874754611925624  0.2839355729984092   F   F   F
  0.5824959423441172  0.9374754614066489  0.2839355729984092   F   F   F
  0.5824959423441172  0.1874754611925624  0.2839355729984092   F   F   F
  0.5827651808530874  0.5624885324787385  0.2838652796168972   F   F   F
  0.5827651808530874  0.0624885324787385  0.2838652796168972   F   F   F
  0.5827651808530874  0.8124885322646520  0.2838652796168972   F   F   F
  0.5827651808530874  0.3124885322646520  0.2838652796168972   F   F   F
  0.5830193489675192  0.9373769497180149  0.4529402470043720   T   T   T
  0.5831156624658402  0.4377811284832845  0.4525611135417707   T   T   T
  0.5832500957650445  0.6873086137146786  0.4528427726358929   T   T   T
  0.5834293413728558  0.1877215922906832  0.4532685912481817   T   T   T
  0.5853334476699217  0.5628942467194743  0.4548495057241412   T   T   T
  0.5853378109407813  0.8127799110238350  0.4557968864039223   T   T   T
  0.5853397516576261  0.3128152208944857  0.4556911211262222   T   T   T
  0.5855130186037016  0.0628180087487074  0.4551582580052485   T   T   T
  0.6656093647577260  0.7027459324876717  0.5420224192038037   T   T   T
  0.6659163253997278  0.5625456426731574  0.2025671506292426   F   F   F
  0.6659163253997278  0.0625456426731503  0.2025671506292426   F   F   F
  0.6659163253997278  0.8125456424590709  0.2025671506292426   F   F   F
  0.6659163253997278  0.3125456424590709  0.2025671506292426   F   F   F
  0.6659898017733283  0.4375125970341855  0.2025194438276969   F   F   F
  0.6659898017733283  0.6875125968200990  0.2025194438276969   F   F   F
  0.6659898017733283  0.9375125970341855  0.2025194438276969   F   F   F
  0.6659898017733283  0.1875125968200990  0.2025194438276969   F   F   F
  0.6668274949492614  0.9512740401253204  0.5418184860452936   T   T   T
  0.6676842092305644  0.8126507469688178  0.3681656362127526   T   T   T
  0.6677306938932683  0.9372709697050989  0.3683043932944516   T   T   T
  0.6677416547450383  0.1874342436456289  0.3683310449976505   T   T   T
  0.6677726632851425  0.6874389956333516  0.3682334927061769   T   T   T
  0.6678100440938648  0.0626041108464290  0.3680198448260445   T   T   T
  0.6676518922256368  0.2007983473327870  0.5422556102031272   T   T   T
  0.6678765641835958  0.5626177850760971  0.3678407704529728   T   T   T
  0.6678903938470658  0.4373165628417251  0.3682346513563098   T   T   T
  0.6678627560550071  0.3126538564574195  0.3681655705090258   T   T   T
  0.6689318060130460  0.4494149004656645  0.5402854280382148   T   T   T
  0.7497766026362878  0.7479036579236964  0.4542021107244633   T   T   T
  0.7499140785560544  0.6271271316215032  0.4559977540852824   T   T   T
  0.7499048748695349  0.3774535369886276  0.4573269208512694   T   T   T
  0.7499905140391505  0.8772414745444856  0.4572461863751221   T   T   T
  0.7499999997239044  0.0001643475558382  0.2779548773829816   F   F   F
  0.7499999997239044  0.5001643475558382  0.2779548773829816   F   F   F
  0.7499999997239044  0.6249264342623420  0.2780286426703711   F   F   F
  0.7499999997239044  0.7501643477699247  0.2779548773829816   F   F   F
  0.7499999997239044  0.8749264344764285  0.2780286426703711   F   F   F
  0.7499999997239044  0.1249264342623420  0.2780286426703711   F   F   F
  0.7499999997239044  0.2501643477699247  0.2779548773829816   F   F   F
  0.7499999997239044  0.3749264344764285  0.2780286426703711   F   F   F
  0.7499984284175419  0.9986374418208639  0.4538311083822463   T   T   T
  0.7499568525231970  0.2480695506485500  0.4543516951657813   T   T   T
  0.7500656072216672  0.1269731087293237  0.4561364305697935   T   T   T
  0.7502387413544717  0.4989194246406537  0.4537129482093769   T   T   T
  0.0824959423441172  0.4374754614066489  0.2839355729984092   F   F   F
  0.0824959423441172  0.6874754611925624  0.2839355729984092   F   F   F
  0.0824959423441172  0.9374754614066489  0.2839355729984092   F   F   F
  0.0824959423441172  0.1874754611925624  0.2839355729984092   F   F   F
  0.0824815504739375  0.6880549193096394  0.4526693634401911   T   T   T
  0.0827651808530874  0.5624885324787385  0.2838652796168972   F   F   F
  0.0827651808530874  0.0624885324787385  0.2838652796168972   F   F   F
  0.0827651808530874  0.8124885322646520  0.2838652796168972   F   F   F
  0.0827651808530874  0.3124885322646520  0.2838652796168972   F   F   F
  0.0829205820160353  0.1878591232602211  0.4530451733396139   T   T   T
  0.0831176270124578  0.4379185077391496  0.4526818655853651   T   T   T
  0.8320349640675208  0.6875124418566446  0.3681994745663104   T   T   T
  0.8318689824445039  0.7024120259541901  0.5421120174939515   T   T   T
  0.8321990707854322  0.9373287987479803  0.3682996290358302   T   T   T
  0.8321788290765699  0.0626300235572965  0.3679859167360882   T   T   T
  0.8322179837110211  0.8127015428976023  0.3681772439793453   T   T   T
  0.8322086503259229  0.3126905244309096  0.3681738046130307   T   T   T
  0.8322153601829559  0.5626351046949486  0.3679001370953269   T   T   T
  0.8322313355753357  0.1874662284242211  0.3682947372022916   T   T   T
  0.8322992147744822  0.4373324885209612  0.3682487515257562   T   T   T
  0.8331710993971317  0.9521430049314149  0.5419585144752146   T   T   T
  0.8333851717124077  0.2022769200706551  0.5424397937132215   T   T   T
  0.8340101684082839  0.4375125970341855  0.2025194438276969   F   F   F
  0.8340101684082839  0.6875125968200990  0.2025194438276969   F   F   F
  0.8340101684082839  0.9375125970341855  0.2025194438276969   F   F   F
  0.8340101684082839  0.1875125968200990  0.2025194438276969   F   F   F
  0.8340836447818845  0.5625456426731574  0.2025671506292426   F   F   F
  0.8340836447818845  0.0625456426731503  0.2025671506292426   F   F   F
  0.8340836447818845  0.8125456424590709  0.2025671506292426   F   F   F
  0.8340836447818845  0.3125456424590709  0.2025671506292426   F   F   F
  0.8340912317598158  0.4517480306934455  0.5419438743719287   T   T   T
  0.0835409932537017  0.9376754617017006  0.4528246010832724   T   T   T
  0.0852405876542986  0.8131061455305270  0.4549212800884433   T   T   T
  0.0853137735103494  0.3129917488661793  0.4553581557743080   T   T   T
  0.0854562246379415  0.5631991230536559  0.4556918208171975   T   T   T
  0.0855370532548996  0.0630404133527856  0.4558792698349992   T   T   T
  0.9143585014712396  0.8130762274997229  0.4558727629143478   T   T   T
  0.9146094397978406  0.3130581649183951  0.4555910675197077   T   T   T
  0.9146381834512204  0.5630193683631137  0.4548856617430191   T   T   T
  0.9146299580859542  0.0630264900156879  0.4550946224387596   T   T   T
  0.9162359490271690  0.6877593892323367  0.4529139646891871   T   T   T
  0.9165647548031327  0.1877442393586534  0.4531121844121933   T   T   T
  0.9169745464444908  0.4378510254694599  0.4527287040014266   T   T   T
  0.9171320540262174  0.9377421267487608  0.4528162004652115   T   T   T
  0.9172348191469126  0.5624885324787385  0.2838652796168972   F   F   F
  0.9172348191469126  0.0624885324787385  0.2838652796168972   F   F   F
  0.9172348191469126  0.8124885322646520  0.2838652796168972   F   F   F
  0.9172348191469126  0.3124885322646520  0.2838652796168972   F   F   F
  0.9175040576558828  0.4374754614066489  0.2839355729984092   F   F   F
  0.9175040576558828  0.6874754611925624  0.2839355729984092   F   F   F
  0.9175040576558828  0.9374754614066489  0.2839355729984092   F   F   F
  0.9175040576558828  0.1874754611925624  0.2839355729984092   F   F   F
  0.9961906635065142  0.6209563858313639  0.5439298155421389   T   T   T
  0.9977944613863744  0.1196175743607019  0.5445206583370537   T   T   T
  0.9998277212092430  0.7504520524947302  0.3693571595898111   T   T   T
  0.9998967363230524  0.8747444684992720  0.3695652447708485   T   T   T
  0.9999500868558812  0.3747705253120933  0.3695720677644774   T   T   T
  0.1659163253997278  0.5625456426731574  0.2025671506292426   F   F   F
  0.1659163253997278  0.0625456426731503  0.2025671506292426   F   F   F
  0.1659163253997278  0.8125456424590709  0.2025671506292426   F   F   F
  0.1659163253997278  0.3125456424590709  0.2025671506292426   F   F   F
  0.1659898017733283  0.4375125970341855  0.2025194438276969   F   F   F
  0.1659898017733283  0.6875125968200990  0.2025194438276969   F   F   F
  0.1659898017733283  0.9375125970341855  0.2025194438276969   F   F   F
  0.1659898017733283  0.1875125968200990  0.2025194438276969   F   F   F
  0.1664970547378367  0.7023178158200952  0.5418836430760336   T   T   T
  0.1670737794676770  0.4514527535299575  0.5416536350092265   T   T   T
  0.1671871421364588  0.2014104899239736  0.5419885903804085   T   T   T
  0.1674332565262177  0.9523609529588275  0.5419198049460433   T   T   T
  0.1677217054334051  0.5627176522838778  0.3681560764752789   T   T   T
  0.1677161976457201  0.1873494555544025  0.3684705333146478   T   T   T
  0.1677914735605404  0.6873707876980567  0.3682331653663667   T   T   T