generated by phonopy                    
   1.00000000000000     
     7.6655875653114913    0.0071636635771263   -0.0144092407571406
    -3.8261969041644295    6.6434178730277411   -0.0471675353340483
    -0.0287894135111817   -0.1084636383796338   13.5445077795305906
   B    N    Ga
    32    36     4
Direct
  0.1078539231602357  0.2138988400834688 -0.0023197608219605
  0.4388893649625891  0.2168730104961034  0.0028998609265760
  0.7779866279322794  0.2111375263586273  0.0019693022504644
  0.1079381164921588  0.5379317560540529 -0.0013729740725522
  0.4369612802474979  0.5400805003171338 -0.0170359149215857
  0.7651777258079719  0.5380610306074064 -0.0015071458963229
  0.4389161566915022  0.8662604100397614  0.0027209786210122
  0.7652674960149705  0.8713551496499544 -0.0025915339928159
  0.0964779145539612  0.2305147622184552  0.5025298471426013
  0.4475567518862698  0.2306772438555174  0.5015364367406505
  0.7719571097555443  0.2311767375889739  0.4815115356498237
  0.0991306592735960  0.5612912774266375  0.4972553053046090
  0.7755124701974103  0.5613262071024289  0.4968423471108762
  0.1026555741206561  0.8916851898648480  0.5013857358377869
  0.4422661653164169  0.9042079691784286  0.4961790790216348
  0.7754631092856415  0.9041680320386605  0.4968128932661688
  0.2387728105991834  0.1235072389507199  0.2478251639456120
  0.5697200132544530  0.4518554119741673  0.2526262542257706
  0.9124787707836960  0.1182689846893795  0.2536055702699465
  0.2409251847095394  0.4495370721579102  0.2691403403781240
  0.9124843106834313  0.4516563229299244  0.2526073769501021
  0.2385309282812473  0.7723808298407330  0.2481704001043469
  0.5696765078183306  0.7753298216170703  0.2535775264138132
  0.8994785434144473  0.7783737149331107  0.2488376712558532
  0.2134448876535187  0.7731775742490226  0.7523046117760495
  0.5564849408719282  0.1156644703834228  0.7514501796310978
  0.8801165010977033  0.1154555736039758  0.7523310158273856
  0.2080900342882081  0.4463545394188940  0.7473380356926212
  0.5593232481370873  0.4465903846170249  0.7463882863766014
  0.8835233656375142  0.4458699621068754  0.7673165624406895
  0.5531179292452878  0.7853948880046492  0.7481917589804287
  0.8804204736780532  0.7731256554921877  0.7518999928627537
  0.2302508447110956  0.1264953159402497  0.0161185329865988
  0.5519062037090406  0.0982602319074704  0.0190722725208795
  0.8830309732546908  0.0967448316221832 -0.0003674094503765
  0.2159304004766011  0.4295883240950489 -0.0164134114793141
  0.5482502417145674  0.4287403321611540 -0.0164022943606384
  0.8831287932368559  0.4305258296442970  0.0011854782094379
  0.2306179682495062  0.7482975833559016  0.0172181664780792
  0.5481908336652319  0.7627713342399093 -0.0178321669405446
  0.8516479430456573  0.7483487546971501  0.0149116900517913
  0.2163292857124712  0.1186686201839253  0.5183408511920587
  0.5494904431920800  0.1200789634126267  0.4815411475736139
  0.8836645430422454  0.1201757235138813  0.4828800165714290
  0.1872879197267183  0.4398646064932760  0.5165128214077502
  0.5660098224541588  0.4401034930638394  0.5149881783035960
  0.8828484505997216  0.4524152636871412  0.4827725166819866
  0.2167593990506391  0.7864727518538058  0.4986880040361583
  0.5659149603978505  0.8180376600509980  0.5127549553789695
  0.8834013676022009  0.7864564699843037  0.4988414094487593
  0.1295668341265007  0.2265639134482409  0.2689885668350854
  0.4471646775100528  0.2414605631325057  0.2336566448328132
  0.8261774935490349  0.2413652287853472  0.2358482231893331
  0.1292999330236710  0.5606727914355037  0.2675692792836578
  0.4618615141351995  0.5599421284363818  0.2680360756710611
  0.7945521413442167  0.5592671992268897  0.2501676813596667
  0.1256991313970291  0.8912269591369614  0.2318404007743164
  0.4473211635778452  0.8629883509252168  0.2351695115349638
  0.7945539130627547  0.8927901209877708  0.2511493852706752
  0.0894872751913189  0.2369306179458245  0.7339237493740635
  0.4685766367007446  0.2372715724165283  0.7322987061962842
  0.7725458153857487  0.2243335716426683  0.7672323195992734
  0.1059878684253938  0.5571359117030030  0.7667413384229832
  0.4393489057484494  0.5583998907637621  0.7306530041756929
  0.7721052829003344  0.5570101751910407  0.7660378613154641
  0.0897698761336507  0.8591333512120573  0.7356236923624958
  0.4389133342054938  0.8908117595036669  0.7501890421043230
  0.7724104890849618  0.8906113932809053  0.7497474819089581
  0.1031188104574392  0.8756023288598246  0.0734520941207457
  0.5744673777784735  0.1137563847694151  0.1775616368291150
  0.4428932512339842  0.5708742661011925  0.5722441337785901
  0.2129189853340366  0.1066173433386019  0.6766316731520404
 
  0.00000000E+00  0.00000000E+00  0.00000000E+00
  0.00000000E+00  0.00000000E+00  0.00000000E+00
  0.00000000E+00  0.00000000E+00  0.00000000E+00
  0.00000000E+00  0.00000000E+00  0.00000000E+00
  0.00000000E+00  0.00000000E+00  0.00000000E+00
  0.00000000E+00  0.00000000E+00  0.00000000E+00
  0.00000000E+00  0.00000000E+00  0.00000000E+00
  0.00000000E+00  0.00000000E+00  0.00000000E+00
  0.00000000E+00  0.00000000E+00  0.00000000E+00
  0.00000000E+00  0.00000000E+00  0.00000000E+00
  0.00000000E+00  0.00000000E+00  0.00000000E+00
  0.00000000E+00  0.00000000E+00  0.00000000E+00
  0.00000000E+00  0.00000000E+00  0.00000000E+00
  0.00000000E+00  0.00000000E+00  0.00000000E+00
  0.00000000E+00  0.00000000E+00  0.00000000E+00
  0.00000000E+00  0.00000000E+00  0.00000000E+00
  0.00000000E+00  0.00000000E+00  0.00000000E+00
  0.00000000E+00  0.00000000E+00  0.00000000E+00
  0.00000000E+00  0.00000000E+00  0.00000000E+00
  0.00000000E+00  0.00000000E+00  0.00000000E+00
  0.00000000E+00  0.00000000E+00  0.00000000E+00
  0.00000000E+00  0.00000000E+00  0.00000000E+00
  0.00000000E+00  0.00000000E+00  0.00000000E+00
  0.00000000E+00  0.00000000E+00  0.00000000E+00
  0.00000000E+00  0.00000000E+00  0.00000000E+00
  0.00000000E+00  0.00000000E+00  0.00000000E+00
  0.00000000E+00  0.00000000E+00  0.00000000E+00
  0.00000000E+00  0.00000000E+00  0.00000000E+00
  0.00000000E+00  0.00000000E+00  0.00000000E+00
  0.00000000E+00  0.00000000E+00  0.00000000E+00
  0.00000000E+00  0.00000000E+00  0.00000000E+00
  0.00000000E+00  0.00000000E+00  0.00000000E+00
  0.00000000E+00  0.00000000E+00  0.00000000E+00
  0.00000000E+00  0.00000000E+00  0.00000000E+00
  0.00000000E+00  0.00000000E+00  0.00000000E+00
  0.00000000E+00  0.00000000E+00  0.00000000E+00
  0.00000000E+00  0.00000000E+00  0.00000000E+00
  0.00000000E+00  0.00000000E+00  0.00000000E+00
  0.00000000E+00  0.00000000E+00  0.00000000E+00
  0.00000000E+00  0.00000000E+00  0.00000000E+00
  0.00000000E+00  0.00000000E+00  0.00000000E+00
  0.00000000E+00  0.00000000E+00  0.00000000E+00
  0.00000000E+00  0.00000000E+00  0.00000000E+00
  0.00000000E+00  0.00000000E+00  0.00000000E+00
  0.00000000E+00  0.00000000E+00  0.00000000E+00
  0.00000000E+00  0.00000000E+00  0.00000000E+00
  0.00000000E+00  0.00000000E+00  0.00000000E+00
  0.00000000E+00  0.00000000E+00  0.00000000E+00
  0.00000000E+00  0.00000000E+00  0.00000000E+00
  0.00000000E+00  0.00000000E+00  0.00000000E+00
  0.00000000E+00  0.00000000E+00  0.00000000E+00
  0.00000000E+00  0.00000000E+00  0.00000000E+00
  0.00000000E+00  0.00000000E+00  0.00000000E+00
  0.00000000E+00  0.00000000E+00  0.00000000E+00
  0.00000000E+00  0.00000000E+00  0.00000000E+00
  0.00000000E+00  0.00000000E+00  0.00000000E+00
  0.00000000E+00  0.00000000E+00  0.00000000E+00
  0.00000000E+00  0.00000000E+00  0.00000000E+00
  0.00000000E+00  0.00000000E+00  0.00000000E+00
  0.00000000E+00  0.00000000E+00  0.00000000E+00
  0.00000000E+00  0.00000000E+00  0.00000000E+00
  0.00000000E+00  0.00000000E+00  0.00000000E+00
  0.00000000E+00  0.00000000E+00  0.00000000E+00
  0.00000000E+00  0.00000000E+00  0.00000000E+00
  0.00000000E+00  0.00000000E+00  0.00000000E+00
  0.00000000E+00  0.00000000E+00  0.00000000E+00
  0.00000000E+00  0.00000000E+00  0.00000000E+00
  0.00000000E+00  0.00000000E+00  0.00000000E+00
  0.00000000E+00  0.00000000E+00  0.00000000E+00
  0.00000000E+00  0.00000000E+00  0.00000000E+00
  0.00000000E+00  0.00000000E+00  0.00000000E+00
  0.00000000E+00  0.00000000E+00  0.00000000E+00
