Mo  S Cu                                
   1.00000000000000     
    15.9214998300000001    0.0000000000000000    0.0000000000000000
    -7.9622501300000001   13.7910221699999997    0.0000000000000000
     0.0000000000000000    0.0000000000000000   13.5821998300000004
    25    50     3
Direct
  0.1324476283578181  0.0658424765942157  0.6766589402196890
  0.1325666643174371  0.2656909936389635  0.6776009527529796
  0.1322760249985897  0.4652344188512525  0.6785282964084750
  0.1324719278044612  0.6659955568726623  0.6778371809497830
  0.1329540919818230  0.8662956644535827  0.6765681728430426
  0.3326497780262399  0.0657588501852732  0.6768450000246683
  0.3323358971862386  0.2658113162918989  0.6773209708772983
  0.3324128214416255  0.4655322402143362  0.6787449053712010
  0.3327120916508116  0.6659680984384656  0.6786094060133663
  0.3326385789231150  0.8659443649668043  0.6777843827493252
  0.5328316777638425  0.0660436588730105  0.6781882187069412
  0.5320019937368299  0.2657349456823873  0.6770624532434951
  0.5322958422823162  0.4649740376185940  0.6784090881188002
  0.5326057803027715  0.6661622395082665  0.6786098183199709
  0.5325265139907873  0.8657505829494642  0.6787646022222782
  0.7327740422300058  0.0658391449032818  0.6782061360067628
  0.7329975434558803  0.2659103203977070  0.6800915636321296
  0.7325866292595342  0.4656723032525770  0.6802309856518323
  0.7328158153267549  0.6660772419373455  0.6775937709835743
  0.7326142725708086  0.8658532157632363  0.6777188238773735
  0.9324843234371203  0.0656566486053296  0.6769735110722525
  0.9329394238803044  0.2655009233522787  0.6772809336443015
  0.9323951921048871  0.4655385914597863  0.6797020214521764
  0.9332464678948876  0.6669131539624075  0.6765677113696877
  0.9326871221753810  0.8661457076650912  0.6764777599081289
  0.0659336891787067  0.1328492765407676  0.5618183247102081
  0.0655429287198830  0.1316773989802967  0.7925968154146155
  0.0659746556185111  0.3321549702469462  0.5624848844991722
  0.0662249180916386  0.3319823739198451  0.7939757731008569
  0.0652691634230944  0.5318695474251337  0.5635077515648488
  0.0666434105083708  0.5331192217325680  0.7938395608291087
  0.0662848867906831  0.7326621170843199  0.5616263705588194
  0.0663722802513640  0.7336741872994221  0.7923335492499706
  0.0661076352366282  0.9328285264937548  0.5612012717667931
  0.0659696454611598  0.9326522425003261  0.7917246413347091
  0.2662305683867519  0.1330129165198758  0.5616921803307937
  0.2652563506100403  0.1313878268387547  0.7923596575670512
  0.2660067472629243  0.3328284415978414  0.5624539809627421
  0.2647512867969380  0.3322097542342688  0.7937664743159533
  0.2660338894771553  0.5324880028437858  0.5635390147794577
  0.2655193149533817  0.5321592299005553  0.7940809858788916
  0.2660890151668939  0.7322691445148884  0.5629816530125242
  0.2656987832789144  0.7328154177086087  0.7932999915850366
  0.2665376226897712  0.9325564750965633  0.5616468198903634
  0.2657706830008073  0.9328006481890214  0.7923534430276025
  0.4664765804106936  0.1326662481018440  0.5621325433327469
  0.4652280618309427  0.1322343113380335  0.7927579767159402
  0.4654053292400047  0.3319839774425307  0.5620734958673741
  0.4665354952317252  0.3320579878060487  0.7936276115575497
  0.4659800308169452  0.5324981723020999  0.5635766626227692
  0.4661669160448410  0.5326347611354847  0.7940858788908555
  0.4658654898757174  0.7325493064615161  0.5635528477777749
  0.4658484949849385  0.7325638551896444  0.7943614776009708
  0.4664206535879404  0.9326130565184397  0.5631834765619247
  0.4656867448878462  0.9326842651823563  0.7934967088065086
  0.6664318103272415  0.1332263518555231  0.5636846784029355
  0.6655966776793295  0.1314413542219026  0.7942037471968307
  0.6665555965274688  0.3325591304523790  0.5644287767837155
  0.6664689303555676  0.3329937289567008  0.7990121344482544
  0.6657905396833881  0.5316674940790168  0.5635821499373490
  0.6658366927562572  0.5332702115192695  0.7942234773898409
  0.6654079515313693  0.7322440024179537  0.5628402496107064
  0.6664715388566794  0.7328241194848996  0.7931949115045288
  0.6654676557793554  0.9324424552473568  0.5631378844400301
  0.6663390055131889  0.9325185541979388  0.7935539045213722
  0.8656176427177265  0.1324481999353497  0.5621883897149610
  0.8663436854811033  0.1319992165441483  0.7927746683596504
  0.8655199183136556  0.3325302493210331  0.5638611257208881
  0.8659993964904343  0.3324354716130692  0.7970719350170649
  0.8654170364535763  0.5317128214843649  0.5639741346105023
  0.8664873742938920  0.5333370676481181  0.7962768235211506
  0.8657991127436683  0.7325111515113144  0.5615379705354234
  0.8666087829390366  0.7335197706051443  0.7921485166639346
  0.8654061315513164  0.9324791955692975  0.5616746077418968
  0.8663162638590677  0.9325580183459146  0.7923193132453062
  0.2460964795605505  0.3460849847197193  0.9502408662423700
  0.5021635243196687  0.3387443913551851  0.9488537009341387
  0.8011447235937219  0.4001437998734676  0.9016939646875938
 
  0.00000000E+00  0.00000000E+00  0.00000000E+00
  0.00000000E+00  0.00000000E+00  0.00000000E+00
  0.00000000E+00  0.00000000E+00  0.00000000E+00
  0.00000000E+00  0.00000000E+00  0.00000000E+00
  0.00000000E+00  0.00000000E+00  0.00000000E+00
  0.00000000E+00  0.00000000E+00  0.00000000E+00
  0.00000000E+00  0.00000000E+00  0.00000000E+00
  0.00000000E+00  0.00000000E+00  0.00000000E+00
  0.00000000E+00  0.00000000E+00  0.00000000E+00
  0.00000000E+00  0.00000000E+00  0.00000000E+00
  0.00000000E+00  0.00000000E+00  0.00000000E+00
  0.00000000E+00  0.00000000E+00  0.00000000E+00
  0.00000000E+00  0.00000000E+00  0.00000000E+00
  0.00000000E+00  0.00000000E+00  0.00000000E+00
  0.00000000E+00  0.00000000E+00  0.00000000E+00
  0.00000000E+00  0.00000000E+00  0.00000000E+00
  0.00000000E+00  0.00000000E+00  0.00000000E+00
  0.00000000E+00  0.00000000E+00  0.00000000E+00
  0.00000000E+00  0.00000000E+00  0.00000000E+00
  0.00000000E+00  0.00000000E+00  0.00000000E+00
  0.00000000E+00  0.00000000E+00  0.00000000E+00
  0.00000000E+00  0.00000000E+00  0.00000000E+00
  0.00000000E+00  0.00000000E+00  0.00000000E+00
  0.00000000E+00  0.00000000E+00  0.00000000E+00
  0.00000000E+00  0.00000000E+00  0.00000000E+00
  0.00000000E+00  0.00000000E+00  0.00000000E+00
  0.00000000E+00  0.00000000E+00  0.00000000E+00
  0.00000000E+00  0.00000000E+00  0.00000000E+00
  0.00000000E+00  0.00000000E+00  0.00000000E+00
  0.00000000E+00  0.00000000E+00  0.00000000E+00
  0.00000000E+00  0.00000000E+00  0.00000000E+00
  0.00000000E+00  0.00000000E+00  0.00000000E+00
  0.00000000E+00  0.00000000E+00  0.00000000E+00
  0.00000000E+00  0.00000000E+00  0.00000000E+00
  0.00000000E+00  0.00000000E+00  0.00000000E+00
  0.00000000E+00  0.00000000E+00  0.00000000E+00
  0.00000000E+00  0.00000000E+00  0.00000000E+00
  0.00000000E+00  0.00000000E+00  0.00000000E+00
  0.00000000E+00  0.00000000E+00  0.00000000E+00
  0.00000000E+00  0.00000000E+00  0.00000000E+00
  0.00000000E+00  0.00000000E+00  0.00000000E+00
  0.00000000E+00  0.00000000E+00  0.00000000E+00
  0.00000000E+00  0.00000000E+00  0.00000000E+00
  0.00000000E+00  0.00000000E+00  0.00000000E+00
  0.00000000E+00  0.00000000E+00  0.00000000E+00
  0.00000000E+00  0.00000000E+00  0.00000000E+00
  0.00000000E+00  0.00000000E+00  0.00000000E+00
  0.00000000E+00  0.00000000E+00  0.00000000E+00
  0.00000000E+00  0.00000000E+00  0.00000000E+00
  0.00000000E+00  0.00000000E+00  0.00000000E+00
  0.00000000E+00  0.00000000E+00  0.00000000E+00
  0.00000000E+00  0.00000000E+00  0.00000000E+00
  0.00000000E+00  0.00000000E+00  0.00000000E+00
  0.00000000E+00  0.00000000E+00  0.00000000E+00
  0.00000000E+00  0.00000000E+00  0.00000000E+00
  0.00000000E+00  0.00000000E+00  0.00000000E+00
  0.00000000E+00  0.00000000E+00  0.00000000E+00
  0.00000000E+00  0.00000000E+00  0.00000000E+00
  0.00000000E+00  0.00000000E+00  0.00000000E+00
  0.00000000E+00  0.00000000E+00  0.00000000E+00
  0.00000000E+00  0.00000000E+00  0.00000000E+00
  0.00000000E+00  0.00000000E+00  0.00000000E+00
  0.00000000E+00  0.00000000E+00  0.00000000E+00
  0.00000000E+00  0.00000000E+00  0.00000000E+00
  0.00000000E+00  0.00000000E+00  0.00000000E+00
  0.00000000E+00  0.00000000E+00  0.00000000E+00
  0.00000000E+00  0.00000000E+00  0.00000000E+00
  0.00000000E+00  0.00000000E+00  0.00000000E+00
  0.00000000E+00  0.00000000E+00  0.00000000E+00
  0.00000000E+00  0.00000000E+00  0.00000000E+00
  0.00000000E+00  0.00000000E+00  0.00000000E+00
  0.00000000E+00  0.00000000E+00  0.00000000E+00
  0.00000000E+00  0.00000000E+00  0.00000000E+00
  0.00000000E+00  0.00000000E+00  0.00000000E+00
  0.00000000E+00  0.00000000E+00  0.00000000E+00
  0.00000000E+00  0.00000000E+00  0.00000000E+00
  0.00000000E+00  0.00000000E+00  0.00000000E+00
  0.00000000E+00  0.00000000E+00  0.00000000E+00
