Ta  N Cu 
 1.0000000000000000
    18.1096308199999996    0.0000000000000000    0.0000000000000000
     0.0000000000000000   23.3551997799999995    0.0000000000000000
     0.0000000000000000    0.0000000000000000   30.4818170799999990
 240 240  29
Selective dynamics
Cartesian
 18.0484439999999999 23.3398760000000003  5.9448530000000002   F   F   F
  5.9350660000000000  1.3593740000000001  6.1376350000000004   F   F   F
  3.0503060000000000  1.3578699999999999  6.1389019999999999   F   F   F
  4.4897609999999997  2.8979230000000000  8.5356780000000008   F   F   F
  1.4638290000000000  1.4423919999999999  8.6246810000000007   F   F   F
  7.5180689999999997  1.4430270000000001  8.6232380000000006   F   F   F
 18.0720440000000018  2.8970780000000000 11.2404349999999997   F   F   F
  5.9854240000000001  1.4391560000000001 11.2147009999999998   F   F   F
  2.9967609999999998  1.4383859999999999 11.2156160000000007   F   F   F
  4.4927400000000004  2.8987050000000001 13.8801530000000000   F   F   F
  1.4810630000000000  1.4372929999999999 13.8382970000000007   F   F   F
  7.5014640000000004  1.4380569999999999 13.8375419999999991   F   F   F
 18.0765610000000017  2.8967559999999999 16.4727040000000002   F   F   F
  6.0370290000000004  1.4344990000000000 16.5281999999999982   F   F   F
  2.9524379999999999  1.4354460000000000 16.5253760000000014   F   F   F
 18.1073340000000016  2.8981550000000000  5.9436900000000001   F   F   F
  5.9345299999999996  4.4393950000000002  6.1368470000000004   F   F   F
  3.0505890000000000  4.4405400000000004  6.1417010000000003   F   F   F
  4.4869289999999999  5.8143830000000003  8.5554620000000003   F   F   F
  1.4612860000000001  4.3529380000000000  8.6256869999999992   F   F   F
  7.5174149999999997  4.3534730000000001  8.6222560000000001   F   F   F
 18.0682569999999991  5.8154250000000003 11.2446479999999998   F   F   F
  5.9824510000000002  4.3551970000000004 11.2140450000000005   F   F   F
  2.9947509999999999  4.3559089999999996 11.2165540000000004   F   F   F
  4.4887550000000003  5.8105570000000002 13.8791960000000003   F   F   F
  1.4752300000000000  4.3530069999999998 13.8370700000000006   F   F   F
  7.5033000000000003  4.3526480000000003 13.8367590000000007   F   F   F
 18.0579210000000003  5.8201790000000004 16.4754289999999983   F   F   F
  6.0149140000000001  4.3290150000000001 16.5362030000000004   F   F   F
  2.9396300000000002  4.3567840000000002 16.5209599999999988   F   F   F
 18.0472670000000015  5.8133020000000002  5.9464880000000004   F   F   F
  5.9356510000000000  7.1968310000000004  6.1364840000000003   F   F   F
  3.0486890000000000  7.1936479999999996  6.1403920000000003   F   F   F
  4.4856749999999996  8.7342410000000008  8.5351870000000005   F   F   F
  1.4602010000000001  7.2763020000000003  8.6252479999999991   F   F   F
  7.5170700000000004  7.2773830000000004  8.6216919999999995   F   F   F
 18.0707729999999991  8.7340470000000003 11.2462750000000007   F   F   F
  5.9821830000000000  7.2738839999999998 11.2091180000000001   F   F   F
  2.9919750000000001  7.2749360000000003 11.2150759999999998   F   F   F
  4.4759599999999997  8.7327180000000002 13.8646689999999992   F   F   F
  1.4694419999999999  7.2729990000000004 13.8407250000000008   F   F   F
  7.5009730000000001  7.2703199999999999 13.8241479999999992   F   F   F
 18.0350910000000013  8.7472759999999994 16.4966219999999986   F   F   F
  5.9525759999999996  7.2471209999999999 16.4618070000000003   F   F   F
  2.9132110000000000  7.2668020000000002 16.5149439999999998   F   F   F
  0.0005970000000000  8.7273499999999995  5.9479360000000003   F   F   F
  5.9321529999999996 10.2754610000000000  6.1351149999999999   F   F   F
  3.0516440000000000 10.2781950000000002  6.1403410000000003   F   F   F
  4.4913049999999997 23.3367280000000008  8.5548000000000002   F   F   F
  1.4584210000000000 10.1896339999999999  8.6247410000000002   F   F   F
  7.5174839999999996 10.1907219999999992  8.6189950000000000   F   F   F
 18.0758079999999985 23.3352940000000011 11.2394669999999994   F   F   F
  5.9820950000000002 10.1950550000000000 11.2051569999999998   F   F   F
  2.9893779999999999 10.1945530000000009 11.2126730000000006   F   F   F
  4.4948969999999999 23.3354590000000002 13.8808500000000006   F   F   F
  1.4780730000000000 10.1947620000000008 13.8524340000000006   F   F   F
  7.4943190000000000 10.1925220000000003 13.8135820000000002   F   F   F
 18.0772200000000005 23.3334380000000010 16.4721490000000017   F   F   F
  5.9608480000000004 10.1764799999999997 16.4463299999999997   F   F   F
  2.9048020000000001 10.1718759999999993 16.5170840000000005   F   F   F
 18.0635300000000001 11.6519349999999999  5.9358350000000000   F   F   F
  5.9336169999999999 13.0361670000000007  6.1352779999999996   F   F   F
  3.0523590000000000 13.0323740000000008  6.1403889999999999   F   F   F
  4.4882720000000003 14.5764560000000003  8.5310039999999994   F   F   F
  1.4583060000000001 13.1176100000000009  8.6218620000000001   F   F   F
  7.5199850000000001 13.1185500000000008  8.6166649999999994   F   F   F
 18.0822509999999994 14.5761930000000000 11.2430590000000006   F   F   F
  5.9843979999999997 13.1181059999999992 11.2051029999999994   F   F   F
  2.9935670000000001 13.1159409999999994 11.2107700000000001   F   F   F
  4.4872690000000004 14.5786370000000005 13.8615010000000005   F   F   F
  1.4956790000000000 13.1165439999999993 13.8580009999999998   F   F   F
  7.4906090000000001 13.1207089999999997 13.8201879999999999   F   F   F
 18.0773440000000001 14.5737439999999996 16.4627410000000012   F   F   F
  5.9971540000000001 13.1140360000000005 16.4510609999999993   F   F   F
  2.8983300000000001 13.1097880000000000 16.5525130000000011   F   F   F
  0.0139190000000000 14.5771069999999998  5.9444739999999996   F   F   F
  5.9352179999999999 16.1183690000000013  6.1354860000000002   F   F   F
  3.0533480000000002 16.1196379999999984  6.1391220000000004   F   F   F
  4.4904120000000001 17.4979849999999999  8.5498379999999994   F   F   F
  1.4605520000000001 16.0350879999999982  8.6209410000000002   F   F   F
  7.5205229999999998 16.0361849999999997  8.6180289999999999   F   F   F
 18.0804699999999983 17.4992890000000010 11.2381419999999999   F   F   F
  5.9863670000000004 16.0382069999999999 11.2084930000000007   F   F   F
  2.9968590000000002 16.0361219999999989 11.2109780000000008   F   F   F
  4.4942549999999999 17.4972040000000000 13.8771889999999996   F   F   F
  1.4927180000000000 16.0373669999999997 13.8453839999999992   F   F   F
  7.4968969999999997 16.0432869999999994 13.8318539999999999   F   F   F
 18.0787440000000004 17.4959759999999989 16.4580930000000016   F   F   F
  5.9918339999999999 16.0692650000000015 16.4893290000000015   F   F   F
  2.9186580000000002 16.0530180000000016 16.5380059999999993   F   F   F
 18.0656490000000005 17.5027660000000012  5.9325320000000001   F   F   F
  5.9341130000000000 18.8779469999999989  6.1339889999999997   F   F   F
  3.0533809999999999 18.8758289999999995  6.1366250000000004   F   F   F
  4.4917699999999998 20.4181020000000011  8.5352080000000008   F   F   F
  1.4643710000000001 18.9619639999999983  8.6223559999999999   F   F   F
  7.5195340000000002 18.9631609999999995  8.6202719999999999   F   F   F
 18.0785559999999990 20.4179059999999986 11.2367279999999994   F   F   F
  5.9861519999999997 18.9576460000000004 11.2116260000000008   F   F   F
  2.9984579999999998 18.9563519999999990 11.2126669999999997   F   F   F
  4.4939159999999996 20.4181370000000015 13.8739709999999992   F   F   F
  1.4859260000000001 18.9597839999999991 13.8355840000000008   F   F   F
  7.5019340000000003 18.9637080000000005 13.8329839999999997   F   F   F
 18.0796470000000014 20.4157310000000010 16.4686939999999993   F   F   F
  6.0093199999999998 18.9946550000000016 16.5173570000000005   F   F   F
  2.9475680000000000 18.9618220000000015 16.5210509999999999   F   F   F
  0.0033660000000000 20.4261710000000001  5.9447739999999998   F   F   F
  5.9372109999999996 21.9586879999999987  6.1358889999999997   F   F   F
  3.0499010000000002 21.9585569999999990  6.1383580000000002   F   F   F
  4.4842930000000001 11.6554079999999995  8.5499939999999999   F   F   F
  1.4649740000000000 21.8745620000000009  8.6239519999999992   F   F   F
  7.5183819999999999 21.8750180000000007  8.6221709999999998   F   F   F
 18.0776859999999999 11.6539180000000009 11.2471209999999999   F   F   F
  5.9862989999999998 21.8764159999999990 11.2131609999999995   F   F   F
  2.9987720000000002 21.8757230000000007 11.2142619999999997   F   F   F
  4.4810169999999996 11.6548440000000006 13.8564120000000006   F   F   F
  1.4831340000000000 21.8770389999999999 13.8369970000000002   F   F   F
  7.5029500000000002 21.8786699999999996 13.8347940000000005   F   F   F
 18.0809229999999985 11.6531629999999993 16.4784369999999996   F   F   F
  6.0386759999999997 21.8870439999999995 16.5270200000000003   F   F   F
  2.9547770000000000 21.8762889999999999 16.5240720000000003   F   F   F
  9.0451580000000007 23.3398320000000012  5.9420620000000000   F   F   F
 14.9932250000000007  1.5199360000000000  6.1422929999999996   F   F   F
 12.1016279999999998  1.5173070000000000  6.1404139999999998   F   F   F
 13.5477290000000004  2.8979889999999999  8.5529840000000004   F   F   F
 10.5136640000000003  1.4355190000000000  8.6220040000000004   F   F   F
 16.5786569999999998  1.4363360000000001  8.6241509999999995   F   F   F
  9.0178110000000000  2.8973719999999998 11.2375650000000000   F   F   F
 15.0408460000000002  1.4384239999999999 11.2138570000000009   F   F   F
 12.0513399999999997  1.4380520000000001 11.2109539999999992   F   F   F
 13.5481230000000004  2.8964070000000000 13.8763880000000004   F   F   F
 10.5376250000000002  1.4359160000000000 13.8347580000000008   F   F   F
 16.5560280000000013  1.4358089999999999 13.8375990000000009   F   F   F
  9.0091520000000003  2.9042319999999999 16.4642769999999992   F   F   F
 15.0798070000000006  1.4224540000000001 16.5247449999999994   F   F   F
 12.0073849999999993  1.4294950000000000 16.5247099999999989   F   F   F
  8.9860109999999995  2.8983449999999999  5.9416320000000002   F   F   F
 14.9928050000000006  4.2809790000000003  6.1433920000000004   F   F   F
 12.1008359999999993  4.2807399999999998  6.1400569999999997   F   F   F
 13.5464289999999998  5.8134829999999997  8.5410280000000007   F   F   F
 10.5129409999999996  4.3597479999999997  8.6224129999999999   F   F   F
 16.5775599999999983  4.3608260000000003  8.6252220000000008   F   F   F
  9.0183640000000000  5.8132460000000004 11.2392179999999993   F   F   F
 15.0417050000000003  4.3560970000000001 11.2147129999999997   F   F   F
 12.0506639999999994  4.3555580000000003 11.2111920000000005   F   F   F
 13.5482279999999999  5.8132549999999998 13.8649140000000006   F   F   F
 10.5429040000000001  4.3511959999999998 13.8348910000000007   F   F   F
 16.5502159999999989  4.3511040000000003 13.8449139999999993   F   F   F
  9.0216130000000003  5.8354520000000001 16.4524410000000003   F   F   F
 15.1013579999999994  4.3224790000000004 16.5389899999999983   F   F   F
 11.9817149999999994  4.3229150000000001 16.5239599999999989   F   F   F
  9.0449230000000007  5.8132489999999999  5.9420289999999998   F   F   F
 14.9886440000000007  7.3465910000000001  6.1416360000000001   F   F   F
 12.1016949999999994  7.3449999999999998  6.1386279999999998   F   F   F
 13.5477000000000007  8.7310440000000007  8.5502909999999996   F   F   F
 10.5130090000000003  7.2682950000000002  8.6213669999999993   F   F   F
 16.5769799999999989  7.2687030000000004  8.6245609999999999   F   F   F
  9.0184470000000001  8.7342359999999992 11.2355789999999995   F   F   F
 15.0444189999999995  7.2749689999999996 11.2185269999999999   F   F   F
 12.0497080000000008  7.2739789999999998 11.2123120000000007   F   F   F
 13.5462880000000006  8.7367109999999997 13.8690829999999998   F   F   F
 10.5399329999999996  7.2707879999999996 13.8343430000000005   F   F   F
 16.5503789999999995  7.2729600000000003 13.8506689999999999   F   F   F
  9.0049759999999992  8.7335329999999995 16.4277079999999991   F   F   F
 15.1075510000000008  7.2576630000000000 16.5145100000000014   F   F   F
 11.9823269999999997  7.2391920000000001 16.4945079999999997   F   F   F
  8.9827969999999997  8.7279219999999995  5.9441750000000004   F   F   F
 14.9894759999999998 10.0971119999999992  6.1297439999999996   F   F   F
 12.1049559999999996 10.0974280000000007  6.1270389999999999   F   F   F
 13.5472599999999996 23.3381979999999984  8.5409020000000009   F   F   F
 10.5162560000000003 10.1932379999999991  8.6205750000000005   F   F   F
 16.5738449999999986 10.1937060000000006  8.6243970000000001   F   F   F
  9.0184940000000005 23.3352860000000000 11.2372080000000008   F   F   F
 15.0477709999999991 10.1941749999999995 11.2153109999999998   F   F   F
 12.0521600000000007 10.1940419999999996 11.2073260000000001   F   F   F
 13.5477799999999995 23.3344379999999987 13.8741550000000000   F   F   F
 10.5340969999999992 10.1981380000000001 13.8231359999999999   F   F   F
 16.5584160000000011 10.1976080000000007 13.8480089999999993   F   F   F
  9.0205269999999995 23.3340859999999992 16.4696989999999985   F   F   F
 15.0927070000000008 10.2092500000000008 16.4720149999999990   F   F   F
 12.0341810000000002 10.2124430000000004 16.4458559999999991   F   F   F
  9.0323379999999993 11.6522880000000004  5.9310320000000001   F   F   F
 15.0716070000000002 13.1279590000000006  6.1713089999999999   F   F   F
 12.0264710000000008 13.1259850000000000  6.1686470000000000   F   F   F
 13.5477299999999996 14.5772469999999998  8.4568619999999992   F   F   F
 10.5142319999999998 13.1113660000000003  8.6204719999999995   F   F   F
 16.5791359999999983 13.1114719999999991  8.6247930000000004   F   F   F
  9.0175739999999998 14.5793040000000005 11.2324079999999995   F   F   F
 15.0454650000000001 13.1170810000000007 11.2042859999999997   F   F   F
 12.0568869999999997 13.1175069999999998 11.1980350000000008   F   F   F
 13.5611529999999991 14.5843729999999994 13.8531160000000000   F   F   F
 10.5362709999999993 13.1233369999999994 13.8156450000000000   F   F   F
 16.5651809999999990 13.1224399999999992 13.8329959999999996   F   F   F
  9.0611440000000005 14.5950749999999996 16.4310830000000010   F   F   F
 15.1223039999999997 13.1726259999999993 16.5046220000000012   F   F   F
 12.0786420000000003 13.1515199999999997 16.4459519999999983   F   F   F
  8.9733199999999993 14.5777549999999998  5.9425809999999997   F   F   F
 15.0711270000000006 16.0256189999999989  6.1696000000000000   F   F   F
 12.0257489999999994 16.0272280000000009  6.1674350000000002   F   F   F
 13.5472680000000008 17.5241010000000017  8.4872099999999993   F   F   F
 10.5150000000000006 16.0426390000000012  8.6201270000000001   F   F   F
 16.5791739999999983 16.0429239999999993  8.6222089999999998   F   F   F
  9.0187360000000005 17.5007009999999994 11.2336419999999997   F   F   F
 15.0424100000000003 16.0402340000000017 11.1980149999999998   F   F   F
 12.0557009999999991 16.0405209999999983 11.1990280000000002   F   F   F
 13.5522419999999997 17.5024979999999992 13.8635219999999997   F   F   F
 10.5380079999999996 16.0441010000000013 13.8211840000000006   F   F   F
 16.5670059999999992 16.0432039999999994 13.8238819999999993   F   F   F
  9.0230960000000007 17.4865339999999989 16.4416200000000003   F   F   F
 15.1262109999999996 16.0611059999999988 16.5042070000000010   F   F   F
 12.0868830000000003 16.0667019999999994 16.4638740000000006   F   F   F
  9.0321440000000006 17.5020269999999982  5.9302659999999996   F   F   F
 14.9911560000000001 19.0577530000000017  6.1255550000000003   F   F   F
 12.1058280000000007 19.0570079999999997  6.1244149999999999   F   F   F
 13.5478470000000009 20.4228990000000010  8.5482010000000006   F   F   F
 10.5187299999999997 18.9597179999999987  8.6199770000000004   F   F   F
 16.5764050000000012 18.9603569999999984  8.6207680000000000   F   F   F
  9.0185910000000007 20.4178320000000006 11.2353950000000005   F   F   F
 15.0423390000000001 18.9606269999999988 11.2070670000000003   F   F   F
 12.0547470000000008 18.9599420000000016 11.2081909999999993   F   F   F
 13.5515030000000003 20.4161479999999997 13.8716880000000007   F   F   F
 10.5387369999999994 18.9626190000000001 13.8302420000000001   F   F   F
 16.5625959999999992 18.9612850000000002 13.8259699999999999   F   F   F
  9.0204260000000005 20.4100740000000016 16.4643879999999996   F   F   F
 15.1030650000000009 18.9644750000000002 16.5120019999999990   F   F   F
 12.0284890000000004 18.9920560000000016 16.5173050000000003   F   F   F
  8.9828519999999994 20.4265259999999991  5.9438409999999999   F   F   F
 14.9917169999999995 21.8084540000000011  6.1385410000000000   F   F   F
 12.1040569999999992 21.8092359999999985  6.1369210000000001   F   F   F
 13.5480669999999996 11.6302699999999994  8.4901440000000008   F   F   F
 10.5149640000000009 21.8831719999999983  8.6204280000000004   F   F   F
 16.5791840000000015 21.8841439999999992  8.6223500000000008   F   F   F
  9.0182269999999995 11.6543729999999996 11.2325370000000007   F   F   F
 15.0422089999999997 21.8775919999999999 11.2116460000000000   F   F   F
 12.0522790000000004 21.8769300000000015 11.2112660000000002   F   F   F
 13.5646710000000006 11.6656560000000002 13.8510880000000007   F   F   F
 10.5390060000000005 21.8771270000000015 13.8337339999999998   F   F   F
 16.5588049999999996 21.8756780000000006 13.8329559999999994   F   F   F
  9.0322270000000007 11.6546900000000004 16.4157270000000004   F   F   F
 15.0912279999999992 21.8742489999999989 16.5209629999999983   F   F   F
 12.0040060000000004 21.8818190000000001 16.5222820000000006   F   F   F
  7.3286160000000002 23.3376750000000008  7.0473999999999997   F   F   F
  4.4934810000000001 23.3361130000000010  5.3684950000000002   F   F   F
  1.6569710000000000 23.3373010000000001  7.0491960000000002   F   F   F
  2.7333900000000000  2.8976639999999998  9.6191230000000001   F   F   F
 18.0726900000000015  2.8979979999999999  9.1952320000000007   F   F   F
  6.2470160000000003  2.8981240000000001  9.6168910000000007   F   F   F
  7.2307750000000004  2.8977650000000001 12.2440079999999991   F   F   F
  4.4902030000000002  2.8969680000000002 11.8037949999999991   F   F   F
  1.7487440000000001  2.8973179999999998 12.2444340000000000   F   F   F
  2.7069690000000000  2.8963679999999998 14.8537370000000006   F   F   F
 18.0715380000000003  2.8957619999999999 14.3997569999999993   F   F   F
  6.2785050000000000  2.8989460000000000 14.8605649999999994   F   F   F
  7.2605480000000000  2.9095309999999999 17.3863780000000006   F   F   F
  4.4955990000000003  2.9097070000000000 16.9889940000000017   F   F   F
  1.7215980000000000  2.8944619999999999 17.3728259999999999   F   F   F
  7.3035690000000004  2.8987099999999999  7.0358739999999997   F   F   F
  4.4923739999999999  2.8990879999999999  6.3957819999999996   F   F   F
  1.6807460000000001  2.8985479999999999  7.0380180000000001   F   F   F
  2.7254290000000001  5.8150779999999997  9.6277279999999994   F   F   F
 18.0749069999999996  5.8152879999999998  9.1988529999999997   F   F   F
  6.2517110000000002  5.8151070000000002  9.6234070000000003   F   F   F
  7.2295369999999997  5.8114860000000004 12.2410169999999994   F   F   F
  4.4895820000000004  5.8155200000000002 11.8039039999999993   F   F   F
  1.7446420000000000  5.8159630000000000 12.2468950000000003   F   F   F
  2.7006720000000000  5.8090469999999996 14.8528450000000003   F   F   F
 18.0649739999999994  5.8144439999999999 14.4032380000000000   F   F   F
  6.2815159999999999  5.8016410000000000 14.8661539999999999   F   F   F
  7.2552339999999997  5.8507550000000004 17.4361080000000008   F   F   F
  4.4711860000000003  5.8196170000000000 16.9953019999999988   F   F   F
  1.7003960000000000  5.8112919999999999 17.3741529999999997   F   F   F
  7.3281460000000003  5.8154779999999997  7.0465570000000000   F   F   F
  4.4932350000000003  5.8181630000000002  5.3700299999999999   F   F   F
  1.6536670000000000  5.8144999999999998  7.0510760000000001   F   F   F
  2.7288709999999998  8.7336580000000001  9.6192670000000007   F   F   F
 18.0703969999999998  8.7334849999999999  9.1991820000000004   F   F   F
  6.2445589999999997  8.7344740000000005  9.6123499999999993   F   F   F
  7.2265620000000004  8.7329229999999995 12.2306640000000009   F   F   F
  4.4863780000000002  8.7349320000000006 11.7932810000000003   F   F   F
  1.7459060000000000  8.7349390000000007 12.2502030000000008   F   F   F
  2.6950449999999999  8.7254220000000000 14.8558090000000007   F   F   F
 18.0649230000000003  8.7354059999999993 14.4205539999999992   F   F   F
  6.2668229999999996  8.7231190000000005 14.8299550000000000   F   F   F
  7.1888660000000000  8.7261799999999994 17.3092770000000016   F   F   F
  4.4535229999999997  8.7266569999999994 16.9834379999999996   F   F   F
  1.6792980000000000  8.7359849999999994 17.3746970000000012   F   F   F
  7.3027110000000004  8.7338880000000003  7.0369940000000000   F   F   F
  4.4910280000000000  8.7334639999999997  6.4004810000000001   F   F   F
  1.6808510000000001  8.7334949999999996  7.0405430000000004   F   F   F
  2.7289479999999999 23.3356959999999987  9.6261630000000000   F   F   F
 18.0778980000000011 23.3364949999999993  9.1948109999999996   F   F   F
  6.2542780000000002 23.3362230000000004  9.6249540000000007   F   F   F
  7.2327130000000004 23.3357819999999982 12.2446579999999994   F   F   F
  4.4922930000000001 23.3350529999999985 11.8054980000000000   F   F   F
  1.7515900000000000 23.3345559999999992 12.2457709999999995   F   F   F
  2.7095050000000001 23.3358580000000018 14.8551450000000003   F   F   F
 18.0741650000000007 23.3341330000000013 14.3982829999999993   F   F   F
  6.2808370000000000 23.3359559999999995 14.8572849999999992   F   F   F
  7.2669230000000002 23.3369420000000005 17.3781900000000000   F   F   F
  4.4967860000000002 23.3371080000000006 16.9931319999999992   F   F   F
  1.7263780000000000 23.3334750000000000 17.3711200000000012   F   F   F
  7.3254469999999996 11.6474700000000002  7.0444750000000003   F   F   F
  4.4940949999999997 11.6552140000000009  5.3673830000000002   F   F   F
  1.6573540000000000 11.6469310000000004  7.0515100000000004   F   F   F
  2.7306569999999999 14.5766629999999999  9.6152379999999997   F   F   F
 18.0708069999999985 14.5771370000000005  9.1986650000000001   F   F   F
  6.2487279999999998 14.5775279999999992  9.6101539999999996   F   F   F
  7.2278840000000004 14.5801459999999992 12.2356180000000005   F   F   F
  4.4905980000000003 14.5773639999999993 11.7894249999999996   F   F   F
  1.7594860000000001 14.5744489999999995 12.2512000000000008   F   F   F
  2.7252149999999999 14.5807090000000006 14.8848690000000001   F   F   F
 18.0824460000000009 14.5778400000000001 14.3906179999999999   F   F   F
  6.2621710000000004 14.5875190000000003 14.8553960000000007   F   F   F
  7.2625520000000003 14.5644449999999992 17.3123399999999990   F   F   F
  4.4996359999999997 14.5576349999999994 17.1399580000000000   F   F   F
  1.7102560000000000 14.5756940000000004 17.3968729999999994   F   F   F
  7.2953400000000004 14.5773349999999997  7.0353060000000003   F   F   F
  4.4927609999999998 14.5770809999999997  6.3885560000000003   F   F   F
  1.6906880000000000 14.5761819999999993  7.0382509999999998   F   F   F
  2.7280590000000000 17.4951200000000000  9.6236130000000006   F   F   F
 18.0744089999999993 17.4990530000000000  9.1944420000000004   F   F   F
  6.2548040000000000 17.4967219999999983  9.6210319999999996   F   F   F
  7.2311589999999999 17.4991230000000009 12.2414079999999998   F   F   F
  4.4936559999999997 17.4966679999999997 11.8011479999999995   F   F   F
  1.7558810000000000 17.4957279999999997 12.2455859999999994   F   F   F
  2.7125970000000001 17.5025750000000002 14.8584540000000001   F   F   F
 18.0798980000000000 17.4985129999999991 14.3854100000000003   F   F   F
  6.2819200000000004 17.5095360000000007 14.8664459999999998   F   F   F
  7.2477140000000002 17.5038640000000001 17.4059419999999996   F   F   F
  4.4855820000000000 17.4882039999999996 17.0064819999999983   F   F   F
  1.7186640000000000 17.4968560000000011 17.3771829999999987   F   F   F
  7.3260189999999996 17.5067950000000003  7.0454949999999998   F   F   F
  4.4948240000000004 17.4981590000000011  5.3672050000000002   F   F   F
  1.6603559999999999 17.5059359999999984  7.0488070000000000   F   F   F
  2.7346819999999998 20.4172329999999995  9.6171740000000003   F   F   F
 18.0741970000000016 20.4181150000000002  9.1922820000000005   F   F   F
  6.2494529999999999 20.4173210000000012  9.6157199999999996   F   F   F
  7.2320460000000004 20.4181579999999983 12.2405609999999996   F   F   F
  4.4932330000000000 20.4160889999999995 11.7994800000000009   F   F   F
  1.7548250000000001 20.4169839999999994 12.2428089999999994   F   F   F
  2.7115510000000000 20.4198610000000009 14.8543489999999991   F   F   F
 18.0769640000000003 20.4170550000000013 14.3936869999999999   F   F   F
  6.2789109999999999 20.4220159999999993 14.8531279999999999   F   F   F
  7.2635829999999997 20.4111849999999997 17.3757009999999994   F   F   F
  4.4965299999999999 20.4100830000000002 16.9889550000000007   F   F   F
  1.7243480000000000 20.4169890000000009 17.3732170000000004   F   F   F
  7.3028040000000001 20.4196540000000013  7.0368469999999999   F   F   F
  4.4937250000000004 20.4201949999999997  6.3992420000000001   F   F   F
  1.6839830000000000 20.4190809999999985  7.0380680000000000   F   F   F
  2.7229160000000001 11.6561079999999997  9.6252259999999996   F   F   F
 18.0721209999999992 11.6538789999999999  9.2016749999999998   F   F   F
  6.2511270000000003 11.6575880000000005  9.6165120000000002   F   F   F
  7.2265370000000004 11.6584319999999995 12.2306460000000001   F   F   F
  4.4874169999999998 11.6555269999999993 11.7860370000000003   F   F   F
  1.7541570000000000 11.6560989999999993 12.2549670000000006   F   F   F
  2.7194579999999999 11.6522959999999998 14.8844449999999995   F   F   F
 18.0763129999999990 11.6601619999999997 14.4054690000000001   F   F   F
  6.2587440000000001 11.6516280000000005 14.8398649999999996   F   F   F
  7.2431510000000001 11.6508870000000009 17.3209459999999993   F   F   F
  4.4909439999999998 11.6377489999999995 17.1284910000000004   F   F   F
  1.6997540000000000 11.6471780000000003 17.3982010000000002   F   F   F
 16.3657010000000014 23.3390459999999997  7.0385369999999998   F   F   F
 13.5484130000000000 23.3410049999999991  6.4083240000000004   F   F   F
 10.7289250000000003 23.3380289999999988  7.0362510000000000   F   F   F
 11.7820400000000003  2.8976530000000000  9.6214130000000004   F   F   F
  9.0174339999999997  2.8980150000000000  9.1929970000000001   F   F   F
 15.3105689999999992  2.8977830000000000  9.6250339999999994   F   F   F
 16.2855570000000007  2.8967170000000002 12.2478789999999993   F   F   F
 13.5458110000000005  2.8963850000000000 11.8007399999999993   F   F   F
 10.8049289999999996  2.8962639999999999 12.2425270000000008   F   F   F
 11.7638920000000002  2.8901960000000000 14.8540010000000002   F   F   F
  9.0192890000000006  2.8973680000000002 14.3947240000000001   F   F   F
 15.3275670000000002  2.8895620000000002 14.8596210000000006   F   F   F
 16.3167000000000009  2.8848820000000002 17.3751679999999986   F   F   F
 13.5426459999999995  2.8983460000000001 17.0035349999999994   F   F   F
 10.7665229999999994  2.8927060000000000 17.3721730000000001   F   F   F
 16.3902070000000002  2.8992000000000000  7.0485709999999999   F   F   F
 13.5471819999999994  2.8997020000000000  5.3891429999999998   F   F   F
 10.7046510000000001  2.8985319999999999  7.0458990000000004   F   F   F
 11.7859090000000002  5.8166440000000001  9.6159300000000005   F   F   F
  9.0131189999999997  5.8155400000000004  9.1951059999999991   F   F   F
 15.3054559999999995  5.8176649999999999  9.6204249999999991   F   F   F
 16.2806129999999989  5.8152070000000000 12.2518340000000006   F   F   F
 13.5463199999999997  5.8162360000000000 11.7937589999999997   F   F   F
 10.8088560000000005  5.8148470000000003 12.2417929999999995   F   F   F
 11.7730180000000004  5.8030960000000000 14.8626410000000000   F   F   F
  9.0220970000000005  5.8152889999999999 14.3854590000000009   F   F   F
 15.3163630000000008  5.8025880000000001 14.8715390000000003   F   F   F
 16.3055650000000014  5.8017570000000003 17.3964169999999996   F   F   F
 13.5341190000000005  5.8193890000000001 17.1064639999999990   F   F   F
 10.7654110000000003  5.8146319999999996 17.3811590000000002   F   F   F
 16.3646530000000006  5.8150610000000000  7.0406420000000001   F   F   F
 13.5459940000000003  5.8129270000000002  6.4079750000000004   F   F   F
 10.7268050000000006  5.8143079999999996  7.0374610000000004   F   F   F
 11.7825299999999995  8.7338950000000004  9.6207469999999997   F   F   F
  9.0178279999999997  8.7340680000000006  9.1926240000000004   F   F   F
 15.3105030000000006  8.7337550000000004  9.6261749999999999   F   F   F
 16.2850859999999997  8.7358650000000004 12.2525040000000001   F   F   F
 13.5471310000000003  8.7368889999999997 11.7993579999999998   F   F   F
 10.8075720000000004  8.7355389999999993 12.2385819999999992   F   F   F
 11.7555720000000008  8.7355099999999997 14.8602500000000006   F   F   F
  9.0157799999999995  8.7388910000000006 14.3714809999999993   F   F   F
 15.3277249999999992  8.7321439999999999 14.8672769999999996   F   F   F
 16.2586270000000006  8.7387920000000001 17.4669600000000003   F   F   F
 13.5474969999999999  8.7632890000000003 16.9869880000000002   F   F   F
 10.7687629999999999  8.7479320000000005 17.4268830000000001   F   F   F
 16.3888439999999989  8.7287149999999993  7.0459240000000003   F   F   F
 13.5465750000000007  8.7153779999999994  5.3584149999999999   F   F   F