Ta  N Co Cu                             
   1.00000000000000     
    18.1096308199999996    0.0000000000000000    0.0000000000000000
     0.0000000000000000   23.3551997799999995    0.0000000000000000
     0.0000000000000000    0.0000000000000000   30.4818171199999988
   Ta   N    Co   Cu
   216   240    24     2
Direct
  0.0009026257190143  0.0019713357769220  0.1959564922090564
  0.3363926954990646  0.0625808147660294  0.2028118361214624
  0.1651871272019179  0.0626611300074842  0.2028180111733988
  0.2508769448854551  0.1261413244904261  0.2805156489788132
  0.0831799942971969  0.0632739084180827  0.2839762622244209
  0.4186834989053168  0.0632896501571167  0.2839573180998372
  0.0010962263507253  0.1251812477718985  0.3698273950345978
  0.3336310427864788  0.0626366540311878  0.3683042843665589
  0.1688314005951668  0.0625734229872563  0.3682660356688743
  0.2518719091145201  0.1247758905439866  0.4560853125177573
  0.0843834796251031  0.0622812338311434  0.4538914590666110
  0.4194207892218600  0.0623918242647221  0.4535445147349222
  0.3390776200407259  0.0634967670163391  0.5419745942897194
  0.1653897418088803  0.0650552233991064  0.5423717527993759
  0.0004126073741872  0.1259552670067592  0.1971441064166015
  0.3303724927132947  0.1912540275199603  0.2023980669472465
  0.1707970835031745  0.1913167677748433  0.2026716243500459
  0.2506423215858078  0.2503502282593075  0.2819488580160794
  0.0831613861150799  0.1879407842913565  0.2845295259427516
  0.4180858683906976  0.1879067051217262  0.2843146982406708
  0.0003647883351192  0.2499177642788268  0.3709714785279985
  0.3335821610350465  0.1874053730675129  0.3692397001840320
  0.1683560518972556  0.1873926869699503  0.3689519416585370
  0.2515621607201410  0.2489126368336159  0.4566531313599924
  0.0839774658435246  0.1860629949310209  0.4542344855185902
  0.4188490869883097  0.1864991101464284  0.4545372961718286
  0.3404495880938327  0.1863430976423146  0.5422626334105516
  0.1704050428710175  0.1928998074085087  0.5419471027443166
  0.9997979737858103  0.2512769422082783  0.1972703877643980
  0.3304520148407164  0.3104685678415180  0.2031208912093447
  0.1700873915908687  0.3104117374822977  0.2033706458007742
  0.2503125175250815  0.3750591798141869  0.2823053742194901
  0.0828324546343424  0.3129612892081042  0.2852044063582682
  0.4177946329653679  0.3129329216415542  0.2847045275804874
  0.0001667179685256  0.3746196419429637  0.3720585241620995
  0.3329493980602152  0.3122646778237268  0.3700208286878990
  0.1681268037704697  0.3122465683515259  0.3699542029695664
  0.2495817694775795  0.3733217921499303  0.4595039678148822
  0.0858444289409093  0.3111632514674199  0.4562500736758039
  0.4177290370744089  0.3110049966629731  0.4547250273729517
  0.3381411603403706  0.3086726964361759  0.5454103329458917
  0.9993975560455084  0.3752170352473385  0.1991392131023559
  0.3299996840265820  0.4400077880881881  0.2034459949038592
  0.1701262274933271  0.4399211787973840  0.2036437100307964
  0.2510226892324283  0.0002120150309324  0.2779674668835383
  0.0827862021370223  0.4370642332334356  0.2854208834021605
  0.4174366096882025  0.4371518915821468  0.2849906948155834
  0.0016086978800942  0.0001640780795853  0.3691192387584366
  0.3323528223181640  0.4372411588909770  0.3703749463101573
  0.1679728255501161  0.4372325482790629  0.3701718611890428
  0.2515061275880370  0.0007984382109925  0.4556909713194770
  0.0862474412099132  0.4368352373604054  0.4555223157434867
  0.4159758238677327  0.4365495976131371  0.4551398938135947
  0.3671188594276202  0.4296502543395420  0.5479029293938282
  0.9995976266474216  0.4990181062479806  0.1979021498411129
  0.3300553034860414  0.5589615659517619  0.2031033577273291
  0.1703399681033773  0.5588623354937354  0.2031921026638983
  0.2503081187044032  0.6237719509870132  0.2814118245751658
  0.0830106953841678  0.5620997373204304  0.2852458225254750
  0.4171276922821150  0.5621659859168062  0.2852277631653664
  0.0004322782724060  0.6250289478281559  0.3707959919726207
  0.3322573375891764  0.5624556898237216  0.3705246840185481
  0.1679737962086350  0.5624287087013187  0.3700212538649481
  0.2495076136023187  0.6245505626631029  0.4602363005574404
  0.0828448079381801  0.5619519392438832  0.4546005211874586
  0.4160850816618975  0.5625024108118808  0.4556287565904142
  0.3566332166327086  0.5600960392514125  0.5496648275821201
  0.0001305414831307  0.6240597966852377  0.1980120635748932
  0.3359829246472117  0.6872636734141579  0.2035969129178170
  0.1649617825566665  0.6871787032355314  0.2035492574128455
  0.2507040363104593  0.7496203790212022  0.2786899409826873
  0.0829539796433281  0.6866630626849926  0.2848688715822050
  0.4177187882293865  0.6866832321777636  0.2849721394226492
  0.0011833975892586  0.7502672556966843  0.3697068090156748
  0.3323040589963853  0.6874505442715062  0.3700709304751442
  0.1683343874778913  0.6874523785152533  0.3697870311105831
  0.2501654437858392  0.7488475278514599  0.4601974947302097
  0.0834483928239322  0.6884412527561778  0.4552979809480817
  0.4169336943623208  0.6882665970238051  0.4557585267818780
  0.3460051525782148  0.6953070535708576  0.5449616575949463
  0.0007488198999255  0.7478171955723667  0.1966025884074298
  0.3323445938390748  0.8107402104052639  0.2037664497241707
  0.1689861930896086  0.8107671026927790  0.2036250310915975
  0.2509935665647731  0.8749934713621030  0.2777619878630873
  0.0838506152813352  0.8121971445380396  0.2838966528340805
  0.4176444335151359  0.8121954100517712  0.2840371047027190
  0.0017464101547517  0.8753586636468782  0.3688086335038747
  0.3329000295042661  0.8124475485140081  0.3690190049717117
  0.1690345469875894  0.8123986789268045  0.3688126408543511
  0.2517250837202809  0.8760010370401545  0.4562791002833748
  0.0837817552050026  0.8143822664025535  0.4537533516532761
  0.4184186155690099  0.8141442631130857  0.4537056847583827
  0.3435184294060960  0.8176043052196320  0.5437581253557511
  0.1715515904938911  0.8104209162753193  0.5432382498542623
  0.0009357623740627  0.8748679108460564  0.1960926630215525
  0.3326095723394147  0.9388418092749902  0.2033579091147573
  0.1690515061452231  0.9388789115332159  0.2032824104313775
  0.2502689464368189  0.4991441085877639  0.2825967062253838
  0.0838350155704788  0.9377282606838477  0.2835027302646580
  0.4181614282156190  0.9377117266326280  0.2835735817923748
  0.0002433172479783  0.4999423905368445  0.3712606255407707
  0.3336115593501674  0.9376878927809500  0.3682721943814471
  0.1689102006890835  0.9376734344012831  0.3682754017672067
  0.2497213775297027  0.4990298874365351  0.4593675368014516
  0.0845041507452535  0.9382744771060771  0.4537914670317988
  0.4194949480598780  0.9383762369850999  0.4534704878764089
  0.3392704622213216  0.9404964738169284  0.5414236383439928
  0.1653734746786242  0.9377864606796464  0.5417807936279431
  0.5008105164147665  0.0019427574186182  0.1959593396238830
  0.8363518797482357  0.0626818023981386  0.2029646052379164
  0.6654353783513827  0.0625940327780725  0.2028745293478380
  0.7509341951262414  0.1262298473035273  0.2808293769305550
  0.5835141711788054  0.0632952171643311  0.2840542453126460
  0.9184141664009076  0.0633537602272938  0.2841623679719518
  0.5012573625784640  0.1250736864245638  0.3696324589465831
  0.8335957961241576  0.0626041899053504  0.3687065713221642
  0.6686499941177928  0.0625060288259363  0.3686460331680692
  0.7517872432678558  0.1231265271395685  0.4567297697794999
  0.5841758067736720  0.0615645239566120  0.4541574245185629
  0.9198081593043881  0.0616558302994079  0.4536571879045965
  0.8392251307129825  0.0590992352370421  0.5418831319795032
  0.6653451907627570  0.0616180646974342  0.5424623123678600
  0.5011298141048144  0.1258802199967377  0.1969839552836703
  0.8304448126435062  0.1914249802774890  0.2029963030610986
  0.6710558617131852  0.1912472327578243  0.2025808539055447
  0.7510469109783173  0.2504556329398682  0.2827154759105923
  0.5841619218078264  0.1879367093038624  0.2845989549742001
  0.9174200586095225  0.1880160870314853  0.2850308217944928
  0.5007657661259302  0.2496824418607204  0.3699428780155927
  0.8334775356779645  0.1875688478403745  0.3702888073929955
  0.6684799673418027  0.1875931109735731  0.3698645109140912
  0.7513603307442978  0.2489482876905598  0.4597522100856324
  0.5830414198783060  0.1853258717928625  0.4545186426487859
  0.9185750957166690  0.1857206964178602  0.4551495189390025
  0.8441223567586604  0.1800955613902815  0.5442073702915167
  0.6680521252939684  0.1876962596779777  0.5435413049459967
  0.5011521349584243  0.2511494956311253  0.1968128068824200
  0.8306235314240809  0.3105096823286146  0.2039235177459204
  0.6706918337860586  0.3105304351748686  0.2034282652093538
  0.7508763684040716  0.3752119311326183  0.2830948139597922
  0.5839857085721434  0.3129930563817211  0.2850372920433415
  0.9170495514018171  0.3130773072781281  0.2861438586636851
  0.4995644859256032  0.3748080962061024  0.3702349358704353
  0.8325837907647511  0.3127429745550003  0.3722665890009296
  0.6684401038516512  0.3127006747086156  0.3708153885087100
  0.7535054729123161  0.3758765314160613  0.4657891930550093
  0.5822493241357591  0.3110899983620712  0.4546517626071491
  0.9184158557477531  0.3108481546219792  0.4579427618307363
  0.8189799211852389  0.2966323341275512  0.5579160891978461
  0.5009572307046000  0.3752853759081276  0.1985222815039052
  0.8306158902036955  0.4399413526769180  0.2040974751734481
  0.6706654103604919  0.4399504121929496  0.2036543237150283
  0.7509838436547938  0.0002649158108810  0.2779866452004569
  0.5836194422508640  0.4372671332580040  0.2851994451101589
  0.9167604864368499  0.4372254200893337  0.2864869192794259
  0.5013970160924117  0.0001244999224070  0.3691717558655299
  0.8317298977708916  0.4376974421664954  0.3727508152209751
  0.6681788414306737  0.4377251547794216  0.3707100842137692
  0.7515008286782390  0.9994815164090767  0.4555881286731847
  0.5793321109896326  0.4377649624196422  0.4531984093030275
  0.9202709631102124  0.4383999685826723  0.4561940464430094
  0.8386974885791076  0.4270503654339777  0.5497877057739728
  0.5006534673320360  0.4991796846303274  0.1974630677332456
  0.8301152484032315  0.5587801316272518  0.2035712273262931
  0.6708643660318927  0.5589446084022001  0.2031881994206586
  0.7503029736768951  0.6238752758176318  0.2816169818370327
  0.5833884969232273  0.5622593253118424  0.2851522983834087
  0.9168559177118567  0.5621541378257646  0.2858807838610105
  0.4993002650991016  0.6250950735925969  0.3707214800582150
  0.8317603403953839  0.5626851431984718  0.3714637244019769
  0.6680363222652304  0.5625497800746118  0.3706109886735760
  0.7491662937560264  0.6258289277024502  0.4617452953869687
  0.5804249145765681  0.5639201082582446  0.4546735845179199
  0.9188378468653440  0.5646983678366695  0.4551572886641537
  0.8476760437545536  0.5627950758622902  0.5433576993058864
  0.5003123716207298  0.6241844562006520  0.1978676673850046
  0.8361654115890715  0.6872936489467847  0.2035325723300758
  0.6649908353748231  0.6873244370887690  0.2034503750388978
  0.7505539065461875  0.7498123212888856  0.2783192274374642
  0.5827788590224046  0.6867567529527037  0.2847050807923068
  0.9178283841234531  0.6867236268435661  0.2848980543417454
  0.5000240537542169  0.7501276961452419  0.3698767256200668
  0.8323091850419218  0.6876830516031234  0.3694460507679125
  0.6680034917990127  0.6876111472290987  0.3692895444442215
  0.7512324626669127  0.7527682653166110  0.4563088106645239
  0.5819891692319956  0.6894705981236484  0.4541463883233234
  0.9184905818034537  0.6896978352286354  0.4540088606773196
  0.8452229294361047  0.6975575643554350  0.5448366543162209
  0.5002899553793512  0.7478374034570265  0.1966423724434350
  0.8325431310155054  0.8107756735012259  0.2035903222082140
  0.6689297870638100  0.8107458808346308  0.2035796816633422
  0.7507753054176263  0.8750275522479356  0.2775695154138020
  0.5831962787291332  0.8122651545190536  0.2837475219733108
  0.9181680594776651  0.8122695119228425  0.2837803690415939
  0.5008957482379301  0.8752859176794630  0.3689671263204630
  0.8331192665180964  0.8128084039052581  0.3680733489622838
  0.6685334289240501  0.8126826809107115  0.3679682316030792
  0.7516126026778451  0.8749902673099754  0.4553175696131504
  0.5833247013363447  0.8138213263274139  0.4534733412601639
  0.9195183170984507  0.8141179947570265  0.4527953180693842
  0.8419429956677078  0.8169195866415251  0.5409940736303938
  0.6695313108087717  0.8082412008917288  0.5413007357516619
  0.5004656621535801  0.8749260466600788  0.1961461171711889
  0.8326392617180218  0.9390242398909479  0.2033445858969358
  0.6690892179720862  0.9389529888793930  0.2033554675629219
  0.7506948723696354  0.4999832372086388  0.2833107147430027
  0.5835644329889433  0.9377627115036731  0.2834419689389662
  0.9183560339489674  0.9377663659262296  0.2834466971159486
  0.4987555575672076  0.5000366376781429  0.3704472190179260
  0.8336066163213900  0.9377638114571667  0.3679301930039500
  0.6686040612957243  0.9376818444221868  0.3680534560089797
  0.7510578499075464  0.5028049285138323  0.4660577391812666
  0.5840939359757940  0.9375876890543466  0.4538728914990671
  0.9199316808093130  0.9378271190986851  0.4531672932722017
  0.8392440023920784  0.9376928721061475  0.5410668674829751
  0.6656770404377568  0.9350731390271605  0.5417244172002285
  0.4078815112559724  0.0007958210147834  0.2319805712149829
  0.2507815233923907  0.0023284902068568  0.1967722223592361
  0.0938377101911314  0.0008123439057286  0.2319552604875881
  0.1542363673437279  0.1252999646582396  0.3163714169379901
  0.0006451903037927  0.1256617648427820  0.3031025234205629
  0.3475880171537398  0.1253591342135891  0.3164110794983017
  0.4025854117701400  0.1247055628471259  0.4022842620657201
  0.2511131863485190  0.1249197488811760  0.3881565663609052
  0.1000066455062125  0.1245493643767901  0.4022625099020587
  0.1523198154136622  0.1251810421833213  0.4873785514810862
  0.0020963164636498  0.1236455918070192  0.4753133691384619
  0.3519592912103207  0.1239802045084630  0.4874772466398340
  0.4087252051958075  0.1237856386899665  0.5669894438538634
  0.2524136816835636  0.1247507495044928  0.5568773163818648
  0.1000199992877526  0.1299822618027946  0.5660800758774442
  0.4066314794196018  0.1264552591006520  0.2322501104827310
  0.2507224349969377  0.1259684378717196  0.2102825037727669
  0.0948375123318996  0.1264918386819076  0.2324025097544009
  0.1535229671829157  0.2502830790509520  0.3172643112195246
  0.0002903450541680  0.2504254996561599  0.3038589076783680
  0.3478697129601045  0.2502267057043426  0.3172269112604837
  0.4021800940343923  0.2492690285001373  0.4030028237109491
  0.2508217964197712  0.2497058026327892  0.3888401186193988
  0.0996636826714763  0.2492840471039273  0.4030114330971770
  0.1522050183384636  0.2461196408553263  0.4867600048769702
  0.0018325106300097  0.2474077525295542  0.4751817584184366
  0.3507241429467740  0.2493418599641544  0.4886128683307547
  0.4077926254738315  0.2478384819623756  0.5669573482920072
  0.2572030241195904  0.2460489557507302  0.5592848530204577
  0.0870998546208028  0.2531897528640386  0.5624009876832403
  0.4064248075439991  0.2506788709077199  0.2327486317251086
  0.2503853998400558  0.2509884525582606  0.1790971267445300
  0.0944793788584306  0.2507487970766462  0.2331168187249233
  0.1537153971375318  0.3748380350493647  0.3178286224173377
  0.0000914076403262  0.3750754176236271  0.3049819630095527
  0.3471095768051669  0.3748737150586479  0.3177281968544463
  0.4007557436381575  0.3743501321460201  0.4033421487938114
  0.2501538991653476  0.3748496213089538  0.3909381126651965
  0.1005600871633021  0.3740622398135258  0.4036040654695086
  0.1501485910751654  0.3734654122536867  0.4910156843592617
  0.0024938633743830  0.3739481623324323  0.4712410656236798
  0.3513501555203078  0.3709755477599757  0.4891654111605348
  0.4228517390965152  0.3642510881568981  0.5672274137951874
  0.2740940485169077  0.3907301008531689  0.5628458830170615
  0.0554349291292837  0.3772844089280412  0.5588768195630323
  0.4054972689049663  0.3751984140202893  0.2327721826464071
  0.2502503834844561  0.3751057109156264  0.2120562645654047
  0.0948577734667140  0.3751258425446906  0.2332485603605789
  0.1556619646296866  0.0000518352037346  0.3156411902033014
  0.0010105805034968  0.0002960241850900  0.3024470236208927
  0.3464340842058249  0.0001044810978215  0.3156548154562202
  0.4027917392369602  0.0002971895531232  0.4017561689860685
  0.2513076872634983  0.0001268734758000  0.3876649902974805
  0.1002603984479435  0.0002026571734461  0.4019568170602739
  0.1520449221202540  0.0008614849906508  0.4873464671014887
  0.0020874682183631  0.9996139700537015  0.4748658456109780
  0.3518470119105714  0.0010794873958631  0.4868917081530739
  0.4099740052735399  0.0018507069753895  0.5650104846011388
  0.2522272713878166  0.0023077346450719  0.5567251363909449
  0.0965223509539612  0.0012472404027690  0.5654729586749809
  0.4058464853679240  0.4995885156281545  0.2334377422033498
  0.2500701577933597  0.4995204084957834  0.1792214988095111
  0.0943963587936025  0.4994458718244417  0.2336750373257530
  0.1540467585927843  0.6246573181885040  0.3174420932729873
  0.0002448698134145  0.6244524780756961  0.3040191308324509
  0.3465043916704076  0.6247213029969245  0.3177338788791459
  0.4004660278880579  0.6253384902940766  0.4035659431912819
  0.2499888808013679  0.6250235344330761  0.3903271210970161
  0.0994520757430948  0.6255919604349316  0.4028315297318201
  0.1447571772481027  0.6222788195610391  0.4869493524426929
  0.9995718687554742  0.6268536007451573  0.4742449933872521
  0.3528697689411828  0.6235171672974928  0.4895428275309044
  0.4038014048241010  0.6316622480038134  0.5719418475076097
  0.2452273055977585  0.6824233440622294  0.5134152621273529
  0.0750364930255571  0.6252441307735310  0.5615767927701398
  0.4059652502984505  0.6235810396535442  0.2333327001032188
  0.2503425797524770  0.6239154942164618  0.2110981809772383
  0.0945337735190108  0.6235547866795343  0.2332929632432723
  0.1556592455256123  0.7497824834776310  0.3165803169422574
  0.0007785504775981  0.7497279526498488  0.3030581823395693
  0.3455173893366918  0.7497316074989513  0.3168065107622056
  0.4014130101031554  0.7503523342087348  0.4028543341952258
  0.2505051250626238  0.7496178616032196  0.3906228632994484
  0.0997614987199498  0.7506628950256129  0.4025510477374894
  0.1484718377138279  0.7548244694372528  0.4880638616226065
  0.0010589662983094  0.7522484943395469  0.4737436384078038
  0.3525591805319621  0.7541817442071022  0.4889399408110293
  0.4148712274105719  0.7577179093246755  0.5672593638757917
  0.2622365797681923  0.7670870624749710  0.5663761643705527
  0.0876906958658950  0.7498651731641246  0.5631536604573739
  0.4074599679001949  0.7489706072901328  0.2327943511789528
  0.2505011067678566  0.7473700247973696  0.1967715200310280
  0.0936971356296965  0.7489435786531331  0.2326617128734938
  0.1561702679750852  0.8748997817242383  0.3157107223187339
  0.0011502527586487  0.8750152166066982  0.3020572930378975
  0.3457528973243313  0.8749409405186910  0.3158170804146039
  0.4024942187050726  0.8755528319552184  0.4018077593498219
  0.2511799337250267  0.8752095088007650  0.3882819720314572
  0.1002249092122653  0.8755538049720997  0.4017958851730228
  0.1521366318957362  0.8754001415179289  0.4872898145368652
  0.0019773039402864  0.8764392218569199  0.4746522889028100
  0.3523526358711635  0.8772899297486916  0.4871545677880675
  0.4106820728225671  0.8816337575864921  0.5666746132678071
  0.2528702626061374  0.8809676148771359  0.5555588211042419
  0.0996781047637469  0.8733352818882381  0.5658361570297643
  0.4072537309860564  0.8748130934344118  0.2320569466349696
  0.2507181537824792  0.8748050152508071  0.1973140751915778
  0.0942731861551778  0.8748650572751018  0.2319129084571614
  0.1534254866305318  0.4996817972112382  0.3179376052345049
  0.0001156709703736  0.4996633347851116  0.3042608220221510
  0.3470721542793456  0.4996811053412600  0.3181375527700112
  0.3998911483421637  0.4996900658285455  0.4037583692658444
  0.2499154897002853  0.4996537602654598  0.3911680224576699
  0.0999126717677541  0.4994985479311609  0.4030845353144841
  0.1501738062836822  0.5000960402677066  0.4891257618086513
  0.0012725479278188  0.5001316506743834  0.4737733674674232
  0.3496066667629449  0.4984243596853233  0.4912873485263560
  0.4189600782630833  0.4994005305460973  0.5735040628405272
  0.2543241915884380  0.5457902500217102  0.5684076281219390
  0.0647623251492675  0.4992762569707594  0.5593019702285176
  0.9079514987194628  0.0009094344279106  0.2319653631250560
  0.7508719473762184  0.0023540782293878  0.1962861938345455
  0.5938042965224426  0.0008346523923777  0.2319229086953598
  0.6546331218903774  0.1254082455374572  0.3168636145427470
  0.5011359193151677  0.1256592747764884  0.3028901750742889
  0.8472292259142620  0.1254225168191141  0.3170246409530080
  0.9026617179740271  0.1242994746436779  0.4026483676942121
  0.7510166929177018  0.1245438950171760  0.3889623051796676
  0.5997633827083888  0.1242031607705059  0.4024986239222983
  0.6519489010283479  0.1237982496104664  0.4878806208236313
  0.5014587139755093  0.1238060670212136  0.4753525837619179
  0.8523672601507641  0.1217672747004173  0.4878986962925609
  0.9117412280305146  0.1194813011145825  0.5672124671463905
  0.7531923332974344  0.1179507664404369  0.5564852499345179
  0.5986839003454847  0.1264838192525275  0.5663101849847720
  0.9063071425269200  0.1266359921335436  0.2327086716720714
  0.7508144535366199  0.1260655253110485  0.2105311310489810
  0.5952883249329943  0.1264910405039856  0.2324987402163785
  0.6540835712552493  0.2504213014684780  0.3178667035373053
  0.5009412734354015  0.2503674391114501  0.3029749688735279
  0.8473075140045765  0.2506088182280166  0.3187355416495166
  0.9019537624718978  0.2495112349242063  0.4043761262589882
  0.7506322716191036  0.2499481923081390  0.3910604682834347
  0.5989118397004418  0.2491664216723919  0.4030105015122842
  0.6486651127669560  0.2446457650070002  0.4877585809979976
  0.5001486813883531  0.2477119837378510  0.4756999097339474
  0.8525224867492653  0.2448834682168410  0.4902606367927831
  0.9106145859492685  0.2473829406934414  0.5667505096016825
  0.7577053735154777  0.2289700929017968  0.5723775185886311
  0.5890933184213623  0.2514330440052035  0.5616481030406959
  0.9059337931776597  0.2509258619420294  0.2339202228269954
  0.7507731017800410  0.2510900973069781  0.1792211309629437
  0.5953382459216314  0.2507109516595492  0.2331509690925131
  0.6543921749712069  0.3752625359087887  0.3181648680551561
  0.5005482958096081  0.3750574487453235  0.3034796554536001
  0.8465076070937485  0.3752838218885870  0.3196442603743890
  0.9011211223309843  0.3744047944019755  0.4053074059538844
  0.7500211193896504  0.3755282987099235  0.3941719042864875
  0.5979004763961981  0.3745099135562526  0.4019458677374317
  0.6452715978509076  0.3760584793867849  0.4825929218388652
  0.4990948204343866  0.3739931763990327  0.4738004271916907
  0.8671704336175878  0.3745851424101971  0.4962469378281114
  0.8218921144531137  0.3675319390936309  0.5907112629801432
  0.7441065096919104  0.3126942649149456  0.5106881084613946
  0.5977369060118534  0.3757611371217777  0.5603969820346535
  0.9049574014280424  0.3751963317246236  0.2343176606196806
  0.7506040160475465  0.3752431243580077  0.2125997586680626
  0.5957275300720610  0.3751833933077009  0.2332025397585724
  0.6555576408645294  0.0001388962331319  0.3156669245107935
  0.5010556792533549  0.0002933267954361  0.3024678794808224
  0.8464275101790264  0.0001732000510088  0.3156450975271881
  0.9030052654030740  0.9999309510755054  0.4016665629959704
  0.7511715951378619  0.9998716667896161  0.3875818879620638
  0.5999301281026064  0.9998037731572964  0.4020734214803241
  0.6520626854707317  0.9992481299367597  0.4874050883020118
  0.5018132505520043  0.9996482808363112  0.4750172168366618
  0.8519091760757718  0.9993010426522346  0.4867291698863596
  0.9099017236135580  0.9976669140036591  0.5654182220842472
  0.7528882545198812  0.9974694440927081  0.5567789228399533
  0.5976673043492937  0.9978524028299631  0.5662041285514121
  0.9055855455575710  0.4994549312987786  0.2345066672025737
  0.7506332946251177  0.4993172070497565  0.1793869024673285
  0.5950386724101904  0.4996435027899224  0.2336135185286352
  0.6540966871739897  0.6246273809566176  0.3175051598070553
  0.5002683451765648  0.6244604825981526  0.3038657212778588
  0.8462225401511461  0.6246246961745285  0.3179088895438298
  0.9011426340279272  0.6261567503718268  0.4028925134920200
  0.7495933632732275  0.6253133009887435  0.3916996682760328
  0.5983994119408891  0.6257818780902582  0.4024726328991477
  0.6453065093623067  0.6291907146845830  0.4867013691100581
  0.4981937620629893  0.6263337148867478  0.4743140965435160
  0.8525359201954998  0.6309474989380206  0.4883353686890928
  0.8919929948646299  0.6291102923682175  0.5729953844415121
  0.7441129073249613  0.5667938285937240  0.5189391583682266
  0.5827005678129566  0.6224044689934587  0.5615875647506101
  0.9058706844497593  0.6233963252751096  0.2335217236283356
  0.7505289160374886  0.6240938082629128  0.2111075381808902
  0.5947933811126234  0.6235828602304139  0.2331194698342003
  0.6552176536050851  0.7498930592902227  0.3160116242868085
  0.5003694749611398  0.7496886357609256  0.3031814862329583
  0.8458226471913832  0.7499860170697943  0.3160897876090800
  0.9020024813730600  0.7510499925922858  0.4016264554072535
  0.7504383063070392  0.7504409333585755  0.3883839326338716
  0.5992687393412837  0.7512726264603486  0.4018162290771485
  0.6507049442730093  0.7529091011078819  0.4865326522601094
  0.5001440266139738  0.7520065654567958  0.4743617539636844
  0.8521672167396233  0.7537662537669974  0.4865878712311300
  0.9135414812051224  0.7544313167731787  0.5655149192599680
  0.7594577802398206  0.7522450257500068  0.5567145064609065
  0.5884391560545410  0.7489117798975187  0.5634254854573157
  0.9077180806740515  0.7490086301999810  0.2325324485947959
  0.7506545273440324  0.7474154702333138  0.1964841879728922
  0.5933961291110137  0.7490577892077823  0.2324478088213695
  0.6556287811942738  0.8751084089994521  0.3153837102345989
  0.5006812902316824  0.8750074369577518  0.3021652006782389
  0.8461127772889441  0.8751643860847338  0.3153316637895500
  0.9028767870562646  0.8756437898271230  0.4012102229763599
  0.7509696980455018  0.8753058441078139  0.3873223405063868
  0.5996257380405865  0.8753213068425723  0.4016185049405507
  0.6522685941730444  0.8741110853026015  0.4869872135765618
  0.5015595370769290  0.8760662205919587  0.4749592771628954
  0.8520679231955341  0.8762995381893717  0.4865264159931257
  0.9098644415280077  0.8770079132093898  0.5661935930134874
  0.7529890063438671  0.8740695632767270  0.5562623046731048
  0.5998317828158406  0.8709566563398496  0.5655548052864248
  0.9074773315551425  0.8748779853427209  0.2317994612453944
  0.7508282803946145  0.8748381373509773  0.1975443054848114
  0.5940142835915836  0.8748745500528017  0.2317769598446944
  0.6537808028550103  0.4999723516086760  0.3182589530361710
  0.5002386613146612  0.4997883745212093  0.3034963297257391
  0.8466645861314035  0.4998246511317959  0.3194042193551709
  0.9014970450040849  0.5009070637902084  0.4037258104313608
  0.7494463874409334  0.5007647215318087  0.3942465155315205
  0.5973588453405227  0.5007635517703051  0.4020470895922301
  0.6432906182119140  0.5005872547526096  0.4840216372098283
  0.4974963809243889  0.5001607007382063  0.4745690233116662
  0.8597075755316510  0.5025355452384019  0.4886936933381563
  0.8857597660581931  0.4965509585363321  0.5753944065464864
  0.7436224505417357  0.4392675439620746  0.5173230386678824
  0.5953414473602052  0.4994485295759929  0.5602547422503719
  0.0050814253321718  0.1312685669160132  0.5437940872697240
  0.9994114187208609  0.2414562911468607  0.5397873451837256
  0.9719270409866070  0.3761420408409251  0.5308923928858675
  0.1103661177158202  0.3201179635436731  0.5401172746099547
  0.0031415948819600  0.9927829426944328  0.5421498535680911
  0.1068944873943067  0.4366610038155798  0.5385510842373407
  0.9864439910513951  0.6259216634212876  0.5396831535768314
  0.1106438596258101  0.5606233679186516  0.5374909551866196
  0.0023299297458337  0.7490351439132681  0.5374104627009757
  0.1186037436869611  0.6864546247455436  0.5365657985637924
  0.0048382369733986  0.8809200886898267  0.5433489639939921
  0.9775584846624596  0.4968778859443717  0.5370774269109049
  0.5023048802647097  0.1315504651285622  0.5439758084787769
  0.4994911229471981  0.2421137914262772  0.5406533189786416
  0.5097699671926108  0.3757998909334646  0.5378279999991165
  0.6304961499572244  0.3117144645863874  0.5339510794756777
  0.5035579455325987  0.9930089633948498  0.5428382653120991
  0.6315858097268219  0.4376578569900076  0.5320997171289648
  0.4946764720971331  0.6288957464016818  0.5391351001172353
  0.6282402396116851  0.5639161749364661  0.5346433781350086
  0.5008276168060917  0.7477539089315925  0.5388288282077980
  0.6169415411852697  0.6856810809342235  0.5360462146437683
  0.5049271606539705  0.8824127600119454  0.5434999076497036
  0.5064266531974155  0.4999877649861517  0.5390311167745168
  0.2243425345654657  0.6192236012392698  0.5535114795667226
  0.2367034851980137  0.4663748942950789  0.5728909579370054
 
  0.00000000E+00  0.00000000E+00  0.00000000E+00
  0.00000000E+00  0.00000000E+00  0.00000000E+00
  0.00000000E+00  0.00000000E+00  0.00000000E+00
  0.00000000E+00  0.00000000E+00  0.00000000E+00
  0.00000000E+00  0.00000000E+00  0.00000000E+00