Ta  N Ru Cu                             
   1.00000000000000     
    18.1096308199999996    0.0000000000000000    0.0000000000000000
     0.0000000000000000   23.3551997799999995    0.0000000000000000
     0.0000000000000000    0.0000000000000000   30.4818171199999988
   Ta   N    Ru   Cu
   216   240    24    29
Selective dynamics
Direct
  0.0000000000000000  0.0001540493432017  0.1952048772750459   F   F   F
  0.3335911226994313  0.0626178990550343  0.2011666574477005   F   F   F
  0.1661313464181191  0.0626435039054911  0.2013756225831216   F   F   F
  0.2497136469180603  0.1249913080150051  0.2769716716429613   F   F   F
  0.0824132892486986  0.0625280043020950  0.2823539174859135   F   F   F
  0.4173080235982880  0.0622158469098082  0.2818060632728887   F   F   F
 -0.0000484670436045  0.1254818235465061  0.3685090352296180   T   T   T
  0.3319179567845318  0.0619870081704095  0.3660497024765419   T   T   T
  0.1676343561252804  0.0624801277533472  0.3667094830607277   T   T   T
  0.2495290670557871  0.1232659474618691  0.4539816645453471   T   T   T
  0.0827949257770174  0.0628667518343493  0.4525840201003768   T   T   T
  0.4177020240466977  0.0601206446286945  0.4512585711749864   T   T   T
  0.9966178008282141  0.1271365859611283  0.5411472485180568   T   T   T
  0.0000000000000000  0.1252934673573236  0.1957184605568116   F   F   F
  0.3338815497781340  0.1878831457175423  0.2019461464240635   F   F   F
  0.1661948949258303  0.1878540692822313  0.2019564242544476   F   F   F
  0.2502115669416796  0.2500369944875231  0.2777639619025223   F   F   F
  0.0824374490347353  0.1875904829007098  0.2829684025212984   F   F   F
  0.4174192825879786  0.1874333417367495  0.2829715540753668   F   F   F
 -0.0001142293233328  0.2499623488773580  0.3693285639455761   T   T   T
  0.3326248640011688  0.1870369570183052  0.3672610683178076   T   T   T
  0.1677164077150096  0.1873995676236482  0.3673117226977420   T   T   T
  0.2492849104448511  0.2476551437194678  0.4550509596919200   T   T   T
  0.0847489205548071  0.1877110824098407  0.4542920445620405   T   T   T
  0.4160255914666158  0.1843806652720569  0.4529481685915893   T   T   T
  0.0000000000000000  0.2502681216697269  0.1962263215238949   F   F   F
  0.3344987696923738  0.3125187466315609  0.2026668881404063   F   F   F
  0.1661942511615422  0.3125671912316150  0.2024404242882341   F   F   F
  0.2506210431627167  0.3749227899199923  0.2783919089997156   F   F   F
  0.0823618586752204  0.3124866975306020  0.2834913249867341   F   F   F
  0.4175905476312707  0.3123986209820302  0.2843182411077976   F   F   F
 -0.0007948524021456  0.3743473836030966  0.3689288411707290   T   T   T
  0.3337734279518894  0.3118493337015584  0.3695808966843365   T   T   T
  0.1682113891429349  0.3121900105007057  0.3674901656791559   T   T   T
  0.2511560027545096  0.3744622918219439  0.4554338904674234   T   T   T
  0.0844295144607444  0.3127531637942880  0.4537543455267867   T   T   T
  0.4163725732660604  0.3109507684272224  0.4607899838890464   T   T   T
  0.0081783646800661  0.3842038181409176  0.5404974973720503   T   T   T
  0.0000000000000000  0.3748427101281635  0.1963807855582331   F   F   F
  0.3345163880268487  0.4372854327724411  0.2027504300156835   F   F   F
  0.1664683163950542  0.4373113135708522  0.2024835848108779   F   F   F
  0.2496514720479368  0.0000136476026498  0.2762899058119643   F   F   F
  0.0825727467587427  0.4373792291061918  0.2832358711618497   F   F   F
  0.4174986217674430  0.4370699171736305  0.2843873273286093   F   F   F
 -0.0002518517409464  0.0000953828104745  0.3678729580757943   T   T   T
  0.3326449584693715  0.4369269814708496  0.3691403279946959   T   T   T
  0.1687686165845478  0.4374150291376452  0.3669158907736762   T   T   T
  0.2496894464783667  0.9998892942029305  0.4540216074973489   T   T   T
  0.0829074919799564  0.4368704179072853  0.4494366428398217   T   T   T
  0.4159955106524940  0.4365761804307626  0.4552889853917945   T   T   T
  0.0000000000000000  0.4996600384981846  0.1960122970312383   F   F   F
  0.3340351755459352  0.5619131390770420  0.2021890025370681   F   F   F
  0.1665722925482243  0.5620352928756773  0.2019996637769879   F   F   F
  0.2501429157372073  0.6247388243367382  0.2770555720987531   F   F   F
  0.0823139344992256  0.5624071479513688  0.2827242320219199   F   F   F
  0.4177054922446999  0.5620703723524798  0.2835027055422685   F   F   F
 -0.0005432059084609  0.6255277212483188  0.3681464581947881   T   T   T
  0.3317961350283981  0.5621950487274475  0.3674946683936268   T   T   T
  0.1679999969758595  0.5627586653357990  0.3667456009943373   T   T   T
  0.2477215264963031  0.6257379772151258  0.4536240102149900   T   T   T
  0.0835603683743616  0.5629400387406192  0.4507251207469943   T   T   T
  0.4138808611449027  0.5628745496225619  0.4531802062206701   T   T   T
  0.9423683574509222  0.6240001690187406  0.5398458926304630   T   T   T
  0.0000000000000000  0.6245357501514945  0.1955793289240901   F   F   F
  0.3339923607873985  0.6869740216822109  0.2015918950363513   F   F   F
  0.1663048432324175  0.6871515664123251  0.2015456485425915   F   F   F
  0.2499896679286877  0.7496463705244523  0.2766638540929520   F   F   F
  0.0824660912763733  0.6874672270731992  0.2824343777610991   F   F   F
  0.4174829552423418  0.6871308384112780  0.2826795856657682   F   F   F
 -0.0005334689278109  0.7506396821914810  0.3686403972119889   T   T   T
  0.3315562296977309  0.6877003899943516  0.3664668659268190   T   T   T
  0.1666740695891425  0.6880042245812900  0.3671755107049207   T   T   T
  0.2477376910860196  0.7515205817809544  0.4552059876328817   T   T   T
  0.0829189125073629  0.6888116629498043  0.4547190299687591   T   T   T
  0.4157281868150733  0.6893127321195204  0.4505660691336139   T   T   T
  0.0000000000000000  0.7496781775342214  0.1953645300692344   F   F   F
  0.3337937128121951  0.8120159814150867  0.2012723865559281   F   F   F
  0.1661863262123759  0.8121765886067962  0.2013174620412883   F   F   F
  0.2497655804100987  0.8747514740683400  0.2763088131779128   F   F   F
  0.0825580188978989  0.8124898946519963  0.2823318451015737   F   F   F
  0.4173866347344344  0.8121155721843465  0.2822419416884330   F   F   F
  0.9992194410292721  0.8751511669885590  0.3683952021224262   T   T   T
  0.3315727357876028  0.8126512921188946  0.3663742955137287   T   T   T
  0.1665162643037548  0.8126377990502160  0.3675145472654084   T   T   T
  0.2487504246336801  0.8765526599760801  0.4545181819303836   T   T   T
  0.0852762998657468  0.8138554821584110  0.4549947724481623   T   T   T
  0.4154290434841096  0.8142793286217903  0.4531909624942889   T   T   T
  0.0063968575622254  0.8758699279299723  0.5431642541005184   T   T   T
  0.0000000000000000  0.8749709405038288  0.1952216004293277   F   F   F
  0.3336027360284533  0.9373254077095297  0.2010339935283412   F   F   F
  0.1660935290752192  0.9375055884914048  0.2011735569652160   F   F   F
  0.2504830212189049  0.4996808151450338  0.2776753851277860   F   F   F
  0.0824372547392471  0.9374188030533617  0.2822023922818460   F   F   F
  0.4174708236543907  0.9370820673138667  0.2818462101306238   F   F   F
 -0.0009799816906725  0.5001059880031928  0.3681987616802082   T   T   T
  0.3319338089077226  0.9371774223968677  0.3661561311865230   T   T   T
  0.1670280280715326  0.9375170756518197  0.3667745042027161   T   T   T
  0.2471711087782442  0.5004808407222739  0.4576725763638234   T   T   T
  0.0834192515783033  0.9384455292387637  0.4522175960961231   T   T   T
  0.4168111070254188  0.9370824619321207  0.4517030347484263   T   T   T
  0.3355178186383287  0.9353845769820194  0.5412503960492270   T   T   T
  0.1633488121696345  0.9380998039265710  0.5413888091141862   T   T   T
  0.5000000000000000  0.9999198696006601  0.1948903532541308   F   F   F
  0.8338686237634931  0.0626435039054911  0.2013756225831216   F   F   F
  0.6664088480343722  0.0626178990550343  0.2011666574477005   F   F   F
  0.7502863525297556  0.1249913080150051  0.2769716716429613   F   F   F
  0.5826919764017120  0.0622158469098082  0.2818060632728887   F   F   F
  0.9175867107513014  0.0625280043020950  0.2823539174859135   F   F   F
  0.5004053698220922  0.1242345457461866  0.3676352366810997   T   T   T
  0.8323689961721454  0.0623771137480522  0.3664996822816317   T   T   T
  0.6680270528671359  0.0619489998164870  0.3662479958207974   T   T   T
  0.7494374199703929  0.1229851427529278  0.4534139573694191   T   T   T
  0.5830920464113205  0.0598652366330402  0.4518847682227318   T   T   T
  0.9167918170946796  0.0628755032653706  0.4526572041614059   T   T   T
  0.4963811002144904  0.1204738307286206  0.5393251615601282   T   T   T
  0.5000000000000000  0.1254990580004929  0.1954646149468999   F   F   F
  0.8338050752557820  0.1878540692822313  0.2019564242544476   F   F   F
  0.6661184209556694  0.1878831457175423  0.2019461464240635   F   F   F
  0.7497884325061293  0.2500369944875231  0.2777639619025223   F   F   F
  0.5825807174120214  0.1874333417367495  0.2829715540753668   F   F   F
  0.9175625509652647  0.1875904829007098  0.2829684025212984   F   F   F
  0.5000665313941951  0.2495559540972852  0.3699088833241519   T   T   T
  0.8323021805220041  0.1874636177208068  0.3670977300131176   T   T   T
  0.6677819974146482  0.1871191819870192  0.3674329012418323   T   T   T
  0.7511634031854575  0.2488015460811677  0.4551047740636244   T   T   T
  0.5859866319418761  0.1847952472560188  0.4531308577432436   T   T   T
  0.9147990421158922  0.1876103198502059  0.4539389299755196   T   T   T
  0.5000000000000000  0.2505013661093045  0.1964427338884676   F   F   F
  0.8338057190200701  0.3125671912316150  0.2024404242882341   F   F   F
  0.6655012010414296  0.3125187466315609  0.2026668881404063   F   F   F
  0.7493789562850921  0.3749227899199923  0.2783919089997156   F   F   F
  0.5824094523687293  0.3123986209820302  0.2843182411077976   F   F   F
  0.9176381413247796  0.3124866975306020  0.2834913249867341   F   F   F
  0.5004066884346597  0.3742453241235621  0.3715114770776192   T   T   T
  0.8318035156222965  0.3123326467891321  0.3674779023273657   T   T   T
  0.6667283226345881  0.3120998098205664  0.3694173564010641   T   T   T
  0.7522180446430337  0.3754592278722000  0.4552245383929963   T   T   T
  0.5854304031592032  0.3122311571436861  0.4593608761969983   T   T   T
  0.9150510804320147  0.3125180549441779  0.4542944673077268   T   T   T
  0.5023355965223317  0.3775563803526700  0.5492448567490933   T   T   T
  0.5000000000000000  0.3748991137487110  0.1971899805056978   F   F   F
  0.8335316537865580  0.4373113135708522  0.2024835848108779   F   F   F
  0.6654835827069547  0.4372854327724411  0.2027504300156835   F   F   F
  0.7503485273998720  0.0000136476026498  0.2762899058119643   F   F   F
  0.5825013782325570  0.4370699171736305  0.2843873273286093   F   F   F
  0.9174272532412573  0.4373792291061918  0.2832358711618497   F   F   F
  0.5004290596225554  0.9990485650800793  0.3671814026500411   T   T   T
  0.8312778533704562  0.4372415969429206  0.3674934877283295   T   T   T
  0.6673072604041497  0.4372349584105218  0.3691369012961020   T   T   T
  0.7502690437259693  0.9991717597493887  0.4534998406574236   T   T   T
  0.5850126612262534  0.4384257454280044  0.4561902486004359   T   T   T
  0.9156966951417780  0.4373613390073886  0.4534551585170484   T   T   T
  0.5000000000000000  0.4994643024967829  0.1967282283003158   F   F   F
  0.8334276776333880  0.5620352928756773  0.2019996637769879   F   F   F
  0.6659647951878682  0.5619131390770420  0.2021890025370681   F   F   F
  0.7498570837106016  0.6247388243367382  0.2770555720987531   F   F   F
  0.5822945077553001  0.5620703723524798  0.2835027055422685   F   F   F
  0.9176860655007744  0.5624071479513688  0.2827242320219199   F   F   F
  0.4997872189313835  0.6248856222647233  0.3685448534680994   T   T   T
  0.8309069971787211  0.5623751462384841  0.3668857921055696   T   T   T
  0.6673371851589174  0.5623451078177488  0.3680192745991060   T   T   T
  0.7533940764596337  0.6258560497111281  0.4577723179625023   T   T   T
  0.5833231018206179  0.5636090401861548  0.4539468633826353   T   T   T
  0.9159788033686080  0.5619836337072298  0.4506030943072047   T   T   T
  0.4826807432876268  0.6308264930956268  0.5393857304702926   T   T   T
  0.5000000000000000  0.6241464195896782  0.1959625473447417   F   F   F
  0.8336951269491948  0.6871515664123251  0.2015456485425915   F   F   F
  0.6660076099464050  0.6869740216822109  0.2015918950363513   F   F   F
  0.7500103315191211  0.7496463705244523  0.2766638540929520   F   F   F
  0.5825170447576582  0.6871308384112780  0.2826795856657682   F   F   F
  0.9175339087236267  0.6874672270731992  0.2824343777610991   F   F   F
  0.4999542799794243  0.7503390233186626  0.3679545374637476   T   T   T
  0.8316925006045485  0.6874937792881316  0.3665474249940944   T   T   T
  0.6676305307632345  0.6871401240383274  0.3669635986050409   T   T   T
  0.7498934206363806  0.7496622416125207  0.4534370964987152   T   T   T
  0.5825600078648808  0.6878786659615855  0.4519686540170823   T   T   T
  0.9149529990778564  0.6871561535671293  0.4516207218917559   T   T   T
  0.5000000000000000  0.7492608262324936  0.1954491219570258   F   F   F
  0.8338136439692363  0.8121765886067962  0.2013174620412883   F   F   F
  0.6662062579216084  0.8120159814150867  0.2012723865559281   F   F   F
  0.7502344190377102  0.8747514740683400  0.2763088131779128   F   F   F
  0.5826133652655656  0.8121155721843465  0.2822419416884330   F   F   F
  0.9174419811021011  0.8124898946519963  0.2823318451015737   F   F   F
  0.5002408311363321  0.8746632891750020  0.3677456290986096   T   T   T
  0.8324580335635506  0.8126144503898827  0.3667957941997712   T   T   T
  0.6676263208776684  0.8123053663774495  0.3664212080534851   T   T   T
  0.7517976587873224  0.8769826504047489  0.4538675252625103   T   T   T
  0.5851035537324721  0.8128315796971057  0.4529714432134280   T   T   T
  0.9141468724175601  0.8140063998924871  0.4554568962499834   T   T   T
  0.4974745351610163  0.8738000398076011  0.5406620218364208   T   T   T
  0.5000000000000000  0.8746701782158013  0.1950268913488955   F   F   F
  0.8339064411064001  0.9375055884914048  0.2011735569652160   F   F   F
  0.6663972347053502  0.9373254077095297  0.2010339935283412   F   F   F
  0.7495169782289040  0.4996808151450338  0.2776753851277860   F   F   F
  0.5825291763456093  0.9370820673138667  0.2818462101306238   F   F   F
  0.9175627452607529  0.9374188030533617  0.2822023922818460   F   F   F
  0.4999602899974201  0.4996018521784194  0.3700229879271829   T   T   T
  0.8326391699282084  0.9373773262111500  0.3668856319327772   T   T   T
  0.6679051841549424  0.9370047447420150  0.3663895795912482   T   T   T
  0.7514667884376474  0.5016514705189385  0.4575939028660509   T   T   T
  0.5849958657427938  0.9364622744900418  0.4524355136481757   T   T   T
  0.9165092630010111  0.9387536613222358  0.4534003083431442   T   T   T
  0.8402008600344647  0.9473392961921989  0.5435628764201001   T   T   T
  0.6700367864065913  0.9330293153885241  0.5423496054792060   T   T   T
  0.3360947267655953  0.0607105741032532  0.5400772570717183   T   T   T
  0.1664728728525561  0.0657369212778971  0.5402361222191417   T   T   T
  0.0018926965195654  0.2583234619513317  0.5402908582647576   T   T   T
  0.0010094391211808  0.0031174239154752  0.5409656803395472   T   T   T
  0.9789931560038081  0.7539216555456302  0.5440670010935136   T   T   T
  0.0413117231944135  0.5077360899522602  0.5334985593487787   T   T   T
  0.8308930673914949  0.0716997892187441  0.5408715440801550   T   T   T
  0.6607210675863724  0.0598698342512776  0.5415744189566731   T   T   T
  0.5074912749411487  0.2497880315642654  0.5409653561404503   T   T   T
  0.5010588689148860  0.9982485250011531  0.5396702051296393   T   T   T
  0.4935997232121972  0.7539983440297214  0.5406489374736742   T   T   T
  0.4941603551883215  0.5083934736574344  0.5412509125786312   T   T   T
  0.4061289664388497  0.9997402073788066  0.2299469413761983   F   F   F
  0.2499243442227694  0.0000438992941199  0.1972592478097255   F   F   F
  0.0937634807389713  0.0000060933876753  0.2303819593707956   F   F   F
  0.1543157078586574  0.1250764905392501  0.3144006291067782   F   F   F
  0.0000000000000000  0.1251032437903064  0.3017457848904002   F   F   F
  0.3452685446959336  0.1247294648472135  0.3139779832144782   F   F   F
  0.4015122611689643  0.1239144454988668  0.3996932584815828   T   T   T
  0.2500589580071904  0.1244022878321195  0.3860297547586363   T   T   T
  0.0992129267934403  0.1253653863234382  0.4010224567540034   T   T   T
  0.1508851084056723  0.1237613056818424  0.4864815030212008   T   T   T
 -0.0004979851595151  0.1255599132676510  0.4730027050643099   T   T   T
  0.3493048186371130  0.1191136181378252  0.4833659628739464   T   T   T
  0.4003456050688624  0.1208206207224088  0.5720992859718684   T   T   T
  0.2536042076404732  0.1183744682540806  0.5558035448174898   T   T   T
  0.0932627042923038  0.1203471419128554  0.5712367893795188   T   T   T
  0.4060922726490972  0.1252483525494625  0.2305072749907424   F   F   F
  0.2499853373031016  0.1253680865118554  0.1980301026484881   F   F   F
  0.0938705441988859  0.1252872407861290  0.2308075844758477   F   F   F
  0.1545811603609692  0.2502172040039952  0.3150875426512627   F   F   F
  0.0000000000000000  0.2500118363359647  0.3026576964998000   F   F   F
  0.3454213900442511  0.2501666210715499  0.3155411423685734   F   F   F
  0.4018640639814494  0.2494058746821157  0.4029885400449795   T   T   T
  0.2504198293933168  0.2494352461616114  0.3870572509724680   T   T   T
  0.0995897726173148  0.2500206342654035  0.4015324520393915   T   T   T
  0.1522156040541854  0.2505543256513082  0.4867321482143730   T   T   T
  0.0003296946572612  0.2513543626601550  0.4724600538043924   T   T   T
  0.3468238160751305  0.2426748563608703  0.4853083846631200   T   T   T
  0.4282159321626798  0.3051906150933233  0.5355240554911073   T   T   T
  0.3188618505560611  0.2364474391126347  0.5762950739587804   T   T   T
  0.0978924178677067  0.2574474148563092  0.5722984182231118   T   T   T
  0.4063537820413998  0.2503554436372752  0.2318217329215244   F   F   F
  0.2501513892027489  0.2503837172861623  0.1987743679215939   F   F   F
  0.0937459477286708  0.2502472980689348  0.2314396456129870   F   F   F
  0.1547329312016998  0.3748240360379640  0.3152648351295895   F   F   F
  0.0000000000000000  0.3750074687728571  0.3026805859104442   F   F   F
  0.3457516654221564  0.3744942564091502  0.3165611258293524   F   F   F
  0.4014349211777563  0.3728900789650215  0.4044241094156595   T   T   T
  0.2505567544793657  0.3743308189380374  0.3876857855857992   T   T   T
  0.0993473527230411  0.3737906433117667  0.3998866790569513   T   T   T
  0.1523427254888239  0.3758029904433146  0.4848971089846131   T   T   T
  0.0010526199501895  0.3760859492874844  0.4720866370881230   T   T   T
  0.3452364566061594  0.3769576847616318  0.4898709134524928   T   T   T
  0.4164056748443979  0.3967937690779093  0.5932715198582077   T   T   T
  0.2403617261633842  0.3375513414990767  0.5748379988123927   T   T   T
  0.0971766109247769  0.3830144249235687  0.5772489980113882   T   T   T
  0.4063450296950606  0.3748105982353493  0.2326129276751985   F   F   F
  0.2503815799939773  0.3748833278233974  0.1999379082155102   F   F   F
  0.0937603312984550  0.3748447341583656  0.2316121428621187   F   F   F
  0.1544387718848412  0.9996829985042694  0.3140614921184621   F   F   F
  0.0000000000000000  0.9999586470014989  0.3011413469010975   F   F   F
  0.3452207830953640  0.9993250578202932  0.3135800436600817   F   F   F
  0.4012351629645883  0.9990775298912450  0.3992047424203874   T   T   T
  0.2498134061553078  0.9997149517465062  0.3858432524485736   T   T   T
  0.0986173739960746  0.0005580662619151  0.4001387645055288   T   T   T
  0.1504387129295548  0.0006643792614298  0.4851998668061687   T   T   T
 -0.0000282238834253  0.0004763338075201  0.4725046943457278   T   T   T
  0.3498913991821930  0.9983817250333066  0.4846705884717815   T   T   T
  0.4022058612007408  0.9976852062648272  0.5687631402200015   T   T   T
  0.2509902694075204  0.0004682088617616  0.5518994897353249   T   T   T
  0.0991534579599677  0.0036097126248278  0.5684994048303970   T   T   T
  0.4063919750489262  0.4994383192689185  0.2320699339374244   F   F   F
  0.2503562457577360  0.4994733889603751  0.1984713927521753   F   F   F
  0.0937692161019683  0.4997186735604657  0.2311634630953918   F   F   F
  0.1544189180639535  0.6249313455917331  0.3142752564094309   F   F   F
  0.0000000000000000  0.6250871852705728  0.3016444522084001   F   F   F
  0.3455048527126365  0.6246178489899563  0.3146330939141251   F   F   F
  0.4003810577028220  0.6251243486719890  0.3998722571151817   T   T   T
  0.2495936588556879  0.6253960310786361  0.3856882950132615   T   T   T
  0.0984795306655198  0.6264563690097015  0.4001101535716798   T   T   T
  0.1459583658260847  0.6254168269858669  0.4814877575069828   T   T   T
  0.9952920907317521  0.6251062123336982  0.4725669578188649   T   T   T
  0.3477540400322581  0.6298033283027391  0.4822961395831836   T   T   T
  0.3808206141736570  0.6321279081961685  0.5702504713561817   T   T   T
  0.2224198250734402  0.6733513152160753  0.5520972616399030   T   T   T
  0.0234934842917852  0.6754692596133895  0.5567490228397743   T   T   T
  0.4062813521908808  0.6243967556400136  0.2312165259231449   F   F   F
  0.2502036679887922  0.6245155546987675  0.1983452378000550   F   F   F
  0.0937766661575239  0.6247540281504627  0.2307495947632816   F   F   F
  0.1546033435283221  0.7500785159681627  0.3141978718615590   F   F   F
  0.0000000000000000  0.7500305717557652  0.3016383232735009   F   F   F
  0.3453015051544455  0.7497428282577090  0.3142525964722225   F   F   F
  0.4008175682122556  0.7514090827119887  0.3992383039680155   T   T   T
  0.2492621108202634  0.7504813778472642  0.3869672860918428   T   T   T
  0.0981152888726836  0.7510691694268665  0.4020436932459328   T   T   T
  0.1487678819462735  0.7501789566934949  0.4877710249224569   T   T   T
  0.9965459954225485  0.7508448855980798  0.4747426268628787   T   T   T
  0.3486755600425969  0.7520379091144965  0.4808523783256086   T   T   T
  0.3908820469046401  0.7528766855690201  0.5666533291471961   T   T   T
  0.2484529982685951  0.7851742711156137  0.6023853436409236   T   T   T
  0.0739615826921524  0.7810563847394468  0.5687804577415801   T   T   T
  0.4062711913523245  0.7494715794673255  0.2306001329891103   F   F   F
  0.2500741286340968  0.7495298625147910  0.1975175958228235   F   F   F
  0.0937118033124449  0.7498015672246723  0.2305201988047330   F   F   F
  0.1546291005700482  0.8749761849418931  0.3141837548196165   F   F   F
  0.0000000000000000  0.8748932220635766  0.3014812161455396   F   F   F
  0.3451245848043172  0.8746053037018058  0.3138810939481544   F   F   F
  0.4008044093902803  0.8748372441592676  0.3997436333608190   T   T   T
  0.2494548550270054  0.8752265761400654  0.3864092279795288   T   T   T
  0.0982296266068036  0.8748552820102565  0.4008718977043733   T   T   T
  0.1499613219069051  0.8790813015555904  0.4855969441628118   T   T   T
  0.0005587752712623  0.8757365674199590  0.4737081587460996   T   T   T
  0.3485149668209945  0.8778273101504633  0.4847884371260015   T   T   T
  0.3986654077766819  0.8734815190035528  0.5727275507266527   T   T   T
  0.2481044012011073  0.8861952071722895  0.5648149323098119   T   T   T
  0.0980985610237421  0.8876433973976138  0.5781135118860191   T   T   T
  0.4061874568895689  0.8745829884845264  0.2301668008934286   F   F   F
  0.2499290053865906  0.8746976559329411  0.1974476691903959   F   F   F
  0.0937950848089244  0.8748753778232796  0.2304039901560628   F   F   F
  0.1546720275628246  0.4999270048239595  0.3147507493888071   F   F   F
  0.0000000000000000  0.4998372765106751  0.3021481560570436   F   F   F
  0.3456001409594549  0.4994987117009870  0.3156404985996346   F   F   F
  0.4007283320400985  0.4996544282474427  0.4020929995660883   T   T   T
  0.2497861162730573  0.5001029952692606  0.3882938108924284   T   T   T
  0.0988650078701626  0.5000717923875229  0.3985639429374592   T   T   T
  0.1434547702718712  0.4970738250641006  0.4827679555459133   T   T   T
  0.0012070212021687  0.5016236946094247  0.4684164271603030   T   T   T
  0.3488192210489015  0.4964569721992962  0.4864971537486122   T   T   T
  0.3954153783677971  0.5105084611729952  0.5724269721317040   T   T   T
  0.2468243717933361  0.5658761581887871  0.5071559710788974   T   T   T
  0.1293328613352099  0.5309915354244376  0.5685431009880134   T   T   T
  0.9062365192610287  0.0000060933876753  0.2303819593707956   F   F   F
  0.7500756552250394  0.0000438992941199  0.1972592478097255   F   F   F
  0.5938710335611503  0.9997402073788066  0.2299469413761983   F   F   F
  0.6547314553040664  0.1247294648472135  0.3139779832144782   F   F   F
  0.5000000000000000  0.1246461532123107  0.3009409192362540   F   F   F
  0.8456842921413426  0.1250764905392501  0.3144006291067782   F   F   F
  0.9008535817665951  0.1251180300965261  0.4006444533511224   T   T   T
  0.7501078843066959  0.1245028522401805  0.3858009597325100   T   T   T
  0.5992292226795833  0.1238986988428275  0.4001118428774494   T   T   T
  0.6507040865635128  0.1187877917555263  0.4852266735864526   T   T   T
  0.5004418512247227  0.1226144012738925  0.4707752223568881   T   T   T
  0.8476350543578381  0.1235641218257623  0.4847760509856635   T   T   T
  0.8984181968054531  0.1293878043954138  0.5712093888872908   T   T   T
  0.7414658794426754  0.1197314714377690  0.5576057717478520   T   T   T
  0.5806688826279409  0.1037762826321051  0.5763347191224932   T   T   T
  0.9061294558011141  0.1252872407861290  0.2308075844758477   F   F   F
  0.7500146621447072  0.1253680865118554  0.1980301026484881   F   F   F
  0.5939077273509028  0.1252483525494625  0.2305072749907424   F   F   F
  0.6545786099557489  0.2501666210715499  0.3155411423685734   F   F   F
  0.5000000000000000  0.2498087327690257  0.3027998836310033   F   F   F
  0.8454188396390308  0.2502172040039952  0.3150875426512627   F   F   F
  0.9003943672966882  0.2501187273418474  0.4015177175885825   T   T   T
  0.7500323880727733  0.2496035586209844  0.3870827282897301   T   T   T
  0.5986919524040586  0.2497156255873605  0.4026007544682358   T   T   T
  0.6536237894522156  0.2451465696899856  0.4840708889691588   T   T   T
  0.5018491721336408  0.2452290810587490  0.4733361098837165   T   T   T
  0.8488651481750634  0.2486480768090920  0.4861482755897286   T   T   T
  0.9065212186938510  0.2697321966647266  0.5729820449742763   T   T   T
  0.7168728622318832  0.2470705546298216  0.5616105854622623   T   T   T
  0.5790088969787704  0.3102013359353955  0.5356111486730551   T   T   T
  0.9062540522713292  0.2502472980689348  0.2314396456129870   F   F   F
  0.7498486102450599  0.2503837172861623  0.1987743679215939   F   F   F
  0.5936462179585931  0.2503554436372752  0.2318217329215244   F   F   F
  0.6542483345778436  0.3744942564091502  0.3165611258293524   F   F   F
  0.5000000000000000  0.3746674438902389  0.3043243890304694   F   F   F
  0.8452670687983002  0.3748240360379640  0.3152648351295895   F   F   F
  0.9001248218425111  0.3745884863868786  0.4014430864606074   T   T   T
  0.7497721528542455  0.3747321157396518  0.3872964128797796   T   T   T
  0.5995263923055031  0.3742702037140669  0.4045831215627423   T   T   T
  0.6580074907447653  0.3804328275231861  0.4894138470459208   T   T   T
  0.5012011062026617  0.3761860227909660  0.4763563629477928   T   T   T
  0.8496891323418007  0.3748710536668042  0.4860733746223496   T   T   T
  0.9120581246431139  0.4017880027669857  0.5693986691162688   T   T   T
  0.7618465555482941  0.3660190419391914  0.5697380056073724   T   T   T
  0.5796491267956008  0.4044247297108460  0.5928138563840167   T   T   T
  0.9062396687015450  0.3748447341583656  0.2316121428621187   F   F   F
  0.7496184194538316  0.3748833278233974  0.1999379082155102   F   F   F
  0.5936549703049394  0.3748105982353493  0.2326129276751985   F   F   F
  0.6547792169046360  0.9993250578202932  0.3135800436600817   F   F   F
  0.5000000000000000  0.9995461887499104  0.3005273028076445   F   F   F
  0.8455612281151588  0.9996829985042694  0.3140614921184621   F   F   F
  0.9010861153167500  0.0000359856562051  0.4005366990420068   T   T   T
  0.7502082824236277  0.9995609545955600  0.3855223109719833   T   T   T
  0.5994677507127154  0.9986177822330867  0.3998482370592162   T   T   T
  0.6519661817110046  0.9973572245012590  0.4857461826939773   T   T   T
  0.5010177438661849  0.9977911007292528  0.4714302413573117   T   T   T
  0.8490508104057154  0.0022137810973724  0.4856803402673819   T   T   T
  0.9038445127388703  0.0113293801278816  0.5700699624439562   T   T   T
  0.7495759960470822  0.0041300000393580  0.5545580021144831   T   T   T
  0.5987562639021180  0.9916860203263271  0.5687965423870210   T   T   T
  0.9062307838980246  0.4997186735604657  0.2311634630953918   F   F   F
  0.7496437536900729  0.4994733889603751  0.1984713927521753   F   F   F
  0.5936080249510738  0.4994383192689185  0.2320699339374244   F   F   F
  0.6544951472873635  0.6246178489899563  0.3146330939141251   F   F   F
  0.5000000000000000  0.6248457726619137  0.3021681632881084   F   F   F
  0.8455810819360465  0.6249313455917331  0.3142752564094309   F   F   F
  0.8997229045634308  0.6250817759238936  0.3997621518328410   T   T   T
  0.7498231219738031  0.6249472815132180  0.3881627534375499   T   T   T
  0.5989355125762810  0.6250497027263291  0.4009014148712034   T   T   T
  0.6511280598908802  0.6271696650281070  0.4848310293778367   T   T   T