Ta  N  W Cu                             
   1.00000000000000     
    18.1096308199999996    0.0000000000000000    0.0000000000000000
     0.0000000000000000   23.3551997799999995    0.0000000000000000
     0.0000000000000000    0.0000000000000000   30.4818171199999988
   Ta   N    W    Cu
   192   240    48     4
Selective dynamics
Direct
  0.9999390400000000  0.0003147252900000  0.1962172600000000   F   F   F
  0.3293638000000000  0.0659309690000000  0.2018947100000000   F   F   F
  0.1704075800000000  0.0657029270000000  0.2016494100000000   F   F   F
  0.2501251100000000  0.1251797200000000  0.2809054300000000   F   F   F
  0.0824737650000000  0.0626326480000000  0.2830676000000000   F   F   F
  0.4173984200000000  0.0626390970000000  0.2832061000000000   F   F   F
  0.9999150100000000  0.1250839400000000  0.3688836000000000   F   F   F
  0.3331337400000000  0.0627677380000000  0.3679544900000000   F   F   F
  0.1668890000000000  0.0627612340000000  0.3678776600000000   F   F   F
  0.2529311677164446  0.1277960200270745  0.4526190768303596   T   T   T
  0.0818247896589225  0.0642076489594549  0.4531438511687174   T   T   T
  0.4168724567963932  0.0640308022278646  0.4513754708964218   T   T   T
  0.9999108500000000  0.1252269700000000  0.1952671000000000   F   F   F
  0.3295119700000000  0.1846642700000000  0.2018016400000000   F   F   F
  0.1704281200000000  0.1847761600000000  0.2016142300000000   F   F   F
  0.2500689100000000  0.2502341500000000  0.2804079700000000   F   F   F
  0.0825204200000000  0.1878865100000000  0.2830480400000000   F   F   F
  0.4174486300000000  0.1878846000000000  0.2832631000000000   F   F   F
  0.9999633600000000  0.2504177300000000  0.3688993100000000   F   F   F
  0.3330659400000000  0.1878215800000000  0.3681022600000000   F   F   F
  0.1668322200000000  0.1877990000000000  0.3677963400000000   F   F   F
  0.2487654050014742  0.2512970690816360  0.4542496632163400   T   T   T
  0.0783156061245313  0.1880458686113135  0.4536167139094941   T   T   T
  0.4155828184731761  0.1895704209513417  0.4519762486393446   T   T   T
  0.9999696200000000  0.2503592600000000  0.1961821500000000   F   F   F
  0.3294951100000000  0.3159220300000000  0.2019621500000000   F   F   F
  0.1704302100000000  0.3156901500000000  0.2016709300000000   F   F   F
  0.2502127200000000  0.3751959900000000  0.2810804100000000   F   F   F
  0.0825401570000000  0.3126262500000000  0.2831021200000000   F   F   F
  0.4174318100000000  0.3126142200000000  0.2833595800000000   F   F   F
  0.0000447428930000  0.3751445400000000  0.3689298000000000   F   F   F
  0.3331347500000000  0.3127826400000000  0.3681385700000000   F   F   F
  0.1669546600000000  0.3127874800000000  0.3679167800000000   F   F   F
  0.2470022234989814  0.3764437997256455  0.4547015598172640   T   T   T
  0.0802496278863886  0.3118103315474612  0.4551202725537150   T   T   T
  0.4124766937901342  0.3150800154771837  0.4579060909181030   T   T   T
  0.9999900900000001  0.3752788500000000  0.1953333600000000   F   F   F
  0.3295167800000000  0.4346352700000000  0.2020189300000000   F   F   F
  0.1704379700000000  0.4348019000000000  0.2017659000000000   F   F   F
  0.2499900200000000  0.0002593866200000  0.2804097900000000   F   F   F
  0.0826109190000000  0.4378776500000000  0.2831742700000000   F   F   F
  0.4174701300000000  0.4378520800000000  0.2834534200000000   F   F   F
  0.9998898700000000  0.0004415864500000  0.3689024500000000   F   F   F
  0.3331504800000000  0.4378420000000000  0.3683465600000000   F   F   F
  0.1669393800000000  0.4378493300000000  0.3679936800000000   F   F   F
  0.2518561627523676  0.0010405175481929  0.4551394759261125   T   T   T
  0.0861826051233808  0.4377901013588330  0.4525207155094083   T   T   T
  0.4155330012387143  0.4385708298637404  0.4520863242202992   T   T   T
  0.0000179487060000  0.5003365100000000  0.1962424300000000   F   F   F
  0.3294273800000000  0.5658452400000000  0.2020152300000000   F   F   F
  0.1704761900000000  0.5656381800000000  0.2017642900000000   F   F   F
  0.2501666500000000  0.6252317100000000  0.2810440100000000   F   F   F
  0.0825666810000000  0.5626239900000000  0.2831918100000000   F   F   F
  0.4174367400000000  0.5625920100000000  0.2833722500000000   F   F   F
  0.0000211085080000  0.6251524300000000  0.3689310700000000   F   F   F
  0.3331647900000000  0.5627607300000000  0.3682059400000000   F   F   F
  0.1670373900000000  0.5628145200000000  0.3680577700000000   F   F   F
  0.2468649253584664  0.6212524253219425  0.4554883241030411   T   T   T
  0.0856813269800056  0.5625443704651891  0.4550164620069012   T   T   T
  0.4170424817054246  0.5654989652778193  0.4547885705141337   T   T   T
  0.9999696100000000  0.6251875300000000  0.1953222400000000   F   F   F
  0.3294581100000000  0.6846120500000000  0.2018973900000000   F   F   F
  0.1704344600000000  0.6847691000000000  0.2017074400000000   F   F   F
  0.2500245900000000  0.7502617200000000  0.2804127700000000   F   F   F
  0.0825388330000000  0.6878797300000000  0.2831027900000000   F   F   F
  0.4174223600000000  0.6878387000000000  0.2832729800000000   F   F   F
  0.9999634300000000  0.7504474000000000  0.3689235400000000   F   F   F
  0.3330450300000000  0.6878389600000000  0.3681151300000000   F   F   F
  0.1668800000000000  0.6878743200000000  0.3678683700000000   F   F   F
  0.2521810155869874  0.7509913669697933  0.4518402506566886   T   T   T
  0.0873474665700626  0.6871098131223030  0.4530724950064756   T   T   T
  0.4180038720676643  0.6873013771532022  0.4541513728495998   T   T   T
  0.9999784400000000  0.7502903700000000  0.1962080300000000   F   F   F
  0.3293866900000000  0.8159391100000000  0.2018054400000000   F   F   F
  0.1704105500000000  0.8157272000000000  0.2015809100000000   F   F   F
  0.2500947800000000  0.8752406100000000  0.2808645400000000   F   F   F
  0.0825108960000000  0.8126340399999999  0.2830825100000000   F   F   F
  0.4173733600000000  0.8126145900000000  0.2831936000000000   F   F   F
  0.9999150000000000  0.8751142600000000  0.3688721200000000   F   F   F
  0.3331169700000000  0.8127839100000001  0.3679636400000000   F   F   F
  0.1669152100000000  0.8128084600000000  0.3678906700000000   F   F   F
  0.2501755868557385  0.8759881476629445  0.4531693131028218   T   T   T
  0.0814339261216191  0.8127610288062647  0.4535488058435306   T   T   T
  0.4156717311687073  0.8141791681896666  0.4560449095020161   T   T   T
  0.9999285999999999  0.8752173300000000  0.1952924500000000   F   F   F
  0.3293789600000000  0.9345949700000000  0.2017505300000000   F   F   F
  0.1704209100000000  0.9347336500000000  0.2015792400000000   F   F   F
  0.2500798600000000  0.5002494900000000  0.2805996200000000   F   F   F
  0.0825115000000000  0.9378789400000000  0.2830399600000000   F   F   F
  0.4173840600000000  0.9378665300000000  0.2831830500000000   F   F   F
  0.0000639345300000  0.5004664800000000  0.3689928200000000   F   F   F
  0.3329723500000000  0.9378301500000000  0.3679927800000000   F   F   F
  0.1667837800000000  0.9378240100000000  0.3677856100000000   F   F   F
  0.2515857350639936  0.5007558397609184  0.4537857158897282   T   T   T
  0.0813009111042170  0.9364256165377332  0.4545149317610853   T   T   T
  0.4173477170968177  0.9388153224044142  0.4522636388892991   T   T   T
  0.4999020300000000  0.0002387342800000  0.1962811400000000   F   F   F
  0.8291785100000000  0.0658638990000000  0.2018239600000000   F   F   F
  0.6702344500000000  0.0657982630000000  0.2017826700000000   F   F   F
  0.7499584300000000  0.1251861000000000  0.2809368200000000   F   F   F
  0.5824627300000000  0.0626524640000000  0.2832068000000000   F   F   F
  0.9174132800000000  0.0626287600000000  0.2830735900000000   F   F   F
  0.4999893200000000  0.1254815800000000  0.3691279500000000   F   F   F
  0.8329509200000000  0.0627766740000000  0.3679302900000000   F   F   F
  0.6667206500000000  0.0628010950000000  0.3679876400000000   F   F   F
  0.7475777485443209  0.1277274257720488  0.4521470634548324   T   T   T
  0.5839411940822595  0.0650041071476388  0.4554446120942844   T   T   T
  0.9067445449900082  0.0621014929644595  0.4530403019290408   T   T   T
  0.4998644000000000  0.1252985300000000  0.1953546400000000   F   F   F
  0.8292126600000000  0.1846470200000000  0.2017652600000000   F   F   F
  0.6701343000000000  0.1848023900000000  0.2016976400000000   F   F   F
  0.7498674700000000  0.2502152600000000  0.2804526600000000   F   F   F
  0.5824568500000000  0.1878789800000000  0.2832864500000000   F   F   F
  0.9174142500000000  0.1878920700000000  0.2830550600000000   F   F   F
  0.5000138900000000  0.2501503600000000  0.3692295100000000   F   F   F
  0.8330336200000000  0.1878133700000000  0.3678529000000000   F   F   F
  0.6668523100000000  0.1878211200000000  0.3681543900000000   F   F   F
  0.7475546080549059  0.2505221518042602  0.4519449526497434   T   T   T
  0.5769748603955793  0.1908878087667762  0.4516357372588288   T   T   T
  0.9123668911437148  0.1862580845956040  0.4547449717894376   T   T   T
  0.4999677300000000  0.2502950200000000  0.1963118100000000   F   F   F
  0.8292451000000000  0.3158357200000000  0.2018512000000000   F   F   F
  0.6701584200000000  0.3157743500000000  0.2018464500000000   F   F   F
  0.7499885400000000  0.3752021400000000  0.2810758700000000   F   F   F
  0.5824991400000000  0.3126215100000000  0.2833768200000000   F   F   F
  0.9175008400000000  0.3126198300000000  0.2830888700000000   F   F   F
  0.4999711200000000  0.3754874300000000  0.3693106000000000   F   F   F
  0.8330734700000000  0.3127624200000000  0.3679118900000000   F   F   F
  0.6668756400000000  0.3127742200000000  0.3681731500000000   F   F   F
  0.7481717274650098  0.3743956843623033  0.4531906979363979   T   T   T
  0.5815017639438558  0.3159798520343881  0.4522281371843533   T   T   T
  0.9130747161246324  0.3117386402445011  0.4524095924346673   T   T   T
  0.4998824300000000  0.3753154700000000  0.1955004700000000   F   F   F
  0.8292825200000000  0.4346579200000000  0.2019016600000000   F   F   F
  0.6701487000000000  0.4347977600000000  0.2018933300000000   F   F   F
  0.7498808000000000  0.0002730398100000  0.2804575400000000   F   F   F
  0.5824655600000000  0.4378422400000000  0.2834384100000000   F   F   F
  0.9174818000000000  0.4378912500000000  0.2831322000000000   F   F   F
  0.4999357100000000  0.0001474190200000  0.3690600900000000   F   F   F
  0.8331857400000000  0.4378633500000000  0.3679096300000000   F   F   F
  0.6668983000000001  0.4378498900000000  0.3682500700000000   F   F   F
  0.7447902512105525  0.9998409593650307  0.4553104763072994   T   T   T
  0.5787788772916366  0.4403197500529572  0.4530541479551792   T   T   T
  0.9163074136052749  0.4374684790928553  0.4551533747621672   T   T   T
  0.4999033100000000  0.5001891200000000  0.1963948300000000   F   F   F
  0.8292189599999999  0.5658171800000000  0.2018860200000000   F   F   F
  0.6702244500000000  0.5656926400000000  0.2018822900000000   F   F   F
  0.7499889900000000  0.6252500100000000  0.2809962300000000   F   F   F
  0.5824634700000000  0.5625884200000000  0.2833460000000000   F   F   F
  0.9174983900000000  0.5626278400000000  0.2831473200000000   F   F   F
  0.4999453100000000  0.6254426199999999  0.3691798000000000   F   F   F
  0.8330402300000000  0.5628430100000000  0.3679795700000000   F   F   F
  0.6668683000000000  0.5628007600000000  0.3680726400000000   F   F   F
  0.7484533085704701  0.6235501509263142  0.4541510267682679   T   T   T
  0.5841414004146498  0.5645995760465988  0.4536048600015452   T   T   T
  0.9164572910581846  0.5613322452888065  0.4549556125779997   T   T   T
  0.4998489500000000  0.6251200200000000  0.1953991400000000   F   F   F
  0.8292030300000000  0.6846292800000000  0.2018500300000000   F   F   F
  0.6701935100000000  0.6847439400000001  0.2017816500000000   F   F   F
  0.7498623000000000  0.7502718300000000  0.2804119000000000   F   F   F
  0.5824265800000000  0.6878403199999999  0.2832498300000000   F   F   F
  0.9174515500000000  0.6878925299999999  0.2830678400000000   F   F   F
  0.4999360800000000  0.7500976600000000  0.3691027100000000   F   F   F
  0.8330703600000000  0.6878957999999999  0.3678320000000000   F   F   F
  0.6668708600000000  0.6878508200000000  0.3680541200000000   F   F   F
  0.7511038023579004  0.7509517257400093  0.4532539159501474   T   T   T
  0.5877996966229003  0.6885414334667648  0.4539324708382573   T   T   T
  0.9170773558299909  0.6839104897773808  0.4553628933001962   T   T   T
  0.4998967900000000  0.7501301700000000  0.1962905900000000   F   F   F
  0.8291630900000000  0.8158918100000000  0.2017466900000000   F   F   F
  0.6702026000000000  0.8158319400000000  0.2016731400000000   F   F   F
  0.7499605100000000  0.8752527700000000  0.2808710500000000   F   F   F
  0.5824592500000000  0.8126161300000000  0.2831778200000000   F   F   F
  0.9174230500000000  0.8126250300000000  0.2830592900000000   F   F   F
  0.4999150800000000  0.8754700399999999  0.3690146500000000   F   F   F
  0.8329793200000000  0.8128073200000000  0.3678867600000000   F   F   F
  0.6667354800000000  0.8128089700000000  0.3679301800000000   F   F   F
  0.7472151133703934  0.8715581041836699  0.4537622801612414   T   T   T
  0.5785409449102197  0.8161991965552785  0.4524362343236354   T   T   T
  0.9194539602848475  0.8099638272943284  0.4546645651996359   T   T   T
  0.4998258800000000  0.8752493700000000  0.1953398900000000   F   F   F
  0.8291693300000000  0.9345773000000001  0.2017399200000000   F   F   F
  0.6702380700000000  0.9347276600000000  0.2016676200000000   F   F   F
  0.7499160200000000  0.5002447500000000  0.2805759700000000   F   F   F
  0.5824308900000000  0.9378691700000000  0.2831805800000000   F   F   F
  0.9173861400000000  0.9378861200000000  0.2830294000000000   F   F   F
  0.4999599900000000  0.5001361300000000  0.3693723300000000   F   F   F
  0.8330615400000000  0.9378299100000000  0.3678010200000000   F   F   F
  0.6668379200000000  0.9378332000000000  0.3679748700000000   F   F   F
  0.7521051712670616  0.5010010577607974  0.4566077903059408   T   T   T
  0.5786132572285700  0.9395991544126219  0.4546576416647153   T   T   T
  0.9143523491796296  0.9371224559389225  0.4556524253356970   T   T   T
  0.4053272100000000  0.0002280180200000  0.2312193300000000   F   F   F
  0.2499452200000000  0.0002390174700000  0.2102267100000000   F   F   F
  0.0945188320000000  0.0002880234500000  0.2311125900000000   F   F   F
  0.1523686300000000  0.1252459300000000  0.3159696600000000   F   F   F
  0.9999594100000000  0.1252697000000000  0.3019378700000000   F   F   F
  0.3475918700000000  0.1253223700000000  0.3161570200000000   F   F   F
  0.4016531100000000  0.1251903600000000  0.4026622100000000   F   F   F
  0.2499195600000000  0.1252626100000000  0.3864103800000000   F   F   F
  0.0982280290000000  0.1253420900000000  0.4024404200000000   F   F   F
  0.1515467614580914  0.1244841948901640  0.4875396500544321   T   T   T
  0.0026576229112456  0.1234722011540359  0.4747253467819711   T   T   T
  0.3472870544483823  0.1259298450064223  0.4846169776480968   T   T   T
  0.4006005247753054  0.1318601919871021  0.5646333378738169   T   T   T
  0.2467399577127641  0.1294776378425830  0.5598823536380709   T   T   T
  0.0948801801444910  0.1245528552203046  0.5666681591478788   T   T   T
  0.4054687400000000  0.1253058700000000  0.2317013100000000   F   F   F
  0.2498563600000000  0.1252971100000000  0.1769556900000000   F   F   F
  0.0945868900000000  0.1252556300000000  0.2314892800000000   F   F   F
  0.1526623800000000  0.2502822800000000  0.3157540800000000   F   F   F
  0.9999865500000000  0.2502671300000000  0.3020477200000000   F   F   F
  0.3473424700000000  0.2502456200000000  0.3159913800000000   F   F   F
  0.4016134300000000  0.2504222600000000  0.4027281700000000   F   F   F
  0.2499248100000000  0.2502815600000000  0.3863773900000000   F   F   F
  0.0983947940000000  0.2501186500000000  0.4023967200000000   F   F   F
  0.1488035662286123  0.2529115013950704  0.4860203534017763   T   T   T
  0.9982721170197691  0.2459864842266321  0.4734182862487623   T   T   T
  0.3472721376210638  0.2536657544112240  0.4897077973138607   T   T   T
  0.3949148679397625  0.2485588451537311  0.5699813933458741   T   T   T
  0.2441000256478538  0.2521738570451253  0.5562204591152646   T   T   T
  0.0980524587085735  0.2544434763287096  0.5694112283991872   T   T   T
  0.4054481900000000  0.2502734700000000  0.2313139500000000   F   F   F
  0.2499997800000000  0.2502572900000000  0.2101609700000000   F   F   F
  0.0944970980000000  0.2503053200000000  0.2311177800000000   F   F   F
  0.1524509500000000  0.3752660800000000  0.3160795500000000   F   F   F
  0.0000384699300000  0.3752599200000000  0.3019841000000000   F   F   F
  0.3476241400000000  0.3753064600000000  0.3163807500000000   F   F   F
  0.4017718000000000  0.3752394500000000  0.4029489300000000   F   F   F
  0.2500370600000000  0.3753178100000000  0.3865784400000000   F   F   F
  0.0983394490000000  0.3754124300000000  0.4024851800000000   F   F   F
  0.1463571949333607  0.3737798085580392  0.4826189113586922   T   T   T
  0.9980177174182301  0.3795477007148528  0.4752377597573079   T   T   T
  0.3434853769609222  0.3791073469063632  0.4871877660800884   T   T   T
  0.4020842815590105  0.3785860887753025  0.5672128730192365   T   T   T
  0.2513606241770326  0.3807813826325511  0.5595912199368525   T   T   T
  0.0969863730549562  0.3760001194989571  0.5704710131902870   T   T   T
  0.4055265300000000  0.3752739600000000  0.2318704600000000   F   F   F
  0.2498912900000000  0.3752967900000000  0.1771522100000000   F   F   F
  0.0946480220000000  0.3752603800000000  0.2315631900000000   F   F   F
  0.1525668800000000  0.0003009940700000  0.3157601700000000   F   F   F
  0.9999399500000000  0.0002572573200000  0.3020454100000000   F   F   F
  0.3473146200000000  0.0002600351000000  0.3158870400000000   F   F   F
  0.4014928400000000  0.0003951190600000  0.4025473700000000   F   F   F
  0.2498851500000000  0.0002753996100000  0.3864007300000000   F   F   F
  0.0983142850000000  0.0001473950700000  0.4024170500000000   F   F   F
  0.1527687038000794  0.0072107044362040  0.4865641753630788   T   T   T
  0.9936283840998217  0.0012393194256514  0.4735132168868431   T   T   T
  0.3504008124087575  0.0029446004577426  0.4888189257641646   T   T   T
  0.4049387558491986  0.0116518130657981  0.5715074242550668   T   T   T
  0.2515660491642721  0.9971724321717275  0.5563983250363861   T   T   T
  0.0974180324759185  0.0024386673616577  0.5674486764873720   T   T   T
  0.4054370600000000  0.5001627400000001  0.2314609100000000   F   F   F
  0.2500166300000000  0.5002090500000000  0.2103864400000000   F   F   F
  0.0945083830000000  0.5002829700000000  0.2312497400000000   F   F   F
  0.1524211400000000  0.6252493400000000  0.3160865800000000   F   F   F
  0.0000168349730000  0.6252534600000000  0.3019849800000000   F   F   F
  0.3476089600000000  0.6252549900000000  0.3162806000000000   F   F   F
  0.4016692900000000  0.6251660800000000  0.4028113100000000   F   F   F
  0.2499692900000000  0.6253498500000000  0.3865573500000000   F   F   F
  0.0983089810000000  0.6254863300000000  0.4025309300000000   F   F   F
  0.1504712071042703  0.6264253477641912  0.4899717923117785   T   T   T
  0.0025030721088650  0.6263752341178410  0.4741708361877546   T   T   T
  0.3458230600040235  0.6255483409508308  0.4884829764601940   T   T   T
  0.4051291946339637  0.6271950089962635  0.5692099182330650   T   T   T
  0.2517203879768364  0.6259293200528058  0.5595248355575314   T   T   T
  0.1034943695537296  0.6216460569306993  0.5640417800084416   T   T   T
  0.4054932900000000  0.6251940900000000  0.2317861700000000   F   F   F
  0.2498658600000000  0.6251973199999999  0.1771309700000000   F   F   F
  0.0946303460000000  0.6252066400000000  0.2315765100000000   F   F   F
  0.1526202200000000  0.7503027700000000  0.3157876900000000   F   F   F
  0.9999710700000000  0.7502525500000000  0.3020600900000000   F   F   F
  0.3473284700000000  0.7502265900000000  0.3159219700000000   F   F   F
  0.4015132200000000  0.7504441400000000  0.4026293800000000   F   F   F
  0.2499291100000000  0.7503208500000000  0.3864683700000000   F   F   F
  0.0983672780000000  0.7502381700000000  0.4024676800000000   F   F   F
  0.1498977615789831  0.7502239245464600  0.4848922548090054   T   T   T
  0.0050541986619707  0.7507031480330775  0.4754710632425050   T   T   T
  0.3500277234816310  0.7525087709670724  0.4875478473381005   T   T   T
  0.3958451641601027  0.7502713399211739  0.5676768040667420   T   T   T
  0.2508670482619086  0.7527389868165151  0.5600169439514346   T   T   T
  0.1025792703064703  0.7552458686095511  0.5677470716759218   T   T   T
  0.4053711200000000  0.7501788800000000  0.2312583900000000   F   F   F
  0.2499827900000000  0.7502472100000001  0.2102012900000000   F   F   F
  0.0945168090000000  0.7502837300000000  0.2311422500000000   F   F   F
  0.1523621900000000  0.8752532200000001  0.3159693800000000   F   F   F
  0.9999654100000001  0.8752674900000000  0.3019231900000000   F   F   F
  0.3475565000000000  0.8752911200000000  0.3161062600000000   F   F   F
  0.4015928900000000  0.8752203000000000  0.4025761900000000   F   F   F
  0.2498987000000000  0.8753268500000000  0.3864054000000000   F   F   F
  0.0982101750000000  0.8754065500000000  0.4024436300000000   F   F   F
  0.1525074679442449  0.8773442870586192  0.4855644264806019   T   T   T
  0.0002757035509247  0.8766641470585805  0.4749224635394689   T   T   T
  0.3486287667506060  0.8760121350948612  0.4857248738784012   T   T   T
  0.3994734090401434  0.8787756994709480  0.5678105981338837   T   T   T
  0.2510357903995389  0.8716506435867537  0.5565739701768149   T   T   T
  0.1029185865242949  0.8753831749626848  0.5660144525493694   T   T   T
  0.4053794800000000  0.8752537500000001  0.2316637900000000   F   F   F
  0.2498063300000000  0.8752353800000000  0.1766930100000000   F   F   F
  0.0946563220000000  0.8752369300000000  0.2314964300000000   F   F   F
  0.1527047600000000  0.5002891900000001  0.3159333000000000   F   F   F
  0.0000314967770000  0.5002437400000000  0.3021373400000000   F   F   F
  0.3473601200000000  0.5002053700000000  0.3161737600000000   F   F   F
  0.4016268900000000  0.5003845500000000  0.4030107900000000   F   F   F
  0.2500689300000000  0.5002862700000000  0.3867230200000000   F   F   F
  0.0984456820000000  0.5002319800000000  0.4025382700000000   F   F   F
  0.1605697225804201  0.4993185112633248  0.4879353417457896   T   T   T
  0.0004749939188467  0.5038679494503674  0.4749260247169288   T   T   T
  0.3518659374522936  0.5030198732828168  0.4880998781676701   T   T   T
  0.3993399027206772  0.5013460474234611  0.5708141557073303   T   T   T
  0.2542834068667448  0.5037985464719691  0.5555328980441365   T   T   T
  0.0986011795685406  0.5010118396354970  0.5707372167073134   T   T   T
  0.9052694100000001  0.0002944493300000  0.2310843200000000   F   F   F
  0.7497650100000000  0.0002466412600000  0.2102945100000000   F   F   F
  0.5943927000000000  0.0002364307900000  0.2312456100000000   F   F   F
  0.6523136200000000  0.1253340300000000  0.3161644500000000   F   F   F
  0.4999489900000000  0.1252781200000000  0.3021686100000000   F   F   F
  0.8475551400000000  0.1252635000000000  0.3160297900000000   F   F   F
  0.9016138900000000  0.1253615600000000  0.4024740300000000   F   F   F
  0.7499247200000000  0.1252966300000000  0.3865121000000000   F   F   F
  0.5982638200000000  0.1252222900000000  0.4027644200000000   F   F   F
  0.6551664234616598  0.1262517664119417  0.4912389110303312   T   T   T
  0.4946461033764074  0.1289113769158193  0.4723543869692683   T   T   T
  0.8391010000764207  0.1244019210858030  0.4868711035022934   T   T   T
  0.8986213158299494  0.1275036135706007  0.5693589919799608   T   T   T
  0.7481979617098532  0.1295412369940773  0.5614659472248054   T   T   T
  0.5927542964591136  0.1253383682571932  0.5689809058336051   T   T   T
  0.9053767500000000  0.1252667400000000  0.2315309200000000   F   F   F
  0.7495743000000000  0.1253061300000000  0.1769550300000000   F   F   F
  0.5944407500000000  0.1253147800000000  0.2316626400000000   F   F   F
  0.6525782000000000  0.2502359800000000  0.3160280000000000   F   F   F
  0.4999568400000000  0.2502588000000000  0.3023279400000000   F   F   F
  0.8472985800000000  0.2502740400000000  0.3157858200000000   F   F   F
  0.9015605500000000  0.2501297200000000  0.4024333100000000   F   F   F
  0.7499853600000000  0.2502889800000000  0.3865185900000000   F   F   F
  0.5983560999999999  0.2504557800000000  0.4028519600000000   F   F   F
  0.6516667727478952  0.2532961506032596  0.4865112153347308   T   T   T
  0.4981639255558369  0.2518293088341084  0.4745325445057936   T   T   T
  0.8444934900714089  0.2495028253572401  0.4839981851478609   T   T   T
  0.8999933820099462  0.2486137787120262  0.5648881381070410   T   T   T
  0.7419013905907954  0.2486104347381148  0.5567530556687268   T   T   T
  0.5948644187771815  0.2493085618416653  0.5687523786979186   T   T   T
  0.9053578400000000  0.2503079400000000  0.2310952600000000   F   F   F
  0.7497538100000000  0.2502663300000000  0.2101988000000000   F   F   F
  0.5943694700000000  0.2502794100000000  0.2313673000000000   F   F   F
  0.6523787400000000  0.3752740900000000  0.3163131800000000   F   F   F
  0.4999686000000000  0.3752367600000000  0.3023192100000000   F   F   F
  0.8476478000000000  0.3752464600000000  0.3160705800000000   F   F   F
  0.9017661300000001  0.3754146500000000  0.4024862700000000   F   F   F
  0.7500843600000000  0.3753077800000000  0.3864185400000000   F   F   F
  0.5982365800000000  0.3752116300000000  0.4028819500000000   F   F   F
  0.6521479791447319  0.3744442002144945  0.4865623473847811   T   T   T
  0.4942552800240435  0.3794798177229223  0.4743825402998634   T   T   T
  0.8440379509283346  0.3738801955680742  0.4872400844060097   T   T   T
  0.8993173689215540  0.3762981608675958  0.5641818127637962   T   T   T
  0.7514431240182956  0.3689699846299198  0.5558793580710012   T   T   T
  0.6008678845236342  0.3787182169579484  0.5662613614565266   T   T   T
  0.9054613600000000  0.3752673700000000  0.2315721100000000   F   F   F
  0.7496032500000001  0.3752948300000000  0.1772164800000000   F   F   F
  0.5944235900000000  0.3752774400000000  0.2318166500000000   F   F   F
  0.6525025200000000  0.0002812477600000  0.3158913500000000   F   F   F
  0.4999124400000000  0.0002628689900000  0.3021972500000000   F   F   F
  0.8473295500000000  0.0003133500200000  0.3157981200000000   F   F   F
  0.9014701899999999  0.0001550482300000  0.4024427100000000   F   F   F
  0.7499292000000000  0.0002865928900000  0.3864059600000000   F   F   F
  0.5983637300000000  0.0004016650100000  0.4025825200000000   F   F   F
  0.6506720517557509  0.0048234252904368  0.4874081566577515   T   T   T
  0.4991355787854674  0.0013147508466720  0.4723588610448966   T   T   T
  0.8426105163156996  0.0011437910679896  0.4897274908485119   T   T   T
  0.8973455750093837  0.0054370741132602  0.5677069753920612   T   T   T
  0.7427763392398078  0.0024787153683245  0.5539880995556394   T   T   T
  0.6005326219888911  0.9999102606006027  0.5687659073525980   T   T   T
  0.9054075800000000  0.5002896200000000  0.2311816100000000   F   F   F
  0.7498043500000000  0.5002168200000000  0.2103794000000000   F   F   F
  0.5943454300000000  0.5001592900000000  0.2314556700000000   F   F   F
  0.6523345800000000  0.6252815600000000  0.3161842200000000   F   F   F
  0.4999490100000000  0.6252166600000000  0.3022134800000000   F   F   F
  0.8476156900000000  0.6252722600000000  0.3160605300000000   F   F   F
  0.9017020400000000  0.6255148800000000  0.4024955300000000   F   F   F
  0.7500097000000000  0.6253794700000000  0.3865048900000000   F   F   F
  0.5982869300000000  0.6252020600000000  0.4027458100000000   F   F   F
  0.6529395622789014  0.6242010554886023  0.4910863005872492   T   T   T
  0.5039834228025508  0.6259683790105829  0.4745658072285043   T   T   T
  0.8435952990164369  0.6276388593768732  0.4868657753771665   T   T   T
  0.9024725706035089  0.6281552306419412  0.5695545769746911   T   T   T
  0.7543604601645097  0.6269924355616316  0.5618067151018772   T   T   T
  0.6004445108171221  0.6251553906691842  0.5729993389642659   T   T   T
  0.9054294700000000  0.6252140100000000  0.2315780400000000   F   F   F
  0.7495952299999999  0.6251971100000000  0.1771185100000000   F   F   F
  0.5944188700000000  0.6251816100000001  0.2317104400000000   F   F   F
  0.6525176900000000  0.7502385600000000  0.3158765800000000   F   F   F
  0.4999195900000000  0.7502168100000000  0.3022334200000000   F   F   F
  0.8473114899999999  0.7503160300000000  0.3157703300000000   F   F   F
  0.9015392700000000  0.7502392100000000  0.4024497800000000   F   F   F
  0.7499436700000000  0.7503209000000000  0.3864219600000000   F   F   F
  0.5983761100000000  0.7504445300000000  0.4026104500000000   F   F   F
  0.6549515620259077  0.7533185356394383  0.4844189725385791   T   T   T
  0.4955423707390663  0.7504645793073456  0.4737034104833526   T   T   T
  0.8430590653391412  0.7476194677683224  0.4850915660625525   T   T   T
  0.8959786532931094  0.7519663357365437  0.5646957419454731   T   T   T
  0.7425227452417903  0.7443054900483640  0.5509017219790566   T   T   T
  0.5915867049272306  0.7516011991103946  0.5640786239488974   T   T   T
  0.9053162300000001  0.7502902900000000  0.2310826700000000   F   F   F
  0.7497227400000001  0.7502626000000000  0.2102137700000000   F   F   F
  0.5943591300000000  0.7501840100000000  0.2312631600000000   F   F   F
  0.6522939600000000  0.8753026699999999  0.3160637000000000   F   F   F