Cu	N	Ru	Ta                              
   1.00000000000000     
    18.1096308199999996    0.0000000000000000    0.0000000000000000
     0.0000000000000000   23.3551997799999995    0.0000000000000000
     0.0000000000000000    0.0000000000000000   30.4818171199999988
   Cu   N    Ru   Ta
     2   240    12   228
Selective dynamics
Direct
  0.5603877705639374  0.4374016133495399  0.6064803382092525   T   T   T
  0.5714664024684687  0.5571597972066055  0.6126304887443116   T   T   T
  0.0000000000000000  0.0002658024790421  0.3027806050297599   F   F   F
  0.0000000000000000  0.5002658024790421  0.3027806050297599   F   F   F
  0.0000000000000000  0.6252068313499990  0.3027729437410898   F   F   F
  0.0000000000000000  0.7502658026931286  0.3027806050297599   F   F   F
  0.0000000000000000  0.8752068315640855  0.3027729437410898   F   F   F
  0.0000000000000000  0.1252068313499990  0.3027729437410898   F   F   F
  0.0000000000000000  0.2502658026931286  0.3027806050297599   F   F   F
  0.0000000000000000  0.3752068315640855  0.3027729437410898   F   F   F
  0.0001232426269789  0.3753580831427336  0.4734631600782121   T   T   T
  0.0001904005950532  0.5024807297469992  0.4731792863403136   T   T   T
  0.5926580386383293  0.2496938894944910  0.5687697994298925   T   T   T
  0.5927283146780481  0.9997576954864968  0.5685629766485338   T   T   T
  0.5927739530360646  0.7500725182511009  0.5690927226346546   T   T   T
  0.5940493004484111  0.9998103570065027  0.2323399901691943   F   F   F
  0.5940493004484111  0.4998103570065027  0.2323399901691943   F   F   F
  0.5940493004484111  0.7498103572205892  0.2323399901691943   F   F   F
  0.5940493004484111  0.2498103572205892  0.2323399901691943   F   F   F
  0.5941034351798038  0.6248444726427422  0.2323487498175751   F   F   F
  0.5941034351798038  0.8748444728568288  0.2323487498175751   F   F   F
  0.5941034351798038  0.1248444726427422  0.2323487498175751   F   F   F
  0.5941034351798038  0.3748444728568288  0.2323487498175751   F   F   F
  0.5976699918393861  0.6216507157843009  0.5740445433553210   T   T   T
  0.5977316016650037  0.8714515718704030  0.5715895772862241   T   T   T
  0.5977587993812522  0.3717046019140653  0.5733494758862864   T   T   T
  0.5978816233628789  0.1212094628994434  0.5716715836888248   T   T   T
  0.5987659337466135  0.8741971672700302  0.4025489616542810   T   T   T
  0.5987588752173445  0.3742423739719452  0.4026478245647008   T   T   T
  0.5987988663546506  0.6241371458252661  0.4027054377122940   T   T   T
  0.5988113521330132  0.1241776406434435  0.4025360904831470   T   T   T
  0.5990340833075806  0.4991223346254184  0.4025267625232976   T   T   T
  0.5990978657071347  0.7490873911787521  0.4023712954125219   T   T   T
  0.5991258390845290  0.9990936437785145  0.4022953956506964   T   T   T
  0.5991657310324983  0.2490058765761266  0.4023214889648528   T   T   T
  0.5993789262925487  0.4988187342577037  0.5721172867804503   T   T   T
  0.6501387089670200  0.6232966382126396  0.4891005324680197   T   T   T
  0.6504971895108549  0.3723698403172898  0.4885502247102135   T   T   T
  0.6508376128726877  0.8730979121850898  0.4882795693505882   T   T   T
  0.6509193354433044  0.1229141140291861  0.4882527701529074   T   T   T
  0.6514827885755931  0.4988506539994059  0.4892069825612794   T   T   T
  0.6515220911072449  0.7491189731371998  0.4885890341102846   T   T   T
  0.6516109603645792  0.9990834378989465  0.4883494748539741   T   T   T
  0.6516051259795509  0.2490235654265251  0.4885307706892676   T   T   T
  0.6547396409045092  0.9997083480310920  0.3159103144045119   F   F   F
  0.6547396409045092  0.4997083480310920  0.3159103144045119   F   F   F
  0.6547396409045092  0.7497083482451785  0.3159103144045119   F   F   F
  0.6547396409045092  0.2497083482451785  0.3159103144045119   F   F   F
  0.6547625022209047  0.6246790182669955  0.3159667218028375   F   F   F
  0.6547625022209047  0.8746790184810820  0.3159667218028375   F   F   F
  0.6547625022209047  0.1246790182669955  0.3159667218028375   F   F   F
  0.6547625022209047  0.3746790184810820  0.3159667218028375   F   F   F
  0.7405599490070472  0.7416493666559593  0.5623900822164000   T   T   T
  0.7405741922698288  0.2422884531684028  0.5620427003540834   T   T   T
  0.7407911942278277  0.9918888178595080  0.5623506906550361   T   T   T
  0.7449123614637027  0.4927407980977287  0.5614111073862621   T   T   T
  0.7497181855858486  0.0000100119032282  0.1992701427899632   F   F   F
  0.7497181855858486  0.5000100119032282  0.1992701427899632   F   F   F
  0.7497181855858486  0.7500100121173077  0.1992701427899632   F   F   F
  0.7497181855858486  0.2500100121173077  0.1992701427899632   F   F   F
  0.7497340914871273  0.6250292589019324  0.1993221157413743   F   F   F
  0.7497340914871273  0.8750292591160189  0.1993221157413743   F   F   F
  0.7497340914871273  0.1250292589019324  0.1993221157413743   F   F   F
  0.7497340914871273  0.3750292591160189  0.1993221157413743   F   F   F
  0.7500122760320577  0.6249739963755755  0.3881796466573236   T   T   T
  0.7500359105428053  0.4997920139906210  0.3875472494328823   T   T   T
  0.7500871736405379  0.7498400058684652  0.3873781950887245   T   T   T
  0.7501132811386046  0.8749028900317319  0.3878975911315429   T   T   T
  0.7501259311829894  0.9998828648998003  0.3872465957820529   T   T   T
  0.7500914300909783  0.3749251751676260  0.3879984307307047   T   T   T
  0.7501308874139717  0.2498260920628498  0.3873046384114234   T   T   T
  0.7501572924661166  0.1249010462218551  0.3878637022106239   T   T   T
  0.7522603458080392  0.1224584905143924  0.5563532282131991   T   T   T
  0.7523826048186418  0.8721965552522911  0.5562288908492619   T   T   T
  0.7526879988015892  0.3727115980421226  0.5560797088388467   T   T   T
  0.7528043400627012  0.6223137257178680  0.5565942846343077   T   T   T
  0.8451499272473839  0.6251896283286698  0.3155471503596488   F   F   F
  0.8451499272473839  0.8751896285427563  0.3155471503596488   F   F   F
  0.8451499272473839  0.1251896283286698  0.3155471503596488   F   F   F
  0.8451499272473839  0.3751896285427563  0.3155471503596488   F   F   F
  0.8451807898312538  0.0001939208417241  0.3155011134060643   F   F   F
  0.8451807898312538  0.5001939208417241  0.3155011134060643   F   F   F
  0.8451807898312538  0.7501939210558106  0.3155011134060643   F   F   F
  0.8451807898312538  0.2501939210558106  0.3155011134060643   F   F   F
  0.8465783984103868  0.7485763148247481  0.4860653954695199   T   T   T
  0.8466243839497913  0.9986339054456980  0.4860035015238215   T   T   T
  0.8466982663858530  0.2486282157947984  0.4860810244754225   T   T   T
  0.8475031269642130  0.4984433349281664  0.4855275683758072   T   T   T
  0.8488562673792034  0.1292961985404245  0.4862663255007689   T   T   T
  0.8488901777230947  0.6290017262236377  0.4865195297344809   T   T   T
  0.8489307979701018  0.8793039744656036  0.4862944287492626   T   T   T
  0.8492057440458262  0.3791721444388631  0.4860668456071388   T   T   T
  0.9008857252568180  0.7508519074474572  0.4018522819202784   T   T   T
  0.9009098756027092  0.6257076380747044  0.4018833609550346   T   T   T
  0.9009197183140853  0.5008917890225031  0.4016356937663601   T   T   T
  0.9009363580495731  0.2508338345693914  0.4018234366464649   T   T   T
  0.9009422793253733  0.0008528070772995  0.4018437889844153   T   T   T
  0.9009465916009300  0.0090715394375897  0.5677336987970386   T   T   T
  0.9010424589774736  0.7592092500201059  0.5677597170653156   T   T   T
  0.9010672569052690  0.8757252156357088  0.4018966397760542   T   T   T
  0.9010842100297574  0.1257275159459651  0.4018811199550985   T   T   T
  0.9011347369882787  0.3755602818230749  0.4017110458675197   T   T   T
  0.9012559536401769  0.2586798971704883  0.5678575351999832   T   T   T
  0.9025696136012401  0.8851805176847679  0.5712161355349754   T   T   T
  0.9025540350245501  0.1349893105288425  0.5711011581411675   T   T   T
  0.9033954908969729  0.5089205946218043  0.5678446022026307   T   T   T
  0.9034301196372280  0.6355815091470759  0.5713574046243591   T   T   T
  0.9038048783846597  0.3845185662437559  0.5713323603792446   T   T   T
  0.9057164253114252  0.6251516265128672  0.2320045249323357   F   F   F
  0.9057164253114252  0.8751516267269537  0.2320045249323357   F   F   F
  0.9057164253114252  0.1251516265128672  0.2320045249323357   F   F   F
  0.9057164253114252  0.3751516267269537  0.2320045249323357   F   F   F
  0.9057548087553968  0.0001403618907503  0.2320193078436787   F   F   F
  0.9057548087553968  0.5001403618907503  0.2320193078436787   F   F   F
  0.9057548087553968  0.7501403621048368  0.2320193078436787   F   F   F
  0.9057548087553968  0.2501403621048368  0.2320193078436787   F   F   F
  0.0942451912446032  0.0001403618907503  0.2320193078436787   F   F   F
  0.0942451912446032  0.5001403618907503  0.2320193078436787   F   F   F
  0.0942451912446032  0.7501403621048368  0.2320193078436787   F   F   F
  0.0942451912446032  0.2501403621048368  0.2320193078436787   F   F   F
  0.0942835746885748  0.6251516265128672  0.2320045249323357   F   F   F
  0.0942835746885748  0.8751516267269537  0.2320045249323357   F   F   F
  0.0942835746885748  0.1251516265128672  0.2320045249323357   F   F   F
  0.0942835746885748  0.3751516267269537  0.2320045249323357   F   F   F
  0.0974575052492510  0.8848628326198764  0.5711103394018846   T   T   T
  0.0975044467241451  0.1347963056050938  0.5710837218632331   T   T   T
  0.0978166197349569  0.3844261008030176  0.5714006613829746   T   T   T
  0.0981778997047233  0.6344440682098631  0.5710217878214316   T   T   T
  0.0987574803020212  0.8757935122651107  0.4018751759595328   T   T   T
  0.0987900669317754  0.1257671354343892  0.4018589366174856   T   T   T
  0.0988328596311639  0.6258731118356559  0.4017609368982715   T   T   T
  0.0988649326688481  0.3756941179949287  0.4017697047976010   T   T   T
  0.0988638985528805  0.7508883782399859  0.4018351096034222   T   T   T
  0.0989130843322557  0.0008360359362374  0.4018361055066258   T   T   T
  0.0989704620511065  0.2507985285741409  0.4017994393517262   T   T   T
  0.0990451755232210  0.5008810287757349  0.4016861904777455   T   T   T
  0.0991422312014178  0.7589091189241981  0.5678237067615801   T   T   T
  0.0991518139098023  0.0089435602214392  0.5677462069389538   T   T   T
  0.0992814940695004  0.2588088207090663  0.5677980996739503   T   T   T
  0.9998604347388375  0.7523505815536863  0.4735562115402023   T   T   T
  0.9999036722753160  0.8754036271469084  0.4737426702622557   T   T   T
  0.9999297746074465  0.0023616469307730  0.4736249882558959   T   T   T
  0.9999467908521684  0.1253893043386355  0.4737045563255749   T   T   T
  0.9999780143016391  0.6253933844795888  0.4736575703610968   T   T   T
  0.9999949980103883  0.2522389808984684  0.4735788317341490   T   T   T
  0.1002439091672530  0.5088252260515592  0.5680005796731498   T   T   T
  0.1509492417203208  0.3791853039177523  0.4861185745758598   T   T   T
  0.1509628459549064  0.8792577014224727  0.4862237627338334   T   T   T
  0.1510003783105527  0.1292449546031046  0.4861857512708321   T   T   T
  0.1510995135996324  0.6291987332758306  0.4861071595342104   T   T   T
  0.1530223469855836  0.4989197849779057  0.4858892687152401   T   T   T
  0.1531140237768611  0.7486939567859791  0.4860097158753369   T   T   T
  0.1532086837215280  0.2486998664845786  0.4860221439777822   T   T   T
  0.1532504483010126  0.9986628918835713  0.4860123003081243   T   T   T
  0.1548192101687462  0.0001939208417241  0.3155011134060643   F   F   F
  0.1548192101687462  0.5001939208417241  0.3155011134060643   F   F   F
  0.1548192101687462  0.7501939210558106  0.3155011134060643   F   F   F
  0.1548192101687462  0.2501939210558106  0.3155011134060643   F   F   F
  0.1548500727526161  0.6251896283286698  0.3155471503596488   F   F   F
  0.1548500727526161  0.8751896285427563  0.3155471503596488   F   F   F
  0.1548500727526161  0.1251896283286698  0.3155471503596488   F   F   F
  0.1548500727526161  0.3751896285427563  0.3155471503596488   F   F   F
  0.2473663576543584  0.3722526491735705  0.5561169506896366   T   T   T
  0.2475114558666051  0.6224090153518018  0.5562172514088266   T   T   T
  0.2474572960559938  0.1221995271007262  0.5562385527685728   T   T   T
  0.2474698162091077  0.8721594957773023  0.5562280813959812   T   T   T
  0.2497302991692419  0.4999283388534629  0.3872451992595876   T   T   T
  0.2497310811776468  0.3748649828347484  0.3877850411910261   T   T   T
  0.2497360299316906  0.2498543858517776  0.3872150074822289   T   T   T
  0.2497247365032944  0.7499683372352018  0.3871981403286873   T   T   T
  0.2497455062109075  0.6249995398651098  0.3877893934532071   T   T   T
  0.2497429738883098  0.1248820442989366  0.3878161681863511   T   T   T
  0.2497436705083819  0.8749365920939860  0.3878361211129372   T   T   T
  0.2497583874428734  0.9999263890613754  0.3872257260324197   T   T   T
  0.2502659079606815  0.6250292589019324  0.1993221157413743   F   F   F
  0.2502659079606815  0.8750292591160189  0.1993221157413743   F   F   F
  0.2502659079606815  0.1250292589019324  0.1993221157413743   F   F   F
  0.2502659079606815  0.3750292591160189  0.1993221157413743   F   F   F
  0.2502818138619602  0.0000100119032282  0.1992701427899632   F   F   F
  0.2502818138619602  0.5000100119032282  0.1992701427899632   F   F   F
  0.2502818138619602  0.7500100121173077  0.1992701427899632   F   F   F
  0.2502818138619602  0.2500100121173077  0.1992701427899632   F   F   F
  0.2578946614904299  0.4925103597218169  0.5617756361925437   T   T   T
  0.2590790837164691  0.7420169560578095  0.5621740285393008   T   T   T
  0.2591050059416607  0.2418856444155324  0.5622801131927695   T   T   T
  0.2591132207298407  0.9918640730091204  0.5622945950321497   T   T   T
  0.3452374977790953  0.6246790182669955  0.3159667218028375   F   F   F
  0.3452374977790953  0.8746790184810820  0.3159667218028375   F   F   F
  0.3452374977790953  0.1246790182669955  0.3159667218028375   F   F   F
  0.3452374977790953  0.3746790184810820  0.3159667218028375   F   F   F
  0.3452603590954908  0.9997083480310920  0.3159103144045119   F   F   F
  0.3452603590954908  0.4997083480310920  0.3159103144045119   F   F   F
  0.3452603590954908  0.7497083482451785  0.3159103144045119   F   F   F
  0.3452603590954908  0.2497083482451785  0.3159103144045119   F   F   F
  0.3481494189345514  0.7491742864464489  0.4882251380333552   T   T   T
  0.3482182002399623  0.2491255241055461  0.4882859574516595   T   T   T
  0.3482244771881657  0.4991483232913193  0.4882005002897303   T   T   T
  0.3482816185368717  0.9990885750449283  0.4883089890364651   T   T   T
  0.3489191998832903  0.3729118632133315  0.4879820407850087   T   T   T
  0.3489591654172076  0.1229907473971622  0.4881696525753651   T   T   T
  0.3490079344241449  0.8730874961146721  0.4881721517138349   T   T   T
  0.3490644054310757  0.6231752770213396  0.4879268159593153   T   T   T
  0.4007439865329143  0.4991565066064136  0.4022162394156346   T   T   T
  0.4007140957485210  0.2490215183745017  0.4022076928917900   T   T   T
  0.4007452400770536  0.9991011451836698  0.4022632119851291   T   T   T
  0.4007670606767434  0.7491836971901301  0.4021704908047718   T   T   T
  0.4010169173279520  0.6241503637963735  0.4022976525502960   T   T   T
  0.4010311967388364  0.3742076039366020  0.4023918008033615   T   T   T
  0.4010837609588683  0.1241779931816165  0.4024839920008479   T   T   T
  0.4011073273898537  0.8742424501797563  0.4024702583485501   T   T   T
  0.4018406412101159  0.1213320912526879  0.5715512652124221   T   T   T
  0.4017065070290421  0.3716038612853035  0.5713666494546061   T   T   T
  0.4020629895882807  0.8712851085770070  0.5714999715103393   T   T   T
  0.4023064805602651  0.6213222136418616  0.5712402501690934   T   T   T
  0.4041830242919001  0.4992463425618503  0.5691013924422289   T   T   T
  0.4058965648201962  0.6248444726427422  0.2323487498175751   F   F   F
  0.4058965648201962  0.8748444728568288  0.2323487498175751   F   F   F
  0.4058965648201962  0.1248444726427422  0.2323487498175751   F   F   F
  0.4058965648201962  0.3748444728568288  0.2323487498175751   F   F   F
  0.4059506995515889  0.9998103570065027  0.2323399901691943   F   F   F
  0.4059506995515889  0.4998103570065027  0.2323399901691943   F   F   F
  0.4059506995515889  0.7498103572205892  0.2323399901691943   F   F   F
  0.4059506995515889  0.2498103572205892  0.2323399901691943   F   F   F
  0.4069585334909481  0.7496175524215901  0.5685420934500924   T   T   T
  0.4070637868684632  0.2498967524264649  0.5683704876598848   T   T   T
  0.4071346316768374  0.9997066469137520  0.5684695446957944   T   T   T
  0.4996061153330059  0.3729341338582537  0.4748971185992487   T   T   T
  0.4996359973703112  0.6233661475532428  0.4747531728212593   T   T   T
  0.4998216258440203  0.7491718855030223  0.4725814258798141   T   T   T
  0.4998619715196452  0.4992795398675276  0.4734611319230527   T   T   T
  0.4998899641094514  0.1230552962660478  0.4754800522054690   T   T   T
  0.4999034379906823  0.8730354880344779  0.4755301743607978   T   T   T
  0.4999040566771457  0.2490586996596492  0.4727544565833341   T   T   T
  0.4999259160641239  0.9991842087898763  0.4726996291887747   T   T   T
  0.5000000000000000  0.9996370422826644  0.3031199056678844   F   F   F
  0.5000000000000000  0.4996370422826644  0.3031199056678844   F   F   F
  0.5000000000000000  0.6247350156471256  0.3031143997625279   F   F   F
  0.5000000000000000  0.7496370424967509  0.3031199056678844   F   F   F
  0.5000000000000000  0.8747350158612122  0.3031143997625279   F   F   F
  0.5000000000000000  0.1247350156471256  0.3031143997625279   F   F   F
  0.5000000000000000  0.2496370424967509  0.3031199056678844   F   F   F
  0.5000000000000000  0.3747350158612122  0.3031143997625279   F   F   F
  0.8470605934722141  0.0697655727862510  0.5368080564543106   T   T   T
  0.8472937565261160  0.8199823435069395  0.5369162398556822   T   T   T
  0.8484973694101980  0.3197840968087168  0.5369038505384793   T   T   T
  0.8495712808441170  0.5698157572585860  0.5376161691540755   T   T   T
  0.1530783351844001  0.8197185602576079  0.5367409691890790   T   T   T
  0.1531585784046806  0.0696438673889281  0.5366249421848684   T   T   T
  0.1532110901751788  0.3195701411629074  0.5366429734791989   T   T   T
  0.1547680271017036  0.5694027065265939  0.5364280631393632   T   T   T
  0.4980309778677676  0.5062253625658871  0.5397291578173850   T   T   T
  0.4997477367508894  0.7556043360188197  0.5388896692604844   T   T   T
  0.4999246920214301  0.2567613989958567  0.5390088223941504   T   T   T
  0.4999356532457045  0.0064451985769943  0.5389611137658161   T   T   T
  0.0000000000000000  0.0000718854908470  0.1971343718238288   F   F   F
  0.0000000000000000  0.5000718854908470  0.1971343718238288   F   F   F
  0.0000000000000000  0.6251997477026094  0.1971274191543344   F   F   F
  0.0000000000000000  0.7500718857049335  0.1971343718238288   F   F   F
  0.0000000000000000  0.8751997479166960  0.1971274191543344   F   F   F
  0.0000000000000000  0.1251997477026094  0.1971274191543344   F   F   F
  0.0000000000000000  0.2500718857049335  0.1971343718238288   F   F   F
  0.0000000000000000  0.3751997479166960  0.1971274191543344   F   F   F
  0.0000059972810132  0.3756113046579874  0.3693022870089986   T   T   T
  0.0000112191518791  0.5007238926134676  0.3693345275429445   T   T   T
  0.0000080530510850  0.8785212374335312  0.5422096913723924   T   T   T
  0.0000908703160579  0.1285268088155917  0.5421391699432169   T   T   T
  0.0001576125255259  0.7509694884987641  0.5415046906389479   T   T   T
  0.0000817387757790  0.0010683924044241  0.5415252591241212   T   T   T
  0.0003034751476081  0.2509836659533382  0.5415329877818131   T   T   T
  0.0008103579876613  0.6287764660924721  0.5421505539888009   T   T   T
  0.0009001695735529  0.3787521502517106  0.5419085353271638   T   T   T
  0.0019571209673224  0.5012105950905615  0.5410201719383916   T   T   T
  0.5826617485954912  0.5622475047824267  0.2840383746124928   F   F   F
  0.5826617485954912  0.0622475047824267  0.2840383746124928   F   F   F
  0.5826617485954912  0.8122475045683402  0.2840383746124928   F   F   F
  0.5826617485954912  0.3122475045683402  0.2840383746124928   F   F   F
  0.5827027102256537  0.4372504995116770  0.2840867749422387   F   F   F
  0.5827027102256537  0.6872504992975905  0.2840867749422387   F   F   F
  0.5827027102256537  0.9372504995116770  0.2840867749422387   F   F   F
  0.5827027102256537  0.1872504992975905  0.2840867749422387   F   F   F
  0.5833147440575052  0.4361926148397932  0.4545248139542540   T   T   T
  0.5835821117725521  0.6862209067345223  0.4542998364675609   T   T   T
  0.5838121649481658  0.9361693808343633  0.4541500758120214   T   T   T
  0.5838388877374111  0.5610786474048851  0.4547066150345535   T   T   T
  0.5837967193850980  0.1861086166582809  0.4541929137505394   T   T   T
  0.5839783345880094  0.3110311425662287  0.4542945156405240   T   T   T
  0.5840261235255110  0.0611689071583611  0.4543186203087535   T   T   T
  0.5840726892739280  0.8112473421628378  0.4543706349211938   T   T   T
  0.6600487569379214  0.1845537433109666  0.5423004612132772   T   T   T
  0.6601021078297870  0.6865928797972732  0.5432184154989885   T   T   T
  0.6601321938909838  0.9353910984179318  0.5423125932326930   T   T   T
  0.6656630292367254  0.4374555758991647  0.2027209846340057   F   F   F
  0.6656630292367254  0.6874555756850853  0.2027209846340057   F   F   F
  0.6656630292367254  0.9374555758991647  0.2027209846340057   F   F   F
  0.6656630292367254  0.1874555756850853  0.2027209846340057   F   F   F
  0.6657072857987743  0.5624132520265661  0.2026937805471647   F   F   F
  0.6657072857987743  0.0624132520265661  0.2026937805471647   F   F   F
  0.6657072857987743  0.8124132518124867  0.2026937805471647   F   F   F
  0.6657072857987743  0.3124132518124867  0.2026937805471647   F   F   F
  0.6665750877915864  0.4342254510397008  0.5410979459000775   T   T   T
  0.6675509537750286  0.4369994640264959  0.3686842287468727   T   T   T
  0.6676343319770339  0.6869479285933422  0.3685502646188252   T   T   T
  0.6676374757949993  0.9369648926207241  0.3684916307035660   T   T   T
  0.6676452841440037  0.8121235000939405  0.3685694863953372   T   T   T
  0.6676861172958334  0.1869644947164414  0.3684682744932137   T   T   T
  0.6676703431095329  0.3121341063714496  0.3686007810684156   T   T   T
  0.6676940943392170  0.0621384299648127  0.3685311453209876   T   T   T
  0.6677053438438620  0.5621610159502011  0.3686802705814746   T   T   T
  0.6685077378421563  0.8100315142305774  0.5437437641674604   T   T   T
  0.6687094930854443  0.0591883355619612  0.5438224741119932   T   T   T
  0.6689691214371694  0.3078987757340866  0.5443363323914175   T   T   T
  0.6740355180422315  0.5602709142129024  0.5429316884135091   T   T   T
  0.7489432525299549  0.6261835290228093  0.4562860369352043   T   T   T
  0.7492157066255203  0.7483116485125637  0.4551485769302193   T   T   T
  0.7492400230366020  0.4984382063076707  0.4553259324177003   T   T   T
  0.7492776468280578  0.9982609262613720  0.4550092244211495   T   T   T
  0.7493317097966207  0.2483091213962993  0.4550860252080536   T   T   T
  0.7492902369876836  0.3758852970352070  0.4560014657997070   T   T   T
  0.7494140417775396  0.1262904718277719  0.4558952190681441   T   T   T
  0.7494082786480430  0.8763360164223926  0.4559637038814479   T   T   T
  0.7497932119634427  0.6250918038603928  0.2779408447549940   F   F   F
  0.7497932119634427  0.8750918040744793  0.2779408447549940   F   F   F
  0.7497932119634427  0.1250918038603928  0.2779408447549940   F   F   F
  0.7497932119634427  0.3750918040744793  0.2779408447549940   F   F   F
  0.7498000177344295  0.9998887643854673  0.2779024730268418   F   F   F
  0.7498000177344295  0.4998887643854673  0.2779024730268418   F   F   F
  0.7498000177344295  0.7498887645995538  0.2779024730268418   F   F   F
  0.7498000177344295  0.2498887645995538  0.2779024730268418   F   F   F
  0.0821094172940929  0.6887988786258665  0.4536060338643884   T   T   T
  0.0822123753724341  0.9387786454159557  0.4536117364824100   T   T   T
  0.0822301374168431  0.1887958133233017  0.4535920367327743   T   T   T
  0.0822544024902298  0.4388002174950730  0.4534993470664418   T   T   T
  0.0825727650034978  0.4376830284600572  0.2837096284632494   F   F   F
  0.0825727650034978  0.6876830282459707  0.2837096284632494   F   F   F
  0.0825727650034978  0.9376830284600572  0.2837096284632494   F   F   F
  0.0825727650034978  0.1876830282459707  0.2837096284632494   F   F   F
  0.0826029583302130  0.5626929404925889  0.2836274496354534   F   F   F
  0.0826029583302130  0.0626929404925889  0.2836274496354534   F   F   F
  0.0826029583302130  0.8126929402785024  0.2836274496354534   F   F   F
  0.0826029583302130  0.3126929402785024  0.2836274496354534   F   F   F
  0.8293612007133282  0.9417217988262340  0.5429250216328361   T   T   T
  0.8296990038941930  0.1915651594525102  0.5428350448896648   T   T   T
  0.8299567411860912  0.6916525006635499  0.5427142395160980   T   T   T
  0.8320522000067950  0.5627993923013188  0.3679898763615893   T   T   T
  0.8320584057378565  0.6877329564920460  0.3678047951497256   T   T   T
  0.8320773729233630  0.4377332789134101  0.3677416295382485   T   T   T
  0.8321029522059951  0.9377429891042899  0.3677842004229000   T   T   T
  0.8321200304945995  0.1877316113844177  0.3677697545520945   T   T   T
  0.8322843674549242  0.8127806787971784  0.3680466092048589   T   T   T
  0.8322681292770360  0.3127607085089337  0.3679985256039010   T   T   T
  0.8323298280967928  0.0627829989605501  0.3680155119750838   T   T   T
  0.8329773393992913  0.4418303647915168  0.5423296108287621   T   T   T
  0.8336793151700448  0.5625684457322180  0.2026879705260853   F   F   F
  0.8336793151700448  0.0625684457322180  0.2026879705260853   F   F   F
  0.8336793151700448  0.8125684455181315  0.2026879705260853   F   F   F
  0.8336793151700448  0.3125684455181315  0.2026879705260853   F   F   F
  0.8337395527315365  0.4376312579759087  0.2027221981443361   F   F   F
  0.8337395527315365  0.6876312577618222  0.2027221981443361   F   F   F
  0.8337395527315365  0.9376312579759087  0.2027221981443361   F   F   F
  0.8337395527315365  0.1876312577618222  0.2027221981443361   F   F   F
  0.0850527274944708  0.8136972780760025  0.4542964374208891   T   T   T
  0.0850761099017826  0.5637707807231683  0.4539835968775238   T   T   T
  0.0850966161655513  0.3136515199742915  0.4541837745586157   T   T   T
  0.0851377147418922  0.0636765516204847  0.4542744204237321   T   T   T
  0.9147198229146790  0.8136486569613240  0.4543504526918081   T   T   T
  0.9147499261393850  0.5636122969879437  0.4542827506150734   T   T   T
  0.9147383371429954  0.0636775287116257  0.4543293900958749   T   T   T
  0.9148841474026665  0.3136135329696723  0.4542597072348711   T   T   T
  0.9173970416697870  0.5626929404925889  0.2836274496354534   F   F   F
  0.9173970416697870  0.0626929404925889  0.2836274496354534   F   F   F
  0.9173970416697870  0.8126929402785024  0.2836274496354534   F   F   F
  0.9173970416697870  0.3126929402785024  0.2836274496354534   F   F   F
  0.9174272349965022  0.4376830284600572  0.2837096284632494   F   F   F
  0.9174272349965022  0.6876830282459707  0.2837096284632494   F   F   F
  0.9174272349965022  0.9376830284600572  0.2837096284632494   F   F   F
  0.9174272349965022  0.1876830282459707  0.2837096284632494   F   F   F
  0.9174655292616848  0.6886714606477932  0.4535781493878378   T   T   T
  0.9175964835640075  0.9387833818397934  0.4535858184180160   T   T   T
  0.9176131037018751  0.1887867345202143  0.4535705818360175   T   T   T
  0.9177292632071886  0.4386942843831101  0.4532544828935903   T   T   T
  0.9998704445450538  0.7506667087128992  0.3694020848892068   T   T   T
  0.9998550686738842  0.6256052257355124  0.3693499458633877   T   T   T
  0.9999143380454567  0.8756369500557445  0.3693419510866824   T   T   T
  0.9999253999322781  0.1255926168305263  0.3693405076425983   T   T   T
  0.9999395427039102  0.0006691899500014  0.3693845544330099   T   T   T
  0.9999664303028056  0.2506264176823812  0.3693725241607809   T   T   T
  0.1662604174500757  0.4376312579759087  0.2027221981443361   F   F   F
  0.1662604174500757  0.6876312577618222  0.2027221981443361   F   F   F
  0.1662604174500757  0.9376312579759087  0.2027221981443361   F   F   F
  0.1662604174500757  0.1876312577618222  0.2027221981443361   F   F   F
  0.1663206550115603  0.5625684457322180  0.2026879705260853   F   F   F
  0.1663206550115603  0.0625684457322180  0.2026879705260853   F   F   F
  0.1663206550115603  0.8125684455181315  0.2026879705260853   F   F   F
  0.1663206550115603  0.3125684455181315  0.2026879705260853   F   F   F
  0.1675039575101953  0.8128409251016545  0.3680259636029089   T   T   T
  0.1675222920999957  0.0627987260460752  0.3680191856277409   T   T   T
  0.1676005554320378  0.3127627310164003  0.3679355236089245   T   T   T
  0.1676621805208503  0.5628555766100632  0.3678783919716457   T   T   T
  0.1678105565676073  0.6878241483586063  0.3677687731589304   T   T   T
  0.1678144693160112  0.1877407800264781  0.3677530097429117   T   T   T
  0.1678067832908988  0.9377735046968068  0.3677798633348270   T   T   T
  0.1678670757175014  0.4377651507601880  0.3677355562791321   T   T   T
  0.1700201013443242  0.4415295958079116  0.5428653020037314   T   T   T
  0.1704514129053225  0.1915999439493354  0.5429021072729941   T   T   T
  0.1705443177626542  0.9416481010876591  0.5429158404237187   T   T   T
  0.1705904490011284  0.6916396587016266  0.5428677586867259   T   T   T