Ta  N Ru Cu                             
   1.00000000000000     
     9.0548154099999998    0.0000000000000000    0.0000000000000000
     0.0000000000000000   11.6775998899999998    0.0000000000000000
     0.0000000000000000    0.0000000000000000   26.4818170799999990
   Ta   N    Ru   Cu
    60    60    32     2
Selective dynamics
Direct
  0.0000000000000000  0.0000000000000000  0.2258397498815228   F   F   F
  0.6670845899906297  0.1250000003211298  0.2339882671631202   F   F   F
  0.3329153514769843  0.1250000003211298  0.2339882671631202   F   F   F
  0.4999999994478088  0.2499999997859135  0.3208898207564346   F   F   F
  0.1650707596845180  0.1250000003211298  0.3267034403329916   F   F   F
  0.8349292403154820  0.1250000003211298  0.3267034403329916   F   F   F
  0.0005507956158905  0.2498815125783850  0.4255023141740057   T   T   T
  0.6646217268111679  0.1249976938470102  0.4240035103326536   T   T   T
  0.3348799718067106  0.1249357896655705  0.4239526349400486   T   T   T
  0.4973689519778904  0.2498031773601491  0.5232661433961814   T   T   T
  0.1667747930499238  0.1248304612893436  0.5234988796667391   T   T   T
  0.8333515660642117  0.1248962282295836  0.5229515054126871   T   T   T
  0.0027747607907434  0.2498849118520182  0.6224238886066836   T   T   T
  0.6633465461260745  0.1251161710178471  0.6211072997922377   T   T   T
  0.3276986046761903  0.1249254867905969  0.6246175195292042   T   T   T
  0.0000000000000000  0.2499999997859135  0.2258397498815228   F   F   F
  0.6670845899906297  0.3750000001070433  0.2339882671631202   F   F   F
  0.3329153514769843  0.3750000001070433  0.2339882671631202   F   F   F
  0.4999999994478088  0.5000000004281731  0.3208898207564346   F   F   F
  0.1650707596845180  0.3750000001070433  0.3267034403329916   F   F   F
  0.8349292403154820  0.3750000001070433  0.3267034403329916   F   F   F
  0.0004883169228361  0.4999727983348962  0.4254815378110400   T   T   T
  0.6647803707102919  0.3749634526303843  0.4240042898064902   T   T   T
  0.3349755171938033  0.3749614791224469  0.4239294756320884   T   T   T
  0.4972591001810475  0.4999262753962482  0.5232021258102265   T   T   T
  0.1662799746319845  0.3748911732401581  0.5233864271474749   T   T   T
  0.8334063571316267  0.3750005227866339  0.5228067473836556   T   T   T
  0.9964711627763987  0.4993263682468461  0.6238687546688677   T   T   T
  0.6641611866170979  0.3751481332013062  0.6200401881775479   T   T   T
  0.3286302533165787  0.3743396440587927  0.6231705114520469   T   T   T
  0.0000000000000000  0.5000000004281731  0.2258397498815228   F   F   F
  0.6670845899906297  0.6249999998929567  0.2339882671631202   F   F   F
  0.3329153514769843  0.6249999998929567  0.2339882671631202   F   F   F
  0.4999999994478088  0.7500000002140865  0.3208898207564346   F   F   F
  0.1650707596845180  0.6249999998929567  0.3267034403329916   F   F   F
  0.8349292403154820  0.6249999998929567  0.3267034403329916   F   F   F
  0.0005696850210218  0.7499588484141818  0.4254743809223148   T   T   T
  0.6647075376989896  0.6249738416987159  0.4239640120022339   T   T   T
  0.3347934431036730  0.6249385197155455  0.4239382518387035   T   T   T
  0.4973574140568618  0.7499635149249961  0.5230785445106112   T   T   T
  0.1664881835075369  0.6248445343672291  0.5233938855152108   T   T   T
  0.8333917329156830  0.6249069548044159  0.5228029173902474   T   T   T
  0.0023874752991585  0.7500334534538051  0.6222522968835168   T   T   T
  0.6630684826322047  0.6250526616961323  0.6204276785374986   T   T   T
  0.3273845603298113  0.6248330306954690  0.6241603421830587   T   T   T
  0.0000000000000000  0.7500000002140865  0.2258397498815228   F   F   F
  0.6670845899906297  0.8750000005352163  0.2339882671631202   F   F   F
  0.3329153514769843  0.8750000005352163  0.2339882671631202   F   F   F
  0.4999999994478088  0.0000000000000000  0.3208898207564346   F   F   F
  0.1650707596845180  0.8750000005352163  0.3267034403329916   F   F   F
  0.8349292403154820  0.8750000005352163  0.3267034403329916   F   F   F
  0.0005138531513404  0.0000337581786070  0.4255018034267434   T   T   T
  0.6648231115715232  0.8750091427529672  0.4239808070642500   T   T   T
  0.3349930272708549  0.8749859840468688  0.4238982239922221   T   T   T
  0.4975728068885771 -0.0000068094410573  0.5232729172794475   T   T   T
  0.1663927788179791  0.8749545170664220  0.5233548113921260   T   T   T
  0.8333563334853770  0.8750693060882081  0.5228243801583061   T   T   T
  0.9973595283481849 -0.0003484570221772  0.6235915349603449   T   T   T
  0.6646737659499742  0.8750859658084102  0.6202153622657228   T   T   T
  0.3294628952011749  0.8747108236771508  0.6230891343837216   T   T   T
  0.8141011533980276  0.0000000000000000  0.2671765160246267   F   F   F
  0.4999999994478088  0.0000000000000000  0.2273691263583544   F   F   F
  0.1858988466019724  0.0000000000000000  0.2671765160246267   F   F   F
  0.3088456122590841  0.2499999997859135  0.3635413069267344   F   F   F
  0.0000000000000000  0.2499999997859135  0.3485649890092901   F   F   F
  0.6911543877409159  0.2499999997859135  0.3635413069267344   F   F   F
  0.8022668412424270  0.2498371634152873  0.4627396653619801   T   T   T
  0.4995958247518553  0.2499761453807222  0.4456879637724595   T   T   T
  0.1983540031154774  0.2499527375356942  0.4632576518271450   T   T   T
  0.3016621010087773  0.2493093774421719  0.5628635535611679   T   T   T
 -0.0000057238519357  0.2499084909058231  0.5439782964460278   T   T   T
  0.6950357787095331  0.2494482672422639  0.5603961705770141   T   T   T
  0.8037316327124155  0.2514276967596448  0.6555226911335527   T   T   T
  0.5014400108220951  0.2502512513814402  0.6432497332337297   T   T   T
  0.1972394667623252  0.2505345621770880  0.6601388892930641   T   T   T
  0.8141011533980276  0.2499999997859135  0.2671765160246267   F   F   F
  0.4999999994478088  0.2499999997859135  0.2273691263583544   F   F   F
  0.1858988466019724  0.2499999997859135  0.2671765160246267   F   F   F
  0.3088456122590841  0.5000000004281731  0.3635413069267344   F   F   F
  0.0000000000000000  0.5000000004281731  0.3485649890092901   F   F   F
  0.6911543877409159  0.5000000004281731  0.3635413069267344   F   F   F
  0.8023437715525070  0.4999649781603127  0.4627039854666999   T   T   T
  0.4996039582410534  0.4999172408373733  0.4456803901927759   T   T   T
  0.1980893087711756  0.4998375442933521  0.4632148337141363   T   T   T
  0.3010731655975916  0.5000054848578345  0.5623038965984084   T   T   T
  0.9993641368506758  0.4999070262573280  0.5447475189811020   T   T   T
  0.6954647006506967  0.5001986887101340  0.5603763948247942   T   T   T
  0.7958624455932221  0.5003430715394781  0.6593599678503779   T   T   T
  0.4988695803684112  0.4994474128617781  0.6394861134475336   T   T   T
  0.1962115239842097  0.4986042764831343  0.6588031953108878   T   T   T
  0.8141011533980276  0.5000000004281731  0.2671765160246267   F   F   F
  0.4999999994478088  0.5000000004281731  0.2273691263583544   F   F   F
  0.1858988466019724  0.5000000004281731  0.2671765160246267   F   F   F
  0.3088456122590841  0.7500000002140865  0.3635413069267344   F   F   F
  0.0000000000000000  0.7500000002140865  0.3485649890092901   F   F   F
  0.6911543877409159  0.7500000002140865  0.3635413069267344   F   F   F
  0.8022473076917505  0.7499502472090793  0.4626633360228618   T   T   T
  0.4995926738958361  0.7499847932509269  0.4455816127707083   T   T   T
  0.1983591893968239  0.7499825959194207  0.4631957654844051   T   T   T
  0.3016947254050482  0.7495560255070171  0.5626831869407510   T   T   T
 -0.0000842075656460  0.7498864431032207  0.5438291255402334   T   T   T
  0.6951078387314260  0.7498469565474090  0.5600740377662147   T   T   T
  0.8026818373607454  0.7494823519803502  0.6549620321331876   T   T   T
  0.5013330462386006  0.7502609618720917  0.6427679945029171   T   T   T
  0.1975559274034647  0.7508228797858071  0.6596816262399151   T   T   T
  0.8141011533980276  0.7500000002140865  0.2671765160246267   F   F   F
  0.4999999994478088  0.7500000002140865  0.2273691263583544   F   F   F
  0.1858988466019724  0.7500000002140865  0.2671765160246267   F   F   F
  0.3088456122590841  0.0000000000000000  0.3635413069267344   F   F   F
  0.0000000000000000  0.0000000000000000  0.3485649890092901   F   F   F
  0.6911543877409159  0.0000000000000000  0.3635413069267344   F   F   F
  0.8023210329091187  0.0000802085678442  0.4627562405852210   T   T   T
  0.4996202945018773 -0.0000513646681217  0.4456917268440083   T   T   T
  0.1981898548177471 -0.0000600661428228  0.4632167022924026   T   T   T
  0.3016804236053219  0.0001216456398281  0.5624221609413658   T   T   T
 -0.0004243896903374 -0.0000204963685315  0.5445937265876557   T   T   T
  0.6954260725889885  0.0005074508423437  0.5606399551502750   T   T   T
  0.7978162156024523  0.0006126964752696  0.6594294165653248   T   T   T
  0.4997175088402633 -0.0004619395712393  0.6405349363864807   T   T   T
  0.1967696840100193  0.9986169791023574  0.6585082098824018   T   T   T
  0.1040635779761680  0.0096026402206436  0.7304549504270004   T   T   T
  0.5743113579289373  0.9903923042177059  0.7140982558656025   T   T   T
  0.8558092413563229  0.1341316004867130  0.7132293689937211   T   T   T
  0.1002216137361876  0.5093191171989429  0.7306719110986150   T   T   T
  0.5737148070925784  0.4953456353405322  0.7125205459541132   T   T   T
  0.8547851361472177  0.6347482024499803  0.7136928678703202   T   T   T
  0.1121510395498940  0.2402745588064574  0.7334148261947998   T   T   T
  0.5557286443897775  0.2593522471044384  0.7206722056670459   T   T   T
  0.8533628241017794  0.3645797039993356  0.7138954903954120   T   T   T
  0.1114206163144238  0.7421024695035677  0.7323855231677628   T   T   T
  0.5580865390819946  0.7597250818439890  0.7199341233691929   T   T   T
  0.8553073385768318  0.8657076435430551  0.7125812266501894   T   T   T
  0.3359711171219716  0.8875961081002132  0.7389324980573821   T   T   T
  0.3532301292814672  0.6138425499673783  0.7436433364422499   T   T   T
  0.3339300684250199  0.3915596670481384  0.7378075458755635   T   T   T
  0.3561979496748827  0.1109634657828891  0.7459352858736944   T   T   T
  0.1462991586294893  0.8788769779891747  0.8060702139007829   T   T   T
  0.6616690453894368  0.8859788621344831  0.7949334794809069   T   T   T
  0.8983597844804931  0.0070069384021522  0.7927935357791667   T   T   T
  0.1472980204661287  0.3805227511596672  0.8062789682851421   T   T   T
  0.6632179434763147  0.3927389114668010  0.7924194361130358   T   T   T
  0.8974851062810622  0.5174512763605805  0.7957606697133386   T   T   T
  0.1495690981511725  0.1169479764171398  0.8115987008340940   T   T   T
  0.6413817978567566  0.1128944123543826  0.7919436447700972   T   T   T
  0.8946302404953006  0.2410505540857036  0.7961510188764956   T   T   T
  0.1511878235812357  0.6199756966913341  0.8102010591579411   T   T   T
  0.6443214878504314  0.6145339008802920  0.7899846454218804   T   T   T
  0.8951362070528943  0.7427181678047812  0.7949372833449334   T   T   T
  0.4239820200299840  0.7605094983452356  0.8092607254020103   T   T   T
  0.4013501788766139  0.4849465644991341  0.8191951433213515   T   T   T
  0.4184653447952961  0.2664446491427062  0.8085867017651517   T   T   T
  0.4039486611855740  0.9746151557949525  0.8210420369740996   T   T   T
  0.6465119551688576  0.2614026019126282  0.8659594027551476   T   T   T
  0.8150954841462982  0.1017171134808759  0.8712195128723162   T   T   T
 
  0.00000000E+00  0.00000000E+00  0.00000000E+00
  0.00000000E+00  0.00000000E+00  0.00000000E+00
  0.00000000E+00  0.00000000E+00  0.00000000E+00
  0.00000000E+00  0.00000000E+00  0.00000000E+00
  0.00000000E+00  0.00000000E+00  0.00000000E+00
  0.00000000E+00  0.00000000E+00  0.00000000E+00
  0.00000000E+00  0.00000000E+00  0.00000000E+00
  0.00000000E+00  0.00000000E+00  0.00000000E+00
  0.00000000E+00  0.00000000E+00  0.00000000E+00
  0.00000000E+00  0.00000000E+00  0.00000000E+00
  0.00000000E+00  0.00000000E+00  0.00000000E+00
  0.00000000E+00  0.00000000E+00  0.00000000E+00
  0.00000000E+00  0.00000000E+00  0.00000000E+00
  0.00000000E+00  0.00000000E+00  0.00000000E+00
  0.00000000E+00  0.00000000E+00  0.00000000E+00
  0.00000000E+00  0.00000000E+00  0.00000000E+00
  0.00000000E+00  0.00000000E+00  0.00000000E+00
  0.00000000E+00  0.00000000E+00  0.00000000E+00
  0.00000000E+00  0.00000000E+00  0.00000000E+00
  0.00000000E+00  0.00000000E+00  0.00000000E+00
  0.00000000E+00  0.00000000E+00  0.00000000E+00
  0.00000000E+00  0.00000000E+00  0.00000000E+00
  0.00000000E+00  0.00000000E+00  0.00000000E+00
  0.00000000E+00  0.00000000E+00  0.00000000E+00
  0.00000000E+00  0.00000000E+00  0.00000000E+00
  0.00000000E+00  0.00000000E+00  0.00000000E+00
  0.00000000E+00  0.00000000E+00  0.00000000E+00
  0.00000000E+00  0.00000000E+00  0.00000000E+00
  0.00000000E+00  0.00000000E+00  0.00000000E+00
  0.00000000E+00  0.00000000E+00  0.00000000E+00
  0.00000000E+00  0.00000000E+00  0.00000000E+00
  0.00000000E+00  0.00000000E+00  0.00000000E+00
  0.00000000E+00  0.00000000E+00  0.00000000E+00
  0.00000000E+00  0.00000000E+00  0.00000000E+00
  0.00000000E+00  0.00000000E+00  0.00000000E+00
  0.00000000E+00  0.00000000E+00  0.00000000E+00
  0.00000000E+00  0.00000000E+00  0.00000000E+00
  0.00000000E+00  0.00000000E+00  0.00000000E+00
  0.00000000E+00  0.00000000E+00  0.00000000E+00
  0.00000000E+00  0.00000000E+00  0.00000000E+00
  0.00000000E+00  0.00000000E+00  0.00000000E+00
  0.00000000E+00  0.00000000E+00  0.00000000E+00
  0.00000000E+00  0.00000000E+00  0.00000000E+00
  0.00000000E+00  0.00000000E+00  0.00000000E+00
  0.00000000E+00  0.00000000E+00  0.00000000E+00
  0.00000000E+00  0.00000000E+00  0.00000000E+00
  0.00000000E+00  0.00000000E+00  0.00000000E+00
  0.00000000E+00  0.00000000E+00  0.00000000E+00
  0.00000000E+00  0.00000000E+00  0.00000000E+00
  0.00000000E+00  0.00000000E+00  0.00000000E+00
  0.00000000E+00  0.00000000E+00  0.00000000E+00
  0.00000000E+00  0.00000000E+00  0.00000000E+00
  0.00000000E+00  0.00000000E+00  0.00000000E+00
  0.00000000E+00  0.00000000E+00  0.00000000E+00
  0.00000000E+00  0.00000000E+00  0.00000000E+00
  0.00000000E+00  0.00000000E+00  0.00000000E+00
  0.00000000E+00  0.00000000E+00  0.00000000E+00
  0.00000000E+00  0.00000000E+00  0.00000000E+00
  0.00000000E+00  0.00000000E+00  0.00000000E+00
  0.00000000E+00  0.00000000E+00  0.00000000E+00
  0.00000000E+00  0.00000000E+00  0.00000000E+00
  0.00000000E+00  0.00000000E+00  0.00000000E+00
  0.00000000E+00  0.00000000E+00  0.00000000E+00
  0.00000000E+00  0.00000000E+00  0.00000000E+00
  0.00000000E+00  0.00000000E+00  0.00000000E+00
  0.00000000E+00  0.00000000E+00  0.00000000E+00
  0.00000000E+00  0.00000000E+00  0.00000000E+00
  0.00000000E+00  0.00000000E+00  0.00000000E+00
  0.00000000E+00  0.00000000E+00  0.00000000E+00
  0.00000000E+00  0.00000000E+00  0.00000000E+00
  0.00000000E+00  0.00000000E+00  0.00000000E+00
  0.00000000E+00  0.00000000E+00  0.00000000E+00
  0.00000000E+00  0.00000000E+00  0.00000000E+00
  0.00000000E+00  0.00000000E+00  0.00000000E+00
  0.00000000E+00  0.00000000E+00  0.00000000E+00
  0.00000000E+00  0.00000000E+00  0.00000000E+00
  0.00000000E+00  0.00000000E+00  0.00000000E+00
  0.00000000E+00  0.00000000E+00  0.00000000E+00
  0.00000000E+00  0.00000000E+00  0.00000000E+00
  0.00000000E+00  0.00000000E+00  0.00000000E+00
  0.00000000E+00  0.00000000E+00  0.00000000E+00
  0.00000000E+00  0.00000000E+00  0.00000000E+00
  0.00000000E+00  0.00000000E+00  0.00000000E+00
  0.00000000E+00  0.00000000E+00  0.00000000E+00
  0.00000000E+00  0.00000000E+00  0.00000000E+00
  0.00000000E+00  0.00000000E+00  0.00000000E+00
  0.00000000E+00  0.00000000E+00  0.00000000E+00
  0.00000000E+00  0.00000000E+00  0.00000000E+00
  0.00000000E+00  0.00000000E+00  0.00000000E+00
  0.00000000E+00  0.00000000E+00  0.00000000E+00
  0.00000000E+00  0.00000000E+00  0.00000000E+00
  0.00000000E+00  0.00000000E+00  0.00000000E+00
  0.00000000E+00  0.00000000E+00  0.00000000E+00
  0.00000000E+00  0.00000000E+00  0.00000000E+00
  0.00000000E+00  0.00000000E+00  0.00000000E+00
  0.00000000E+00  0.00000000E+00  0.00000000E+00
  0.00000000E+00  0.00000000E+00  0.00000000E+00
  0.00000000E+00  0.00000000E+00  0.00000000E+00
  0.00000000E+00  0.00000000E+00  0.00000000E+00
  0.00000000E+00  0.00000000E+00  0.00000000E+00
  0.00000000E+00  0.00000000E+00  0.00000000E+00
  0.00000000E+00  0.00000000E+00  0.00000000E+00
  0.00000000E+00  0.00000000E+00  0.00000000E+00
  0.00000000E+00  0.00000000E+00  0.00000000E+00
  0.00000000E+00  0.00000000E+00  0.00000000E+00
  0.00000000E+00  0.00000000E+00  0.00000000E+00
  0.00000000E+00  0.00000000E+00  0.00000000E+00
  0.00000000E+00  0.00000000E+00  0.00000000E+00
  0.00000000E+00  0.00000000E+00  0.00000000E+00
  0.00000000E+00  0.00000000E+00  0.00000000E+00
  0.00000000E+00  0.00000000E+00  0.00000000E+00
  0.00000000E+00  0.00000000E+00  0.00000000E+00
  0.00000000E+00  0.00000000E+00  0.00000000E+00
  0.00000000E+00  0.00000000E+00  0.00000000E+00
  0.00000000E+00  0.00000000E+00  0.00000000E+00
  0.00000000E+00  0.00000000E+00  0.00000000E+00
  0.00000000E+00  0.00000000E+00  0.00000000E+00
  0.00000000E+00  0.00000000E+00  0.00000000E+00
  0.00000000E+00  0.00000000E+00  0.00000000E+00
  0.00000000E+00  0.00000000E+00  0.00000000E+00
  0.00000000E+00  0.00000000E+00  0.00000000E+00
  0.00000000E+00  0.00000000E+00  0.00000000E+00
  0.00000000E+00  0.00000000E+00  0.00000000E+00
  0.00000000E+00  0.00000000E+00  0.00000000E+00
  0.00000000E+00  0.00000000E+00  0.00000000E+00
  0.00000000E+00  0.00000000E+00  0.00000000E+00
  0.00000000E+00  0.00000000E+00  0.00000000E+00
  0.00000000E+00  0.00000000E+00  0.00000000E+00
  0.00000000E+00  0.00000000E+00  0.00000000E+00
  0.00000000E+00  0.00000000E+00  0.00000000E+00
  0.00000000E+00  0.00000000E+00  0.00000000E+00
  0.00000000E+00  0.00000000E+00  0.00000000E+00
  0.00000000E+00  0.00000000E+00  0.00000000E+00
  0.00000000E+00  0.00000000E+00  0.00000000E+00
  0.00000000E+00  0.00000000E+00  0.00000000E+00
  0.00000000E+00  0.00000000E+00  0.00000000E+00
  0.00000000E+00  0.00000000E+00  0.00000000E+00
  0.00000000E+00  0.00000000E+00  0.00000000E+00
  0.00000000E+00  0.00000000E+00  0.00000000E+00
  0.00000000E+00  0.00000000E+00  0.00000000E+00
  0.00000000E+00  0.00000000E+00  0.00000000E+00
  0.00000000E+00  0.00000000E+00  0.00000000E+00
  0.00000000E+00  0.00000000E+00  0.00000000E+00
  0.00000000E+00  0.00000000E+00  0.00000000E+00
  0.00000000E+00  0.00000000E+00  0.00000000E+00
  0.00000000E+00  0.00000000E+00  0.00000000E+00
  0.00000000E+00  0.00000000E+00  0.00000000E+00
  0.00000000E+00  0.00000000E+00  0.00000000E+00
  0.00000000E+00  0.00000000E+00  0.00000000E+00
  0.00000000E+00  0.00000000E+00  0.00000000E+00
  0.00000000E+00  0.00000000E+00  0.00000000E+00
  0.00000000E+00  0.00000000E+00  0.00000000E+00
  0.00000000E+00  0.00000000E+00  0.00000000E+00
  0.00000000E+00  0.00000000E+00  0.00000000E+00
