Mo  S Ru                                
   1.00000000000000     
    15.9215000000000000    0.0000000000000000    0.0000000000000000
    -7.9622500000000000   13.7910219999999999    0.0000000000000000
     0.0000000000000000    0.0000000000000000   13.5822000000000003
   Mo   S    Ru
    25    50     2
Direct
  0.1329945458456834  0.0671336319449694  0.6818807596103369
  0.1282137391673714  0.2646374239855902  0.6791855667173365
  0.1329751606838627  0.4669886913097514  0.6821630636143325
  0.1338873753866068  0.6674428795527731  0.6806060972490542
  0.1338655038098864  0.8675260521187624  0.6804451216548344
  0.3347809213922091  0.0673935120941636  0.6805651593411000
  0.3342455378657618  0.2681868521447441  0.6817083381419096
  0.3342040762538190  0.4671302065747156  0.6821286357657783
  0.3347988597741605  0.6684990576438707  0.6813631539932459
  0.3334774835512988  0.8672637925398305  0.6802239074655390
  0.5334836804168717  0.0672025979253448  0.6795581343955348
  0.5334040125788775  0.2662734173118011  0.6804206050826025
  0.5353209806306509  0.4682108700651000  0.6832030379898129
  0.5334438814704043  0.6683066349527493  0.6813447706989137
  0.5335273185134639  0.8674311328430306  0.6801979069793944
  0.7330718414356951  0.0670558539195625  0.6787192657048919
  0.7334152256708535  0.2672706475017819  0.6786954505218432
  0.7342034517007292  0.4675916839330938  0.6798450668412741
  0.7342038029320079  0.6676576622018260  0.6803770357869041
  0.7334677283454312  0.8672054210948161  0.6795186166418503
  0.9323310620361625  0.0662244789251716  0.6790701567873683
  0.9323620487772288  0.2671852792370402  0.6788852572894726
  0.9335774103180867  0.4673919525167420  0.6795086263199650
  0.9340137343148953  0.6674972938693102  0.6797220060467453
  0.9336225224550105  0.8672852462687999  0.6797837149375638
  0.0659863945624011  0.1317159787640705  0.5639966157741938
  0.0637016709274008  0.1318892573549064  0.7952834049080053
  0.0661916686574671  0.3355754820631418  0.5640508434160338
  0.0635902387284162  0.3327858433271658  0.7953110027950387
  0.0677975074705301  0.5342112605625147  0.5656176177644596
  0.0660634914731659  0.5341263335394757  0.7957088808164343
  0.0676693735408307  0.7343278622242124  0.5651357454062875
  0.0669596546192608  0.7340518897001687  0.7953161375645266
  0.0676093816229368  0.9345991671041389  0.5655375172598127
  0.0663493326822575  0.9332586749952227  0.7956578831910406
  0.2675186195165082  0.1353204530877221  0.5676438875000613
  0.2680637349318218  0.1343152142152633  0.7987354010676171
  0.2665446744495270  0.3340223282587900  0.5685243981998909
  0.2501876519677282  0.3254476905632018  0.8017745643248020
  0.2676125917750696  0.5335049180700864  0.5681701791270868
  0.2678692839000618  0.5345593606362655  0.7993611164435563
  0.2672307962360136  0.7336861870543814  0.5656176020583175
  0.2670111691146388  0.7345141058114351  0.7959452426770923
  0.2670991898695831  0.9342743932348796  0.5652687164314401
  0.2670977774386643  0.9338885878272052  0.7955583938084132
  0.4666457495314944  0.1339738412432609  0.5646402274944791
  0.4675516458645532  0.1336092031939415  0.7957954395882041
  0.4666723598085341  0.3349576824986116  0.5679975620194213
  0.4740202403576603  0.3372834200226222  0.8033632939198441
  0.4666677648831481  0.5332133060126267  0.5685759123773479
  0.4740030607397969  0.5375010563545857  0.8039178892870140
  0.4666609798683012  0.7337104086668731  0.5655668847192956
  0.4675643568470633  0.7352139322008497  0.7967082696605416
  0.4664813461157564  0.9335775137917466  0.5647600612055186
  0.4670413257694079  0.9343091701613133  0.7949995065876578
  0.6662339195975946  0.1336967913427074  0.5637078388222037
  0.6670203527110274  0.1339938269762442  0.7939424641618160
  0.6663597153967800  0.3342536949251453  0.5644852996923220
  0.6677544422466397  0.3338012542026618  0.7945427182678841
  0.6669505179747262  0.5341989072312643  0.5653480107985729
  0.6702005038558028  0.5354146779190643  0.7961753447113011
  0.6662690577542634  0.7332364916614864  0.5653583772135633
  0.6678843370729624  0.7349577250553807  0.7954435153684543
  0.6661857321187341  0.9332165830745396  0.5642919947099756
  0.6671798890374205  0.9344645931744395  0.7945162976062363
  0.8664189209302435  0.1336609253987717  0.5636808410578098
  0.8658572392564921  0.1335463867982085  0.7937988419905011
  0.8666685051451495  0.3344365543505461  0.5636290463788285
  0.8660501158312925  0.3336914801981621  0.7941484903260516
  0.8672460327973326  0.5342805427619197  0.5644280585028341
  0.8674581784556423  0.5341547262536679  0.7948162589818466
  0.8671164048539879  0.7340388037699199  0.5647810975233583
  0.8676990586448809  0.7343315773514902  0.7950775621277799
  0.8664117396052475  0.9331215541901869  0.5641086347456650
  0.8663627318008054  0.9335958702174594  0.7946662470715964
  0.3357455511431837  0.2814632035614864  0.8867104529173417
  0.3356475523577558  0.4547132267038734  0.8870424226774318
 
  0.00000000E+00  0.00000000E+00  0.00000000E+00
  0.00000000E+00  0.00000000E+00  0.00000000E+00
  0.00000000E+00  0.00000000E+00  0.00000000E+00
  0.00000000E+00  0.00000000E+00  0.00000000E+00
  0.00000000E+00  0.00000000E+00  0.00000000E+00
  0.00000000E+00  0.00000000E+00  0.00000000E+00
  0.00000000E+00  0.00000000E+00  0.00000000E+00
  0.00000000E+00  0.00000000E+00  0.00000000E+00
  0.00000000E+00  0.00000000E+00  0.00000000E+00
  0.00000000E+00  0.00000000E+00  0.00000000E+00
  0.00000000E+00  0.00000000E+00  0.00000000E+00
  0.00000000E+00  0.00000000E+00  0.00000000E+00
  0.00000000E+00  0.00000000E+00  0.00000000E+00
  0.00000000E+00  0.00000000E+00  0.00000000E+00
  0.00000000E+00  0.00000000E+00  0.00000000E+00
  0.00000000E+00  0.00000000E+00  0.00000000E+00
  0.00000000E+00  0.00000000E+00  0.00000000E+00
  0.00000000E+00  0.00000000E+00  0.00000000E+00
  0.00000000E+00  0.00000000E+00  0.00000000E+00
  0.00000000E+00  0.00000000E+00  0.00000000E+00
  0.00000000E+00  0.00000000E+00  0.00000000E+00
  0.00000000E+00  0.00000000E+00  0.00000000E+00
  0.00000000E+00  0.00000000E+00  0.00000000E+00
  0.00000000E+00  0.00000000E+00  0.00000000E+00
  0.00000000E+00  0.00000000E+00  0.00000000E+00
  0.00000000E+00  0.00000000E+00  0.00000000E+00
  0.00000000E+00  0.00000000E+00  0.00000000E+00
  0.00000000E+00  0.00000000E+00  0.00000000E+00
  0.00000000E+00  0.00000000E+00  0.00000000E+00
  0.00000000E+00  0.00000000E+00  0.00000000E+00
  0.00000000E+00  0.00000000E+00  0.00000000E+00
  0.00000000E+00  0.00000000E+00  0.00000000E+00
  0.00000000E+00  0.00000000E+00  0.00000000E+00
  0.00000000E+00  0.00000000E+00  0.00000000E+00
  0.00000000E+00  0.00000000E+00  0.00000000E+00
  0.00000000E+00  0.00000000E+00  0.00000000E+00
  0.00000000E+00  0.00000000E+00  0.00000000E+00
  0.00000000E+00  0.00000000E+00  0.00000000E+00
  0.00000000E+00  0.00000000E+00  0.00000000E+00
  0.00000000E+00  0.00000000E+00  0.00000000E+00
  0.00000000E+00  0.00000000E+00  0.00000000E+00
  0.00000000E+00  0.00000000E+00  0.00000000E+00
  0.00000000E+00  0.00000000E+00  0.00000000E+00
  0.00000000E+00  0.00000000E+00  0.00000000E+00
  0.00000000E+00  0.00000000E+00  0.00000000E+00
  0.00000000E+00  0.00000000E+00  0.00000000E+00
  0.00000000E+00  0.00000000E+00  0.00000000E+00
  0.00000000E+00  0.00000000E+00  0.00000000E+00
  0.00000000E+00  0.00000000E+00  0.00000000E+00
  0.00000000E+00  0.00000000E+00  0.00000000E+00
  0.00000000E+00  0.00000000E+00  0.00000000E+00
  0.00000000E+00  0.00000000E+00  0.00000000E+00
  0.00000000E+00  0.00000000E+00  0.00000000E+00
  0.00000000E+00  0.00000000E+00  0.00000000E+00
  0.00000000E+00  0.00000000E+00  0.00000000E+00
  0.00000000E+00  0.00000000E+00  0.00000000E+00
  0.00000000E+00  0.00000000E+00  0.00000000E+00
  0.00000000E+00  0.00000000E+00  0.00000000E+00
  0.00000000E+00  0.00000000E+00  0.00000000E+00
  0.00000000E+00  0.00000000E+00  0.00000000E+00
  0.00000000E+00  0.00000000E+00  0.00000000E+00
  0.00000000E+00  0.00000000E+00  0.00000000E+00
  0.00000000E+00  0.00000000E+00  0.00000000E+00
  0.00000000E+00  0.00000000E+00  0.00000000E+00
  0.00000000E+00  0.00000000E+00  0.00000000E+00
  0.00000000E+00  0.00000000E+00  0.00000000E+00
  0.00000000E+00  0.00000000E+00  0.00000000E+00
  0.00000000E+00  0.00000000E+00  0.00000000E+00
  0.00000000E+00  0.00000000E+00  0.00000000E+00
  0.00000000E+00  0.00000000E+00  0.00000000E+00
  0.00000000E+00  0.00000000E+00  0.00000000E+00
  0.00000000E+00  0.00000000E+00  0.00000000E+00
  0.00000000E+00  0.00000000E+00  0.00000000E+00
  0.00000000E+00  0.00000000E+00  0.00000000E+00
  0.00000000E+00  0.00000000E+00  0.00000000E+00
  0.00000000E+00  0.00000000E+00  0.00000000E+00
  0.00000000E+00  0.00000000E+00  0.00000000E+00
