Ta  N Co Cu                             
   1.00000000000000     
    18.1096308199999996    0.0000000000000000    0.0000000000000000
     0.0000000000000000   23.3551997799999995    0.0000000000000000
     0.0000000000000000    0.0000000000000000   30.4818171199999988
   Ta   N    Co   Cu
   228   240    12     4
Direct
  0.9994974248746544  0.9996497244359261  0.1975578098581749
  0.3336915665825799  0.0621783537410181  0.2026394077114944
  0.1658246747078351  0.0622902169571375  0.2028175341920289
  0.2497167748579727  0.1247275522770508  0.2779913445043292
  0.0822082258823684  0.0622839654251734  0.2839649276451794
  0.4167645667553188  0.0621921781402506  0.2840715570209440
  0.9999106650823038  0.1247355387275775  0.3697053111977766
  0.3313594636616415  0.0621770806756317  0.3685694636154295
  0.1676487266824935  0.0621991960179642  0.3682144505022791
  0.2508846754126495  0.1269495454306693  0.4569014893518286
  0.0850994658531121  0.0622523029976350  0.4547212124334976
  0.4165799284450955  0.0617101822009829  0.4536388502389386
  0.0004391482786303  0.1248454349541603  0.5409545072399737
  0.3320648212310076  0.0597222044308339  0.5434938647616647
  0.9993753648761725  0.1247695424149242  0.1975309899632407
  0.3337401419083292  0.1872357738891992  0.2026129141632396
  0.1658190808519393  0.1873194954174267  0.2027620942608266
  0.2497561420124157  0.2497802695147939  0.2780576100664760
  0.0820361894552306  0.1872719665047811  0.2839778595005669
  0.4169416598593472  0.1871929819979457  0.2841521828556282
  0.9998546207582280  0.2497269583724275  0.3696575515779159
  0.3313555509326562  0.1870301026428081  0.3685567220786581
  0.1677568765959734  0.1871698245552480  0.3680250430520999
  0.2508853874152237  0.2474145175317375  0.4569164284573475
  0.0839411813764457  0.1872500432569311  0.4536092178165205
  0.4171439057376887  0.1871393423887753  0.4530083383390391
  0.0008262143935696  0.2485037104369496  0.5415276734198642
  0.3427889641187321  0.1838948276238597  0.5432938891873746
  0.1696898716912401  0.1837696169760150  0.5434154686456978
  0.9994593960782439  0.2497949802975938  0.1975741460674243
  0.3338366679299369  0.3122538073189460  0.2026949120212151
  0.1657493724193273  0.3123105700975017  0.2027820253986619
  0.2496879444043074  0.3746613550479410  0.2780037527460877
  0.0822840618531373  0.3122844312012560  0.2839636087148207
  0.4166953041229604  0.3122001101685967  0.2841772317720057
  0.9999533114620718  0.3747779967598106  0.3697331254954577
  0.3313304400263704  0.3121009264444581  0.3685974089379016
  0.1677167724572470  0.3120941168160272  0.3680568337484686
  0.2501103020140576  0.3766789373586903  0.4565344498683928
  0.0851236414479004  0.3120092749213583  0.4539836447140004
  0.4157378761312032  0.3115101571245518  0.4541747437815076
  0.9993053155403402  0.3752122940170963  0.5405292394342993
  0.3499568407099147  0.3045681651989298  0.5451973213428971
  0.9993357879299438  0.3747353403515277  0.1976115204202600
  0.3336838611954036  0.4372859423150004  0.2027498393991749
  0.1658089702179595  0.4373566839255787  0.2027789040953394
  0.2496916337849058  0.9997182896084880  0.2780640533810086
  0.0820388511481767  0.4373119715527309  0.2840418298573368
  0.4168441178151738  0.4371777463036253  0.2843319085411267
  0.9997388388114743  0.9997909658209565  0.3697087025949060
  0.3312300282209222  0.4370630796424351  0.3687436009821781
  0.1675819626469988  0.4372254096764649  0.3682419211001999
  0.2502258583752806  0.9981544546643093  0.4569420420131181
  0.0842663654973990  0.4372470701674374  0.4539458975832602
  0.4146475551683579  0.4371185816864127  0.4541144818674567
  0.9996786111177940  0.9991970084951731  0.5415022289550748
  0.3430090170367635  0.4354477339845744  0.5457283429842690
  0.1616443849827860  0.4370794753695577  0.5447172831892644
  0.9993752282140278  0.4998305170869415  0.1976741577892156
  0.3338102342678511  0.5621868818291844  0.2027370739249648
  0.1656739323710710  0.5623064923745886  0.2028277892246351
  0.2495368189406193  0.6246170675336131  0.2781477314103711
  0.0822044789016942  0.5622992011424657  0.2840598196820210
  0.4165029289976303  0.5621652546442562  0.2842528831824822
  0.9998895170376727  0.6248295621338258  0.3698369227839819
  0.3310325849417239  0.5621088491366706  0.3686888063522105
  0.1675443046286702  0.5622250403477125  0.3682500005527061
  0.2499201692093678  0.6267644752565502  0.4565850990919955
  0.0850617675260921  0.5624000400380709  0.4543385255496304
  0.4147743050509263  0.5616573310119222  0.4544552476018140
  0.0008661993702503  0.6262938461997720  0.5413336928647396
  0.3513615983288076  0.5584636381126629  0.5457904913327667
  0.9992972648205694  0.6247314478791353  0.1977080746017350
  0.3337299862199501  0.6871878630293864  0.2027159190048451
  0.1657506487994382  0.6873199450992757  0.2028634239427873
  0.2495237842934301  0.7497357166628902  0.2781022311376589
  0.0819557982258345  0.6872783729155358  0.2841390524077525
  0.4167421274074030  0.6871333784892855  0.2843007241825006
  0.9996765478172165  0.7498204376704294  0.3698527614872802
  0.3311552987232034  0.6871204066563408  0.3687591758705935
  0.1674840341705632  0.6873550407704840  0.3683152287552360
  0.2495969340961892  0.7482425479134349  0.4570599152529979
  0.0839544059946604  0.6875133707818293  0.4541656680926991
  0.4148058201018472  0.6874459939431503  0.4538920077895412
  0.9987322154914295  0.7501392682783106  0.5413334353859511
  0.3434619153081044  0.6904449924011615  0.5444202209992639
  0.1641723093865934  0.6911941924298688  0.5444772201044472
  0.9994028445963536  0.7496639289319802  0.1976463475866339
  0.3336786577894628  0.8121364202438954  0.2026846851398432
  0.1657637482618597  0.8122708898690760  0.2028664710780177
  0.2495977820210555  0.8747036625642153  0.2781193844331540
  0.0821310651138276  0.8122822630795881  0.2840299330865790
  0.4165910639634305  0.8121645464968523  0.2841581348518929
  0.9996466842694929  0.8748233167530373  0.3697270020960843
  0.3310661387543092  0.8122040936335821  0.3686326596392178
  0.1674041819353604  0.8123096906045575  0.3682858348694182
  0.2504468371669759  0.8772293277096850  0.4571795507437315
  0.0846873920742297  0.8126008389642223  0.4545587032850875
  0.4159171973819724  0.8116798106282985  0.4536516650745170
  0.0007093418646420  0.8759109360558455  0.5413379630358577
  0.3349264876166771  0.8147081421161246  0.5431002437947754
  0.9993554067366546  0.8747382843554377  0.1976278112712606
  0.3337164919282003  0.9371868838190380  0.2025858238317113
  0.1658075943284416  0.9373042947525221  0.2028173341293993
  0.2495898496139617  0.4998328857330137  0.2780882487698406
  0.0820421240391767  0.9372748530579429  0.2840350288044675
  0.4168267552748901  0.9371858097098169  0.2841072647516683
  0.9997821096681747  0.4998433060803507  0.3697840902042770
  0.3311903894264177  0.9370815064144793  0.3685702284633052
  0.1676501350199615  0.9372894384913621  0.3680756001735332
  0.2498611349645969  0.4977233192361581  0.4569608762829134
  0.0834536327226374  0.9375193847414067  0.4536101702570505
  0.4173141747487463  0.9375019416763521  0.4528127735817904
  0.9987879025187354  0.4994433874853428  0.5412117866089972
  0.3436161279247969  0.9385304916366053  0.5413954400336678
  0.1720388959838459  0.9365709707807355  0.5429988877548126
  0.4997431302268112  0.9996881140175162  0.1975471420299897
  0.8333803099640136  0.0620994607456851  0.2029193133294527
  0.6656037620883524  0.0622503460644737  0.2027377293713357
  0.7496188207447432  0.1246847638335211  0.2783267839670103
  0.5826534577252005  0.0621945926200809  0.2842212373713053
  0.9168730979973958  0.0622466042780800  0.2841206716876172
  0.4997137724454177  0.1247307581254020  0.3692445045750503
  0.8317448889957930  0.0622557356054401  0.3685068028459639
  0.6681124768407116  0.0622034779688576  0.3687700680752499
  0.7493265280062147  0.1268899959229657  0.4579513076465460
  0.5827088980985948  0.0615709110031446  0.4534699450972823
  0.9151594383833412  0.0624152236529341  0.4548560596370024
  0.5017638140130813  0.1120457905223731  0.5433441199247682
  0.6678416101001119  0.0605096823314923  0.5428258629919469
  0.4998475084545646  0.1247107151212958  0.1975962017023463
  0.8334292531675800  0.1873071272807110  0.2029044057689617
  0.6655880407971253  0.1874340966839867  0.2028348269550762
  0.7495742770877314  0.2497702187974014  0.2783649324324742
  0.5824753692487334  0.1872268554633720  0.2843689403195953
  0.9170473890999844  0.1872431799256873  0.2842139903519936
  0.4994355803799806  0.2495562399912927  0.3694600598138607
  0.8318888903798225  0.1872793879923549  0.3684745422585252
  0.6680685866043916  0.1870987727193025  0.3689847548811969
  0.7499974975530534  0.2477961488990701  0.4574038536552223
  0.5817051180714827  0.1874263014862620  0.4531868427778889
  0.9170015858996479  0.1874915492762597  0.4534365180285889
  0.8290922009865653  0.1871439127885353  0.5425866159915032
  0.6580263438238489  0.1869160127540184  0.5409837342509292
  0.4998100476395706  0.2497560048666543  0.1976957719456109
  0.8334895212382278  0.3121781915513324  0.2029677170781525
  0.6653814804309448  0.3122915468719896  0.2029919821824109
  0.7494813056310221  0.3746822045624683  0.2785533055826477
  0.5826018347239952  0.3122612136362832  0.2844812110174146
  0.9168036585776207  0.3122437929920778  0.2841732902190870
  0.4988728503856450  0.3747583146135582  0.3697533338107419
  0.8317088722598385  0.3123315756550440  0.3685204539759113
  0.6680758774634441  0.3123239118863310  0.3689348216935855
  0.7490068838528643  0.3771321982985398  0.4585376781541370
  0.5820655697262112  0.3115722952842432  0.4536236671471627
  0.9155487086462557  0.3123420277984650  0.4547322515221381
  0.5051337053719251  0.3643333501104422  0.5429383399787682
  0.6685601331365802  0.3104682629438216  0.5424921063873498
  0.4998805989931512  0.3746885825682753  0.1977995438479923
  0.8333225412497498  0.4373286807917722  0.2030624478866088
  0.6655084029131686  0.4374238916553921  0.2030953431973117
  0.7495718413575219  0.9996277097355062  0.2782450108617240
  0.5822706402933449  0.4372194009701005  0.2846986861651999
  0.9169726557150852  0.4372730649133345  0.2843368001204709
  0.4996292747919142  0.9995162182112693  0.3691293242528744
  0.8317510947753988  0.4373136696137507  0.3686231305145711
  0.6677333734664401  0.4371302964241224  0.3693022570455966
  0.7495192337938050  0.9979569204361809  0.4572314079557387
  0.5804268804165105  0.4375902102950775  0.4534359545267037
  0.9170719396695688  0.4375120148370470  0.4533228994375378
  0.8300072040906272  0.4375029605688354  0.5421212131716189
  0.6581303086571282  0.4372182407707754  0.5408122422461474
  0.4997728931571146  0.4997827703162585  0.1978090009116684
  0.8334513720748546  0.5620871038185626  0.2030423876336442
  0.6652170174303009  0.5620939259011664  0.2030620746260396
  0.7493862330817933  0.6246412252226889  0.2786156297481099
  0.5823814825295557  0.5621847463841902  0.2846151591947574
  0.9167544796818348  0.5622609189110790  0.2842891875933589
  0.4985955229728987  0.6246940537504031  0.3697860561588442
  0.8315873057344803  0.5623439921699074  0.3686117314192643
  0.6677976431331203  0.5622817998182796  0.3690743956854661
  0.7487277762676428  0.6271795452730160  0.4588854416379888
  0.5812296895552720  0.5616217314835552  0.4536796748436842
  0.9154972305044566  0.5625219508014467  0.4548474996837086
  0.5051430278873354  0.6150814624689787  0.5428659877866764
  0.6678182793458802  0.5604871935023041  0.5423394301211317
  0.4998040692899437  0.6246782489722662  0.1978106831095872
  0.8333773655295147  0.6871857845115770  0.2030257869612413
  0.6653739644798335  0.6872346975071792  0.2029503312445300
  0.7493769454147596  0.7496292589832620  0.2783936963225884
  0.5822456362510948  0.6871056531135267  0.2845596880613286
  0.9169265452684030  0.6872330730249914  0.2843691850677317
  0.4990211903518045  0.7493863968872674  0.3694655452384978
  0.8315692664865892  0.6872312861181769  0.3686152548681036
  0.6676930762474669  0.6869679631497050  0.3691824303267666
  0.7493205538373360  0.7481806621770133  0.4573674806434909
  0.5804129147082051  0.6874929628013788  0.4532898050313037
  0.9169162321243505  0.6875933752619758  0.4535620287633009
  0.8297434252755167  0.6880117331130933  0.5422432986843688
  0.6577984648592761  0.6870853058309976  0.5408129668907691
  0.4996474562549125  0.7496735589447852  0.1976778196545084
  0.8332862399596692  0.8120243092108552  0.2029796249943772
  0.6654498389993435  0.8120041475850641  0.2028634517194376
  0.7495312314801552  0.8746622138037878  0.2784190523698413
  0.5825083628993468  0.8121285267755738  0.2843358137486831
  0.9167669773720988  0.8122056425042743  0.2842043364888127
  0.4993985289640719  0.8746722387552808  0.3692465108488960
  0.8316280515908332  0.8122763195707563  0.3686165416557046
  0.6678758933384401  0.8121813471920376  0.3689043842346678
  0.7488753658908465  0.8768633061043403  0.4581522235230722
  0.5820467914669507  0.8116643282923519  0.4534958571031353
  0.9150424453775869  0.8125904716922605  0.4548991315853002
  0.5016183802937846  0.8623631686107416  0.5431021531161448
  0.6674954019864288  0.8103768439120316  0.5427683134696863
  0.4997603731148601  0.8747015153085655  0.1976316800023952
  0.8333865926327633  0.9372079606556767  0.2028998617596258
  0.6655456138044755  0.9372860358128250  0.2027071486904362
  0.7493768607867608  0.4997936359889081  0.2784720708166049
  0.5824776122604334  0.9371538435637987  0.2842386833356372
  0.9170098866526359  0.9372095540537728  0.2842181541898370
  0.4986820305917874  0.4994732053827917  0.3697976436509052
  0.8316287622971927  0.9372586603536774  0.3684076499232276
  0.6680531793926150  0.9370005011257732  0.3688034587505555
  0.7495952440182592  0.4979922192545345  0.4576499181845932
  0.5815654333487998  0.9372696905556168  0.4529166240314808
  0.9166275790581579  0.9376033863373650  0.4535606064374846
  0.8284520021003487  0.9375733305480125  0.5425842129275438
  0.6571537141185573  0.9367327822220020  0.5409164628755292
  0.4052156133298226  0.9996593533468641  0.2322504979066693
  0.2497601342950233  0.9997207772310688  0.1992707537207892
  0.0939458921757392  0.9997383299394969  0.2322411074346604
  0.1546601265086807  0.1247589246258514  0.3156254283117832
  0.9996119366806795  0.1246881715216901  0.3031153627542551
  0.3447031953035875  0.1247333265429447  0.3159625642188857
  0.4006078789220666  0.1244135456013780  0.4019783847422076
  0.2494867586152765  0.1246128701703597  0.3884396503510743
  0.0993706678608959  0.1246955517388315  0.4018945389145543
  0.1513939086686378  0.1260777303273244  0.4872601744567859
  0.0003717608210891  0.1247131967127117  0.4727642923061666
  0.3510419149967845  0.1246803792339648  0.4881885206331233
  0.4080844653263185  0.1261078787651968  0.5717597472708320
  0.2574292782857768  0.1318209842803313  0.5591079764697469
  0.0982225802254248  0.1262102149357887  0.5693554464937023
  0.4052589371838380  0.1247668764461238  0.2322922174756172
  0.2497635445995527  0.1247747889682742  0.1990758969638406
  0.0939136583654019  0.1248221796935596  0.2322173694108685
  0.1545913703968367  0.2496549221778963  0.3155795742584644
  0.9996352670898787  0.2498567875198887  0.3030970670525335
  0.3447450260163336  0.2496228720438154  0.3159814724365759
  0.4001956104718687  0.2496393216591670  0.4020175192906947
  0.2494917531315011  0.2496061316475178  0.3885227948626735
  0.0994082630246140  0.2495527141458354  0.4017046307260088
  0.1516453738662165  0.2480569038434624  0.4874663544797926
  0.0005473994583767  0.2497922863111484  0.4729240981100489
  0.3512677204798038  0.2480443240170445  0.4882402055654609
  0.4196425188265209  0.2499605477110620  0.5666405978187399
  0.2630945726865974  0.2504681884752173  0.5605067359617379
  0.0989725690801890  0.2478337694624031  0.5691924610227090
  0.4052072766847630  0.2496705492588234  0.2323631956276841
  0.2497753001496292  0.2498026298259362  0.1993705474307532
  0.0939701907906354  0.2497700810257157  0.2322269277416780
  0.1546592856576154  0.3748376622016565  0.3156744767603499
  0.9996496881915888  0.3746926144451379  0.3031664618920757
  0.3445632852668439  0.3747436399126229  0.3161507383369724
  0.3995641868300268  0.3745729435078573  0.4026665383506085
  0.2494166812503451  0.3745971409357693  0.3883885541554264
  0.0994823015135466  0.3747634879366046  0.4018277679313655
  0.1522345449005726  0.3751221201390891  0.4877888946197260
  0.0005995484590926  0.3746614712855845  0.4724225411565968
  0.3475821024943144  0.3740014765270203  0.4906604029515975
  0.4101471966402102  0.3756515626337134  0.5720410695001945
  0.2527971192571101  0.4002437697836783  0.5783972691924504
  0.0969070317412388  0.3738254840647315  0.5691208207533407
  0.4052387214364828  0.3748222918339223  0.2324503462830592
  0.2497399299814802  0.3747656749954871  0.1991222741103513
  0.0939250677517123  0.3748511755931503  0.2322351974456183
  0.1545323140800718  0.9997484183270018  0.3156212202941191
  0.9995940672645887  0.9998339440388690  0.3031196835912837
  0.3447073740497615  0.9996321942885658  0.3158880939243573
  0.4005604591882772  0.9997816249804643  0.4016548516988578
  0.2493429387306989  0.9997853767734242  0.3883862250709669
  0.0992263048835014  0.9998151533121202  0.4018708713062225
  0.1504838137827988  0.9985182640986920  0.4875038299070340
  0.0000709799482621  0.0000741401782705  0.4729245172990986
  0.3506429631557282  0.0003010855224588  0.4871035113499573
  0.4111887938481331  0.0057036194230164  0.5649768414162537
  0.2575243641425971  0.9986857476461282  0.5555200365404858
  0.0972904977721711  0.9974312609926628  0.5694236481016546
  0.4052204808656725  0.4996240492842290  0.2324926984069435
  0.2497150227361828  0.4998295374864909  0.1992995985020158
  0.0939341783548286  0.4997820145335155  0.2322808369706806
  0.1544969835719883  0.6248568249334170  0.3158189845035224
  0.9995525168637300  0.6247011703987582  0.3032573915000967
  0.3444531092774881  0.6247210670392320  0.3161835417494459
  0.3992983263067558  0.6245022921206029  0.4026441914545700
  0.2492725868800747  0.6247294898564704  0.3884677712290880
  0.0993981008647395  0.6249844447568620  0.4020362591598143
  0.1523622166765790  0.6257300421771959  0.4883900635764533
  0.0006962346542991  0.6248946042389321  0.4729557728296854
  0.3475325178654387  0.6247024590575521  0.4905080768865488
  0.4106906540641901  0.6268861284741192  0.5720545435300721
  0.2545594856111464  0.6535610360026141  0.5785908266050797
  0.0985656964735924  0.6247041434641787  0.5696956246329137
  0.4051942481846993  0.6247346160029466  0.2324884356661698
  0.2497187241755654  0.6247265542945399  0.1993096747132839
  0.0938860875961538  0.6248415038510515  0.2323498177557681
  0.1544354487705135  0.7497411633509685  0.3157445271327504
  0.9995294062955011  0.7498283100116439  0.3032403138466719
  0.3444764858476361  0.7496198843131765  0.3160376809549774
  0.3999389235502591  0.7494842068635847  0.4020517646649893
  0.2491319990401877  0.7499062962250775  0.3885748112905034
  0.0990171017744572  0.7497531052517274  0.4020693050988058
  0.1500995758328898  0.7493345664582520  0.4877233142273383
  0.9998977376201523  0.7502613070329360  0.4729064145955704
  0.3491236564575644  0.7502937567033072  0.4879184179851421
  0.4100796255877270  0.7547139893102539  0.5662527425798132
  0.2552609980036777  0.7564083105432715  0.5555448735278858
  0.0958752714803381  0.7496138941584292  0.5710346666269928
  0.4051446527379170  0.7495930959940580  0.2324354785211611
  0.2497187620464203  0.7497033839404068  0.1992892022070833
  0.0938816140204892  0.7497208106079754  0.2323049454018005
  0.1545442461730744  0.8748007103039583  0.3157201919888522
  0.9995499572328654  0.8746946965813507  0.3031464627697460
  0.3445797268617810  0.8747229763937270  0.3160097302369209
  0.4003435138546863  0.8744045680463230  0.4019038547122022
  0.2492547714964246  0.8747111766633111  0.3886437288070468
  0.0991136671441382  0.8749640869513016  0.4018681328922185
  0.1506901199531256  0.8763924997502670  0.4873400859816357
  0.0002031117045291  0.8749625447901437  0.4729128303475534
  0.3513525768268124  0.8752976960249086  0.4878020601163939
  0.4082265072490756  0.8774411694939133  0.5713131512943690
  0.2587590286447252  0.8827145928761411  0.5570294771311310
  0.0985701020372574  0.8767450754886070  0.5692047206382469
  0.4051486850011088  0.8747103908562011  0.2323237317005962
  0.2497489002881395  0.8747095878225792  0.1991786556260777
  0.0939321284952541  0.8747856165296355  0.2322917378850704
  0.1545038697596723  0.4996604881639328  0.3157266314161333
  0.9996470168225358  0.4998681802233165  0.3032169012684776
  0.3444906196165931  0.4995393276000186  0.3161407840561381
  0.3994957543091289  0.4993939217604506  0.4024895883607016
  0.2492427782923343  0.4996010500444328  0.3886264472845440
  0.0992373835883100  0.4996367435601741  0.4019609113751699
  0.1510357090750034  0.4986169307050758  0.4879409980731566
  0.0002803173169710  0.4999682604699487  0.4727977154590164
  0.3490074854980350  0.4986070777166631  0.4891873438335779
  0.4173928372940736  0.4990583972350819  0.5669040881788234
  0.2606557276616854  0.5084048920794189  0.5605571526680251
  0.0966228310734039  0.4984366911615083  0.5704592589567667
  0.9051367115859250  0.9996475564156881  0.2324223676189590
  0.7494340127472370  0.9996711345718978  0.1991163141011469
  0.5941511067814247  0.9996630105757092  0.2324062687755628
  0.6547251211819187  0.1247939603489314  0.3162315020831272
  0.4996669960707436  0.1246759879694110  0.3028529129364657
  0.8445796927248210  0.1247772402964458  0.3159389292222770
  0.9006413485408160  0.1246727906875620  0.4019163503490475
  0.7501530911356866  0.1245956713314627  0.3890916497783934
  0.5986032678798026  0.1243969618145329  0.4019530598262193
  0.6474782811610993  0.1244852229600255  0.4873510228611551
  0.4994232809314596  0.1239814365976457  0.4745129059709967
  0.8503148671715195  0.1265221105740437  0.4871578015380393
  0.9034078176131075  0.1277972848056308  0.5693529128214507
  0.7447090835919710  0.1286349767546184  0.5535578539039463
  0.5952856479120285  0.1248751973165199  0.5713731497781964
  0.9051027275896288  0.1247741101063937  0.2324303940427086
  0.7495276128829786  0.1247618960409866  0.1996333911209831
  0.5942347799178052  0.1248296603350028  0.2325280101345797
  0.6546713641156998  0.2496340462294100  0.3162826137739785
  0.4995773521692257  0.2497647810249930  0.3030111569842688
  0.8446108818904818  0.2497101802383739  0.3159485716781845
  0.9005272771268338  0.2499751435551971  0.4019316282906402
  0.7501767646803472  0.2499288834553113  0.3888619794383956
  0.5986974948524306  0.2498431904949499  0.4017270594326874
  0.6493669238947746  0.2499596823995560  0.4867627566445805
  0.4996367567650992  0.2499525311727737  0.4733963644419887
  0.8502347952091327  0.2485910764239492  0.4875008808350074
  0.9032767701796516  0.2479736193641457  0.5693271858439957
  0.7431398686193944  0.2465947780538897  0.5547439577266218
  0.5926797483393926  0.2529582573351163  0.5659833328557866
  0.9051475740468362  0.2497147846620749  0.2324703611067562
  0.7494889823745439  0.2498639862911887  0.1993219842389564
  0.5941000309536975  0.2497269689245911  0.2326554428428693
  0.6546026433549628  0.3748792109822148  0.3164904263300983
  0.4994312820118694  0.3746632372674910  0.3032743561998075
  0.8445001727648105  0.3748443159284989  0.3160314322778603
  0.9006427023310124  0.3746536693627505  0.4018208681633766
  0.7499868040621038  0.3746464005103434  0.3894016453830744
  0.5980890597663020  0.3744952368294534  0.4021214086123308
  0.6464121165698202  0.3747230348011499  0.4873005184891213
  0.4983131371453169  0.3743678041784477  0.4744239140300763
  0.8508445624207397  0.3764839362965091  0.4868235611667231
  0.9029191883592844  0.3777277616785852  0.5693171078699351
  0.7458453963644018  0.3782601409754847  0.5509837058820324
  0.5980595944838498  0.3743450040207676  0.5723187356907786
  0.9050603508533825  0.3748219414765330  0.2325539571354440
  0.7494362606020104  0.3747617425011498  0.2000391714439544
  0.5941064200286803  0.3748944713225129  0.2328582419193239
  0.6546277982198987  0.9995621045508898  0.3160889861321934
  0.4996404278817153  0.9996846127623726  0.3027227602219398
  0.8446083906437067  0.9997046451574505  0.3158751317049635
  0.9003598296889308  0.9999292261367643  0.4019491268742641
  0.7500517359423000  0.9997512515575551  0.3887089085005613
  0.5986447180806920  0.9996839246682683  0.4015596674435784
  0.6489069285354176  0.9999013875424367  0.4867754247481599
  0.4995732950986920  0.9997880604223184  0.4734480077606733
  0.8495446129241415  0.9987131900408031  0.4875018136547027
  0.9021647736215854  0.9983001060631338  0.5695450650060820
  0.7415257273153912  0.9962010401434540  0.5555744344812510
  0.5896774167383398  0.0036534390744833  0.5647411618115470
  0.9050799466700923  0.4997090596675449  0.2326048855918543
  0.7494334709604615  0.4998111667700300  0.1992993099358031
  0.5939121943450516  0.4996453808069461  0.2328900506470148
  0.6544128711419290  0.6247195825487566  0.3165178140566596
  0.4992919011182479  0.6245807546492159  0.3032684168981987
  0.8444315241851967  0.6248028994773094  0.3160991468653052
  0.9005432405106859  0.6247757114729779  0.4020119755636600
  0.7498349149175070  0.6245382661408243  0.3895963033327305
  0.5978244335903540  0.6244249351881450  0.4021102979869369
  0.6458569671566110  0.6247056127837922  0.4873473320875519
  0.4980475618100613  0.6244548442909661  0.4742631221617941
  0.8507454528087948  0.6265447964327606  0.4871450328203508
  0.9032763616235258  0.6284472977311211  0.5692975872017243
  0.7456991173302967  0.6279847721577454  0.5504076118437311
  0.5981352709225760  0.6247251718327504  0.5725415186910041
  0.9049920457618654  0.6247432875339030  0.2326550164283603
  0.7493536681957664  0.6246258831983980  0.2002469096462320
  0.5940541180937373  0.6247304580933104  0.2328660927412187
  0.6545063010229342  0.7495066372991133  0.3163172268536485
  0.4994187381661277  0.7496472942197130  0.3029996301820717
  0.8444220710449883  0.7496801032719418  0.3160242024951714
  0.9002665162558117  0.7500124071911856  0.4020321196759582
  0.7498676031718077  0.7496927304102670  0.3888784559138756
  0.5981673907102660  0.7496423241364454  0.4018040891798478
  0.6485724069456609  0.7500295915314652  0.4869300606593683
  0.4984246402214652  0.7499348019947618  0.4738005334529731
  0.8495401455992706  0.7489441052533365  0.4874750288348935
  0.9022441794095428  0.7487417982133522  0.5697582974991420
  0.7418454502621330  0.7460640487661081  0.5554642509507275
  0.5897813000679335  0.7534474475548549  0.5652404150249382
  0.9050599884258688  0.7496253427524877  0.2325349346516674
  0.7493934070459218  0.7495689886222578  0.1992147880292876
  0.5939284473271940  0.7495368353188638  0.2326447014562874
  0.6545438895076217  0.8746591292024988  0.3162270257635882
  0.4995480252546045  0.8746264192093207  0.3028298242856593
  0.8445258877473876  0.8747240798578844  0.3159893012148061
  0.9004064110000272  0.8748247263282352  0.4020245114090386
  0.7499410065916692  0.8745356334116963  0.3892131154265357
  0.5983820543846505  0.8743335980571061  0.4018664659558695
  0.6468577620227904  0.8745309126386971  0.4873357525173034
  0.4992430834101356  0.8739543274130313  0.4742701471694275
  0.8500741069128566  0.8765832994222791  0.4872931681014592
  0.9030342091261190  0.8782901856265468  0.5692938762301480
  0.7442448575600480  0.8784796040422975  0.5529926444852862
  0.5952038528781998  0.8751063987952890  0.5715150180264388
  0.9049838558971643  0.8746898521959992  0.2324937815841892
  0.7493967157545711  0.8746161340218137  0.1998202838489149
  0.5941948755828861  0.8746998158698105  0.2325207310802355
  0.6545379274774348  0.4996173622258056  0.3164919865980238
  0.4992995705269010  0.4997463303971585  0.3032843331876123
  0.8444314260535606  0.4997394840656781  0.3160487082488146
  0.9004010909397309  0.5001558350848256  0.4019294431513813
  0.7499185413397100  0.4999077031427390  0.3890628114794623
  0.5980871196293052  0.4997900096401722  0.4018909599138851
  0.6486157994423465  0.4999953709280476  0.4867744237697593
  0.4982982662520428  0.5000730120595236  0.4736638822058268
  0.8501449167955641  0.4987880751279974  0.4872918151794323
  0.9026232728412182  0.4984614798561324  0.5696118159592203
  0.7430889407133066  0.4964717137834995  0.5541366466213091
  0.5925499777397718  0.5028138883885376  0.5663281721926694
  0.1285166280584136  0.0608440466937026  0.5353510170823057
  0.1292067266700343  0.3103074429846657  0.5326681092786743
  0.1289733521432410  0.5617423511982551  0.5333586225205593
  0.1290391350858755  0.8127902783114820  0.5348612140434668
  0.8733465197659100  0.0628733092226668  0.5361540390973474
  0.5067411070939940  0.2614738350426080  0.5362240682474990
  0.8742491054080404  0.3122831849633982  0.5358258503832047
  0.5007557945237409  0.0106861263091176  0.5363573755675404
  0.8743148655859727  0.5637611957018223  0.5359039515834141
  0.5008900494865642  0.7602745004700608  0.5368582596949238
  0.8735437358957796  0.8137706617533667  0.5361740039145602
  0.5060511419170197  0.5112820584085824  0.5364471110050317
  0.2551264824554949  0.7235283560168924  0.6143865174944096
  0.2292781830933066  0.5774156586532797  0.5893345494226310
  0.2297629988340191  0.3216888990700042  0.5860290675506263
  0.2496103263577254  0.4687269168194419  0.6165018056480349
 
  0.00000000E+00  0.00000000E+00  0.00000000E+00
  0.00000000E+00  0.00000000E+00  0.00000000E+00
  0.00000000E+00  0.00000000E+00  0.00000000E+00