Ta  N Ru Cu                             
   1.00000000000000     
    18.1096308199999996    0.0000000000000000    0.0000000000000000
     0.0000000000000000   23.3551997799999995    0.0000000000000000
     0.0000000000000000    0.0000000000000000   30.4818171199999988
   Ta   N    Ru   Cu
   228   240    12    29
Selective dynamics
Direct
  0.0000000000000000  0.0000718856546769  0.1971343718284118   F   F   F
  0.3342926847814240  0.0624132518977021  0.2026937805440667   F   F   F
  0.1663206548061567  0.0625684459108768  0.2026879703893130   F   F   F
  0.2502067873593177  0.1250918040142253  0.2779408447657588   F   F   F
  0.0826029581595549  0.0626929404336494  0.2836274496812337   F   F   F
  0.4173382514782702  0.0622475047871944  0.2840383744896471   F   F   F
  0.0019913981180140  0.1265830913144953  0.3708699159661381   T   T   T
  0.3310902232109803  0.0613689975601611  0.3678228856067851   T   T   T
  0.1651277889962723  0.0614234423516910  0.3707030476277129   T   T   T
  0.2486174031878621  0.1245992145973683  0.4567238257984949   T   T   T
  0.0888195857526782  0.0628267975376315  0.4571610342794512   T   T   T
  0.4149871866114400  0.0613404937352073  0.4557782116609724   T   T   T
  0.9831388676617394  0.1254468160909672  0.5389834335730626   T   T   T
  0.3386728780054538  0.0600352867937657  0.5458748430403993   T   T   T
  0.0000000000000000  0.1251997475754436  0.1971274192404451   F   F   F
  0.3343369412500081  0.1874555756944787  0.2027209845130571   F   F   F
  0.1662604173406379  0.1876312578509030  0.2027221982441247   F   F   F
  0.2501999816055047  0.2498887646067161  0.2779024730234809   F   F   F
  0.0825727650861410  0.1876830281330939  0.2837096283809757   F   F   F
  0.4172972896996328  0.1872504991250779  0.2840867748275429   F   F   F
  0.0019695008284314  0.2476794559569263  0.3700168977330740   T   T   T
  0.3324000088925960  0.1863746089140647  0.3668378066226533   T   T   T
  0.1701374724684697  0.1861263645179821  0.3689948930177658   T   T   T
  0.2521455151556727  0.2506779918974694  0.4543997223745327   T   T   T
  0.0811657604709822  0.1846674256178816  0.4542410773741376   T   T   T
  0.4175691250052672  0.1856618169580075  0.4531293135884114   T   T   T
  0.0097623278763665  0.2467984144096798  0.5458066134000011   T   T   T
  0.3421667229146098  0.1853154720025110  0.5422065056696742   T   T   T
  0.1738647585550711  0.1897762854180237  0.5467274135194997   T   T   T
  0.0000000000000000  0.2500718858687634  0.1971343718284118   F   F   F
  0.3342926847814240  0.3124132516836227  0.2026937805440667   F   F   F
  0.1663206548061567  0.3125684456967974  0.2026879703893130   F   F   F
  0.2502067873593177  0.3750918042283047  0.2779408447657588   F   F   F
  0.0826029581595549  0.3126929402195699  0.2836274496812337   F   F   F
  0.4173382514782702  0.3122475045731150  0.2840383744896471   F   F   F
  0.9998912585667696  0.3752247522826080  0.3692168433596225   T   T   T
  0.3357017616422822  0.3104843873496579  0.3681615239285687   T   T   T
  0.1698682807981130  0.3132516799749143  0.3660136190339629   T   T   T
  0.2516250157786621  0.3767477289080161  0.4541264474500635   T   T   T
  0.0863761498977273  0.3098116767039846  0.4573238539113298   T   T   T
  0.4162409839622707  0.3084669451054525  0.4522000352327913   T   T   T
  0.0154048335064568  0.3745766810176041  0.5444956210818436   T   T   T
  0.3395933701038017  0.3091547741597207  0.5421301906313537   T   T   T
  0.0000000000000000  0.3751997477895301  0.1971274192404451   F   F   F
  0.3343369412500081  0.4374555759085652  0.2027209845130571   F   F   F
  0.1662604173406379  0.4376312580649895  0.2027221982441247   F   F   F
  0.2501999816055047  0.9998887643926295  0.2779024730234809   F   F   F
  0.0825727650861410  0.4376830283471804  0.2837096283809757   F   F   F
  0.4172972896996328  0.4372504993391644  0.2840867748275429   F   F   F
  0.9967772322598358  0.0013491678523123  0.3691625768539981   T   T   T
  0.3286247298556054  0.4363593687509316  0.3685158083618846   T   T   T
  0.1660423899919852  0.4366419254267088  0.3688262265285230   T   T   T
  0.2506691246135547  0.0010433942222323  0.4557410077458838   T   T   T
  0.0833123117166206  0.4368745906855548  0.4548259725535971   T   T   T
  0.4181674695156244  0.4374146657907195  0.4537144113010343   T   T   T
  0.9883173526346823  0.0041647675239792  0.5390565302646299   T   T   T
  0.3383841619957347  0.4367386966819820  0.5403224283650901   T   T   T
  0.1719421768881103  0.4448398563233127  0.5423107469868351   T   T   T
  0.0000000000000000  0.5000718856546769  0.1971343718284118   F   F   F
  0.3342926847814240  0.5624132518977021  0.2026937805440667   F   F   F
  0.1663206548061567  0.5625684459108768  0.2026879703893130   F   F   F
  0.2502067873593177  0.6250918040142253  0.2779408447657588   F   F   F
  0.0826029581595549  0.5626929404336494  0.2836274496812337   F   F   F
  0.4173382514782702  0.5622475047871944  0.2840383744896471   F   F   F
  0.9966478068795392  0.6234204513216146  0.3689271934854543   T   T   T
  0.3279541255179583  0.5623528147858778  0.3666306433023586   T   T   T
  0.1661307821959780  0.5599733019498205  0.3679300408012446   T   T   T
  0.2471884049367402  0.6265868055057596  0.4554103559101148   T   T   T
  0.0821648980463617  0.5632342487587475  0.4533454594494195   T   T   T
  0.4171651794935981  0.5627746555043587  0.4525836040868633   T   T   T
  0.9932024207953235  0.6246356925488170  0.5375573871207345   T   T   T
  0.3285879444870415  0.5608803898857018  0.5411615043514368   T   T   T
  0.0000000000000000  0.6251997475754436  0.1971274192404451   F   F   F
  0.3343369412500081  0.6874555756944787  0.2027209845130571   F   F   F
  0.1662604173406379  0.6876312578509030  0.2027221982441247   F   F   F
  0.2501999816055047  0.7498887646067161  0.2779024730234809   F   F   F
  0.0825727650861410  0.6876830281330939  0.2837096283809757   F   F   F
  0.4172972896996328  0.6872504991250779  0.2840867748275429   F   F   F
  0.9977293015941521  0.7495780373693249  0.3689746694656803   T   T   T
  0.3292096408508471  0.6877530699522361  0.3679476165890687   T   T   T
  0.1685381452105640  0.6875756243599279  0.3662621211553689   T   T   T
  0.2507802356561349  0.7456343086738265  0.4538962540176713   T   T   T
  0.0824339332921811  0.6865229155163757  0.4509078153325927   T   T   T
  0.4183535467274474  0.6858204979367243  0.4513208496626864   T   T   T
  0.0056790237893562  0.7477882420877348  0.5397618444815608   T   T   T
  0.3329511326463339  0.6861607945007128  0.5373951400009207   T   T   T
  0.1685858969867721  0.6804380197518735  0.5409644649834346   T   T   T
  0.0000000000000000  0.7500718858687634  0.1971343718284118   F   F   F
  0.3342926847814240  0.8124132516836227  0.2026937805440667   F   F   F
  0.1663206548061567  0.8125684456967974  0.2026879703893130   F   F   F
  0.2502067873593177  0.8750918042283118  0.2779408447657588   F   F   F
  0.0826029581595549  0.8126929402195699  0.2836274496812337   F   F   F
  0.4173382514782702  0.8122475045731150  0.2840383744896471   F   F   F
  0.9956408208964049  0.8738995971900316  0.3675511954607506   T   T   T
  0.3282919107299343  0.8139918050607148  0.3676158994787272   T   T   T
  0.1579022906719209  0.8120381460207189  0.3690640861858609   T   T   T
  0.2537722638965113  0.8778947466907111  0.4536586305084159   T   T   T
  0.0881962214822114  0.8115972302678507  0.4546240976403985   T   T   T
  0.4167460149008726  0.8116107244795778  0.4523300114964991   T   T   T
  0.0108840150941141  0.8825697890973324  0.5420422750366420   T   T   T
  0.3305398110576285  0.8088733669495161  0.5394943294415090   T   T   T
  0.0000000000000000  0.8751997477895301  0.1971274192404451   F   F   F
  0.3343369412500081  0.9374555759085652  0.2027209845130571   F   F   F
  0.1662604173406379  0.9376312580649895  0.2027221982441247   F   F   F
  0.2501999816055047  0.4998887643926295  0.2779024730234809   F   F   F
  0.0825727650861410  0.9376830283471804  0.2837096283809757   F   F   F
  0.4172972896996328  0.9372504993391644  0.2840867748275429   F   F   F
  0.0006308561463390  0.4975238224087206  0.3689485309380410   T   T   T
  0.3320254266019632  0.9381127675557580  0.3696536071556482   T   T   T
  0.1635756278790994  0.9379890741750710  0.3673449677624946   T   T   T
  0.2520495347000080  0.4992013876637950  0.4551070685468416   T   T   T
  0.0840897030013594  0.9374524916969500  0.4519693842815182   T   T   T
  0.4179086586324302  0.9372978000453750  0.4543489848741711   T   T   T
  0.9955363542159327  0.4947870724729008  0.5441469541013350   T   T   T
  0.3364390905671279  0.9374687225184785  0.5419008872878038   T   T   T
  0.1725232633256950  0.9312064122412500  0.5410491181792758   T   T   T
  0.5000000000000000  0.9997488470195677  0.1972621268646009   F   F   F
  0.8336793153754556  0.0625684459108768  0.2026879703893130   F   F   F
  0.6657072859523794  0.0624132518977021  0.2026937805440667   F   F   F
  0.7497932120884911  0.1250918040142253  0.2779408447657588   F   F   F
  0.5826617485217298  0.0622475047871944  0.2840383744896471   F   F   F
  0.9173970418404451  0.0626929404336494  0.2836274496812337   F   F   F
  0.5019721241068241  0.1217034599515811  0.3710995833670445   T   T   T
  0.8330910214319091  0.0629735698777857  0.3658594236034743   T   T   T
  0.6708628172771376  0.0602999204954780  0.3681949004845784   T   T   T
  0.7464928251809375  0.1241890518000997  0.4549160902605545   T   T   T
  0.5808878256719178  0.0611982168759273  0.4526471962097424   T   T   T
  0.9126738550761179  0.0605939863900340  0.4511468462374686   T   T   T
  0.5040221162208265  0.1177188032873388  0.5425835677249784   T   T   T
  0.6648755199052720  0.0604676871198277  0.5425412836557446   T   T   T
  0.5000000000000000  0.1249314217885598  0.1972730821371940   F   F   F
  0.8337395528409743  0.1876312578509030  0.2027221982441247   F   F   F
  0.6656630294837953  0.1874555756944787  0.2027209845130571   F   F   F
  0.7498000178423041  0.2498887646067161  0.2779024730234809   F   F   F
  0.5827027103003743  0.1872504991250779  0.2840867748275429   F   F   F
  0.9174272349138590  0.1876830281330939  0.2837096283809757   F   F   F
  0.5001971410203865  0.2491470773012921  0.3699409817441939   T   T   T
  0.8319527644240974  0.1870454576362713  0.3675607795536383   T   T   T
  0.6690829282379989  0.1860939867033894  0.3693140431382463   T   T   T
  0.7529333801617607  0.2484554151586441  0.4569307002841322   T   T   T
  0.5835915143703554  0.1858563813122246  0.4553268454200984   T   T   T
  0.9225225725333493  0.1857446211482749  0.4550550855677435   T   T   T
  0.8304365256286474  0.1878219672666447  0.5417729047941625   T   T   T
  0.6608131762942880  0.1862119942796732  0.5417868059878748   T   T   T
  0.5000000000000000  0.2497488472336542  0.1972621268646009   F   F   F
  0.8336793153754556  0.3125684456967974  0.2026879703893130   F   F   F
  0.6657072859523794  0.3124132516836227  0.2026937805440667   F   F   F
  0.7497932120884911  0.3750918042283047  0.2779408447657588   F   F   F
  0.5826617485217298  0.3122475045731150  0.2840383744896471   F   F   F
  0.9173970418404451  0.3126929402195699  0.2836274496812337   F   F   F
  0.4981233071620700  0.3766222974049046  0.3686989969555250   T   T   T
  0.8373841714705914  0.3112567807231634  0.3677428712789155   T   T   T
  0.6725816885028374  0.3101374855418521  0.3684267534149043   T   T   T
  0.7520643150045169  0.3740560792267696  0.4563598969456544   T   T   T
  0.5862537788417502  0.3096357086598882  0.4527825758641785   T   T   T
  0.9149704974489989  0.3136997772278189  0.4580410480256994   T   T   T
  0.5057660553415037  0.3696689172647982  0.5382959199286109   T   T   T
  0.6773988710915285  0.3094623636912427  0.5429646582254086   T   T   T
  0.5000000000000000  0.3749314220026463  0.1972730821371940   F   F   F
  0.8337395528409743  0.4376312580649895  0.2027221982441247   F   F   F
  0.6656630294837953  0.4374555759085652  0.2027209845130571   F   F   F
  0.7498000178423041  0.9998887643926295  0.2779024730234809   F   F   F
  0.5827027103003743  0.4372504993391644  0.2840867748275429   F   F   F
  0.9174272349138590  0.4376830283471804  0.2837096283809757   F   F   F
  0.5014660700631055  0.9979736379861848  0.3680593688061657   T   T   T
  0.8308194525845837  0.4374533609791423  0.3658995513362759   T   T   T
  0.6674725705547765  0.4361554755947569  0.3662987683472962   T   T   T
  0.7436681011207167  0.9981519475909019  0.4547091870343358   T   T   T
  0.5832100616513716  0.4352444454601700  0.4527135979092758   T   T   T
  0.9201306927189064  0.4372507104771807  0.4534569374216996   T   T   T
  0.8392559690748681  0.4360184225902802  0.5405615041478485   T   T   T
  0.6667467098614486  0.4380064123433196  0.5372704857730488   T   T   T
  0.5000000000000000  0.4997488470195677  0.1972621268646009   F   F   F
  0.8336793153754556  0.5625684459108768  0.2026879703893130   F   F   F
  0.6657072859523794  0.5624132518977021  0.2026937805440667   F   F   F
  0.7497932120884911  0.6250918040142253  0.2779408447657588   F   F   F
  0.5826617485217298  0.5622475047871944  0.2840383744896471   F   F   F
  0.9173970418404451  0.5626929404336494  0.2836274496812337   F   F   F
  0.4948562415007913  0.6262205155927427  0.3695164970251237   T   T   T
  0.8317766540783755  0.5618752666262270  0.3672468276408145   T   T   T
  0.6651228390457059  0.5617367724655464  0.3647673445049806   T   T   T
  0.7503773947331459  0.6253705965350311  0.4531740268883112   T   T   T
  0.5854354440489328  0.5621803078499307  0.4523275773999943   T   T   T
  0.9183931516021748  0.5601471677615300  0.4533755653659524   T   T   T
  0.5029519431725700  0.6129983321999607  0.5403598996300215   T   T   T
  0.6747107271474149  0.5619547102159437  0.5423266440811539   T   T   T
  0.5000000000000000  0.6249314217885598  0.1972730821371940   F   F   F
  0.8337395528409743  0.6876312578509030  0.2027221982441247   F   F   F
  0.6656630294837953  0.6874555756944787  0.2027209845130571   F   F   F
  0.7498000178423041  0.7498887646067161  0.2779024730234809   F   F   F
  0.5827027103003743  0.6872504991250779  0.2840867748275429   F   F   F
  0.9174272349138590  0.6876830281330939  0.2837096283809757   F   F   F
  0.4965926933448165  0.7460353119354524  0.3689803054251144   T   T   T
  0.8321156174863980  0.6856776169198210  0.3664805434437237   T   T   T
  0.6669326055702555  0.6865262230917010  0.3670861657026113   T   T   T
  0.7542679509189900  0.7503167756169102  0.4553891332523604   T   T   T
  0.5836612160966733  0.6899458106814921  0.4536873687125395   T   T   T
  0.9167670567357669  0.6876599602500876  0.4498009098968485   T   T   T
  0.8341563349384268  0.6914480102231665  0.5420232539582177   T   T   T
  0.6665780495512834  0.6912454178579798  0.5406932599138432   T   T   T
  0.5000000000000000  0.7497488472336542  0.1972621268646009   F   F   F
  0.8336793153754556  0.8125684456967974  0.2026879703893130   F   F   F
  0.6657072859523794  0.8124132516836227  0.2026937805440667   F   F   F
  0.7497932120884911  0.8750918042283118  0.2779408447657588   F   F   F
  0.5826617485217298  0.8122475045731150  0.2840383744896471   F   F   F
  0.9173970418404451  0.8126929402195699  0.2836274496812337   F   F   F
  0.5003848128739907  0.8765616335736911  0.3682386081555313   T   T   T
  0.8286497136870588  0.8105933957112779  0.3673955173392339   T   T   T
  0.6679315644407327  0.8125526844522266  0.3657184498948702   T   T   T
  0.7516150473015901  0.8785229646165067  0.4559144683445247   T   T   T
  0.5813421914583197  0.8125088638652265  0.4505049207473615   T   T   T
  0.9179689623183324  0.8105299083588456  0.4544966005105281   T   T   T
  0.5005059028718807  0.8627288673292465  0.5403702631803466   T   T   T
  0.6738173743564522  0.8157902858859667  0.5391031994788167   T   T   T
  0.5000000000000000  0.8749314220026463  0.1972730821371940   F   F   F
  0.8337395528409743  0.9376312580649895  0.2027221982441247   F   F   F
  0.6656630294837953  0.9374555759085652  0.2027209845130571   F   F   F
  0.7498000178423041  0.4998887643926295  0.2779024730234809   F   F   F
  0.5827027103003743  0.9372504993391644  0.2840867748275429   F   F   F
  0.9174272349138590  0.9376830283471804  0.2837096283809757   F   F   F
  0.4972985767487606  0.5017995872262709  0.3702963810387612   T   T   T
  0.8310887581330043  0.9359741249696379  0.3671958454989654   T   T   T
  0.6692566854412203  0.9380897044089934  0.3685438112588865   T   T   T
  0.7502302779915160  0.5002951330110190  0.4528365709368424   T   T   T
  0.5809368192211809  0.9401674514678510  0.4536517071793102   T   T   T
  0.9182487624600196  0.9373699279790979  0.4525571254241471   T   T   T
  0.8235979057525615  0.9379126965149198  0.5401208272900334   T   T   T
  0.6594651930217632  0.9370132650618066  0.5409418767482802   T   T   T
  0.4059506995368949  0.9998103569988004  0.2323399901924574   F   F   F
  0.2502818136972422  0.0000100120603932  0.1992701427820052   F   F   F
  0.0942451913851556  0.0001403620404119  0.2320193079771755   F   F   F
  0.1548500728727760  0.1251896284821186  0.3155471504414038   F   F   F
  0.0000000000000000  0.1252068311979144  0.3027729437307727   F   F   F
  0.3452374976173260  0.1246790180981137  0.3159667219502040   F   F   F
  0.4023875263966966  0.1198300228471930  0.4034639554321556   T   T   T
  0.2482321051450019  0.1217246322475920  0.3873326627001232   T   T   T
  0.1008764729557060  0.1243904824148324  0.4021032656975734   T   T   T
  0.1514453712692019  0.1287249794366659  0.4905881040894342   T   T   T
  0.0014533067408774  0.1205063683386906  0.4723335274231294   T   T   T
  0.3513425294587417  0.1234183376405664  0.4906294253864099   T   T   T
  0.4096922116705494  0.1226173473548162  0.5706281972894974   T   T   T
  0.2520682506835950  0.1293244744832302  0.5630639927734491   T   T   T
  0.0633020518921600  0.1692868293939337  0.5670900741672216   T   T   T
  0.4058965650769153  0.1248444725173243  0.2323487498080610   F   F   F
  0.2502659080337395  0.1250292587474817  0.1993221158785232   F   F   F
  0.0942835749489959  0.1251516263229604  0.2320045250220701   F   F   F
  0.1548192101321320  0.2501939211492825  0.3155011134344150   F   F   F
  0.0000000000000000  0.2502658028626925  0.3027806051347781   F   F   F
  0.3452603591557377  0.2497083480957656  0.3159103143480522   F   F   F
  0.4024807705427819  0.2445656780464460  0.3985658943445995   T   T   T
  0.2504881734018970  0.2468505904187200  0.3854795941035162   T   T   T
  0.1007013385173188  0.2536853923046263  0.4006917990347107   T   T   T
  0.1548627740768791  0.2414908907966176  0.4845871999117879   T   T   T
  0.0031306081562272  0.2476604496898111  0.4774250505085916   T   T   T
  0.3481933490798835  0.2463921200567869  0.4886273653500962   T   T   T
  0.4059710548374004  0.2503671819181132  0.5736929293419769   T   T   T
  0.2547882505397427  0.2473435074256260  0.5620048594894609   T   T   T
  0.1127293036106495  0.2576944645457210  0.5723519361944261   T   T   T
  0.4059506995368949  0.2498103572128869  0.2323399901924574   F   F   F
  0.2502818136972422  0.2500100122744797  0.1992701427820052   F   F   F
  0.0942451913851556  0.2501403622544984  0.2320193079771755   F   F   F
  0.1548500728727760  0.3751896286962122  0.3155471504414038   F   F   F
  0.0000000000000000  0.3752068314120010  0.3027729437307727   F   F   F
  0.3452374976173260  0.3746790183122002  0.3159667219502040   F   F   F
  0.3991970305508083  0.3741708266887495  0.4022575100426806   T   T   T
  0.2516741786233392  0.3729346800063279  0.3863698008689527   T   T   T
  0.0995211897171763  0.3755479132982776  0.4010502710037558   T   T   T
  0.1564804832278105  0.3752031287677989  0.4875538834076349   T   T   T
  0.0071534041272701  0.3695766353754080  0.4766926884656679   T   T   T
  0.3516988021009010  0.3718077556252645  0.4843776063832472   T   T   T
  0.4132569899203386  0.3755661760368830  0.5680615050374845   T   T   T
  0.2620809224490300  0.3755258802880782  0.5602607002170085   T   T   T
  0.1187714778213322  0.3776267680766037  0.5751245301348062   T   T   T
  0.4058965650769153  0.3748444727314109  0.2323487498080610   F   F   F
  0.2502659080337395  0.3750292589615682  0.1993221158785232   F   F   F
  0.0942835749489959  0.3751516265370469  0.2320045250220701   F   F   F
  0.1548192101321320  0.0001939209351960  0.3155011134344150   F   F   F
  0.0000000000000000  0.0002658026486060  0.3027806051347781   F   F   F
  0.3452603591557377  0.9997083478816791  0.3159103143480522   F   F   F
  0.3979769541306615  0.9979538012640499  0.4024988808131780   T   T   T
  0.2480301048857571  0.0019827016677152  0.3877167704626483   T   T   T
  0.0943931312185202  0.0011458788533574  0.4009685879512924   T   T   T
  0.1516777238444091  0.9927501775222669  0.4877279079323574   T   T   T
  0.9993832000920833  0.0010077896697516  0.4698580505087598   T   T   T
  0.3506534801377652  0.9969286567556009  0.4885258431133283   T   T   T
  0.4120225181545322  0.0018446733774795  0.5679726767243147   T   T   T
  0.2545894862670450  0.9946627923624324  0.5630261100569428   T   T   T
  0.0711956087212263  0.9663932730588268  0.5599869302732903   T   T   T
  0.4059506995368949  0.4998103569988004  0.2323399901924574   F   F   F
  0.2502818136972422  0.5000100120603932  0.1992701427820052   F   F   F
  0.0942451913851556  0.5001403620404119  0.2320193079771755   F   F   F
  0.1548500728727760  0.6251896284821186  0.3155471504414038   F   F   F
  0.0000000000000000  0.6252068311979144  0.3027729437307727   F   F   F
  0.3452374976173260  0.6246790180981137  0.3159667219502040   F   F   F
  0.3994803688102962  0.6240460037902201  0.4021776715607198   T   T   T
  0.2475477055838078  0.6242347510922409  0.3885907329340452   T   T   T
  0.0980501408588234  0.6217994716287332  0.3988026007701715   T   T   T
  0.1485222395511760  0.6243676017152660  0.4847993194750509   T   T   T
  0.9961353529430348  0.6225202974284189  0.4704745899786333   T   T   T
  0.3502294649927222  0.6280240518339371  0.4860717616216522   T   T   T
  0.4042938548752747  0.6233972340847790  0.5665774438133746   T   T   T
  0.2541730923952429  0.6250296958980668  0.5532762191695080   T   T   T
  0.0891955441365107  0.6245584147193158  0.5711200859392732   T   T   T
  0.4058965650769153  0.6248444725173243  0.2323487498080610   F   F   F
  0.2502659080337395  0.6250292587474817  0.1993221158785232   F   F   F
  0.0942835749489959  0.6251516263229604  0.2320045250220701   F   F   F
  0.1548192101321320  0.7501939211492825  0.3155011134344150   F   F   F
  0.0000000000000000  0.7502658028626925  0.3027806051347781   F   F   F
  0.3452603591557377  0.7497083480957656  0.3159103143480522   F   F   F
  0.3942962877708349  0.7534813964499651  0.4032042583131933   T   T   T
  0.2460221877231235  0.7517394735217525  0.3872166577711943   T   T   T
  0.1013705736183698  0.7475825194647442  0.4020946622807751   T   T   T
  0.1540138076837763  0.7428688612408959  0.4860838254992232   T   T   T
  0.0025419453204169  0.7486656812687270  0.4718610454303982   T   T   T
  0.3565593267759977  0.7464688208713602  0.4857891878422113   T   T   T
  0.3959028191506491  0.7515119817308248  0.5704953272987817   T   T   T
  0.2503747934360868  0.7462592602578034  0.5576086361985049   T   T   T
  0.1011376524045963  0.7431028208067423  0.5693457800929328   T   T   T
  0.4059506995368949  0.7498103572128869  0.2323399901924574   F   F   F
  0.2502818136972422  0.7500100122744797  0.1992701427820052   F   F   F
  0.0942451913851556  0.7501403622544984  0.2320193079771755   F   F   F
  0.1548500728727760  0.8751896286962051  0.3155471504414038   F   F   F
  0.0000000000000000  0.8752068314120010  0.3027729437307727   F   F   F
  0.3452374976173260  0.8746790183122002  0.3159667219502040   F   F   F
  0.3989629128541761  0.8745812940012370  0.4044200023825927   T   T   T
  0.2447211196452079  0.8790461809364657  0.3853536686204269   T   T   T
  0.0966558594426597  0.8769357452781686  0.4013476101325554   T   T   T
  0.1544666679483171  0.8750805316734727  0.4841261230257078   T   T   T
  0.0018129011856688  0.8782674260215209  0.4726848362309846   T   T   T
  0.3493123091557270  0.8748249519533451  0.4893697275566791   T   T   T
  0.4060827521871418  0.8677525643980954  0.5720540619187621   T   T   T
  0.2592983112007966  0.8797219180589592  0.5609387602790150   T   T   T
  0.1111775617389351  0.8642582456888652  0.5682952491012309   T   T   T
  0.4058965650769153  0.8748444727314109  0.2323487498080610   F   F   F
  0.2502659080337395  0.8750292589615682  0.1993221158785232   F   F   F
  0.0942835749489959  0.8751516265370469  0.2320045250220701   F   F   F
  0.1548192101321320  0.5001939209351960  0.3155011134344150   F   F   F
  0.0000000000000000  0.5002658026486060  0.3027806051347781   F   F   F
  0.3452603591557377  0.4997083478816791  0.3159103143480522   F   F   F
  0.4009008500570032  0.5010716899815217  0.4014271108344465   T   T   T
  0.2455192467524269  0.4997356008777627  0.3884026206386055   T   T   T
  0.0992377743593835  0.4970031593622104  0.4004385923848239   T   T   T
  0.1510942121846761  0.4999134932156878  0.4868708929707342   T   T   T
  0.0001718773083244  0.4999865031779294  0.4719313463910545   T   T   T
  0.3478601593173882  0.5013064976611927  0.4904307227960710   T   T   T
  0.4037694712730227  0.4994111592277168  0.5665996361050584   T   T   T
  0.2576972650461164  0.4974060474544589  0.5635439920408254   T   T   T
  0.0930440861312705  0.4914626714909371  0.5712861636321024   T   T   T
  0.9057548086148444  0.0001403620404119  0.2320193079771755   F   F   F
  0.7497181857505666  0.0000100120603932  0.1992701427820052   F   F   F
  0.5940493004631051  0.9998103569988004  0.2323399901924574   F   F   F
  0.6547625023826740  0.1246790180981137  0.3159667219502040   F   F   F
  0.5000000000000000  0.1247350155864240  0.3031143998011601   F   F   F
  0.8451499271272240  0.1251896284821186  0.3155471504414038   F   F   F
  0.8993535487763685  0.1258688877424598  0.4030488576609085   T   T   T
  0.7502734930148134  0.1222275228675303  0.3869927307297696   T   T   T
  0.5994117468042103  0.1243617116262677  0.4001063888363722   T   T   T
  0.6464680145345088  0.1223874735218073  0.4873786810484810   T   T   T
  0.4984796474265861  0.1215871346562815  0.4745297597999324   T   T   T
  0.8443890333518586  0.1234740001924515  0.4845410277151407   T   T   T
  0.8890414962609319  0.1240405440001975  0.5694839105215838   T   T   T
  0.7477220860919538  0.1225422793635105  0.5570582549545812   T   T   T
  0.5982330999015744  0.1209161630202869  0.5736198941840930   T   T   T
  0.9057164250510041  0.1251516263229604  0.2320045250220701   F   F   F
  0.7497340914140693  0.1250292587474817  0.1993221158785232   F   F   F
  0.5941034349230847  0.1248444725173243  0.2323487498080610   F   F   F
  0.6547396408442623  0.2497083480957656  0.3159103143480522   F   F   F
  0.5000000000000000  0.2496370424515106  0.3031199056982175   F   F   F
  0.8451807898678680  0.2501939211492825  0.3155011134344150   F   F   F
  0.9044851199216933  0.2507876747985808  0.4058510999778239   T   T   T
  0.7546151942852410  0.2484951535001663  0.3887695434192466   T   T   T
  0.6020573261712273  0.2459317236785565  0.4011410726957083   T   T   T
  0.6525438306079405  0.2439580884401375  0.4881622467700730   T   T   T
  0.4991617831653875  0.2456745592973295  0.4731151141543451   T   T   T
  0.8523215589322086  0.2521307252378452  0.4905679352599367   T   T   T
  0.9068669445226303  0.2392203644276622  0.5734150739762783   T   T   T
  0.7458133471354409  0.2412269385636971  0.5678390132990894   T   T   T
  0.6002699331356075  0.2575675903458726  0.5699116306212183   T   T   T
  0.9057548086148444  0.2501403622544984  0.2320193079771755   F   F   F
  0.7497181857505666  0.2500100122744797  0.1992701427820052   F   F   F
  0.5940493004631051  0.2498103572128869  0.2323399901924574   F   F   F
  0.6547625023826740  0.3746790183122002  0.3159667219502040   F   F   F
  0.5000000000000000  0.3747350158005176  0.3031143998011601   F   F   F
  0.8451499271272240  0.3751896286962122  0.3155471504414038   F   F   F
  0.8985542843325968  0.3741295437557203  0.4051741621603899   T   T   T
  0.7528362208372341  0.3757474539030921  0.3877168158697767   T   T   T
  0.5996784093942372  0.3745667860888835  0.4003537322242514   T   T   T
  0.6530493544673611  0.3740627158677406  0.4858388101517819   T   T   T
  0.4993882316926905  0.3708613241902594  0.4713659737743807   T   T   T
  0.8521137564344414  0.3767288366320289  0.4888996952400601   T   T   T
  0.9141475122920877  0.3836359877736285  0.5724490180051742   T   T   T
  0.7510388730036812  0.3787637546221415  0.5618114375048281   T   T   T
  0.6041262873744687  0.3751327864567141  0.5672977359518216   T   T   T
  0.9057164250510041  0.3751516265370469  0.2320045250220701   F   F   F
  0.7497340914140693  0.3750292589615682  0.1993221158785232   F   F   F
  0.5941034349230847  0.3748444727314109  0.2323487498080610   F   F   F
  0.6547396408442623  0.9997083478816791  0.3159103143480522   F   F   F
  0.5000000000000000  0.9996370422374241  0.3031199056982175   F   F   F
  0.8451807898678680  0.0001939209351960  0.3155011134344150   F   F   F
  0.8985433448880955  0.9987481333588649  0.4012897470796427   T   T   T
  0.7505009557086475  0.9989283445201572  0.3886168983771182   T   T   T
  0.5992652415751994  0.9999531863002599  0.4020767033140403   T   T   T
  0.6454901611492129  0.0014282637211867  0.4867806427991567   T   T   T
  0.4996430821388596  0.9963677069548269  0.4728096330087534   T   T   T
  0.8435769791848878  0.9975987172977759  0.4840813099369484   T   T   T
  0.8885233547263438  0.0012129469197169  0.5658864989528580   T   T   T