Ru Ta  N  Cu                            
   1.00000000000000     
    18.1096308199999996    0.0000000000000000    0.0000000000000000
     0.0000000000000000   23.3551997799999995    0.0000000000000000
     0.0000000000000000    0.0000000000000000   30.4818170799999990
   Ru   Ta   N    Cu
    64   240   240     3
Selective dynamics
Direct
  0.0673646208966159  0.0093890710870337  0.5336655522776911   T   T   T
  0.2830157123638776  0.5009564572743613  0.5268750112063361   T   T   T
  0.4409100854748639  0.0626220501648230  0.5191578019936446   T   T   T
  0.0702810777551173  0.2606972576407692  0.5343687628316852   T   T   T
  0.2832840068592618  0.2485036901645930  0.5258577416210934   T   T   T
  0.4351289749121841  0.3082002538804552  0.5199687581624893   T   T   T
  0.0667375415996212  0.1211060226991543  0.5332930044952745   T   T   T
  0.2842591636731009  0.1322403848370093  0.5253679184089398   T   T   T
  0.4446925895838836  0.1837921123312674  0.5208494608318136   T   T   T
  0.0684343881459092  0.3729903625651457  0.5330885031726603   T   T   T
  0.2811722151111680  0.3845340683861294  0.5273872672829961   T   T   T
  0.4279828765575655  0.4367739882504869  0.5211413041685471   T   T   T
  0.1699442141717059  0.4367670643413505  0.5488700850595835   T   T   T
  0.1886147167497882  0.3095100427621177  0.5515449889616515   T   T   T
  0.1713149488806503  0.1829047624401040  0.5491109859642168   T   T   T
  0.1862120500768418  0.0606574251277162  0.5500157841676721   T   T   T
  0.0693515630172201  0.5122530867623449  0.5328948595918360   T   T   T
  0.2851018349874889  0.9982975400377395  0.5248580507846585   T   T   T
  0.4364626808814923  0.5656777938032544  0.5195985516860970   T   T   T
  0.0678286673724579  0.7611562449568138  0.5338496698040641   T   T   T
  0.2839069783007572  0.7486116820886163  0.5253565265330216   T   T   T
  0.4406481037748691  0.8115623864393252  0.5190671410586689   T   T   T
  0.0671573467162211  0.6224191933739101  0.5335199142250943   T   T   T
  0.2820078165269987  0.6325074410477325  0.5262216337369769   T   T   T
  0.4449222238069421  0.6897076397400275  0.5208149010206004   T   T   T
  0.0671706292094071  0.8722602802230837  0.5334003122341093   T   T   T
  0.2846647363498926  0.8815219126404574  0.5250875177649136   T   T   T
  0.4448590704690485  0.9372031347875494  0.5209979432309855   T   T   T
  0.1735708481231970  0.9369198881759633  0.5482469977135095   T   T   T
  0.1864866256311599  0.8128751541067120  0.5506287608444067   T   T   T
  0.1710880243903485  0.6886224978707721  0.5488285966828925   T   T   T
  0.1863433894277888  0.5625807850536357  0.5522207809758737   T   T   T
  0.5678875847515441  0.0039307274101340  0.5337425664647747   T   T   T
  0.7920023036838296  0.4982690438971513  0.5236510297164478   T   T   T
  0.9405320739555784  0.0609776142243702  0.5191953883737734   T   T   T
  0.5672439341788690  0.2451582734454378  0.5350763447836828   T   T   T
  0.7826330034953545  0.2463969990038784  0.5257563357159374   T   T   T
  0.9434274261196065  0.3087075382667954  0.5198651219311415   T   T   T
  0.5648454787631593  0.1146218074052867  0.5333363057272706   T   T   T
  0.7872071254200596  0.1223031654893373  0.5244386704361778   T   T   T
  0.9452303585756001  0.1875745708139519  0.5212167414078637   T   T   T
  0.5657873227543688  0.3535112310371730  0.5355293210724330   T   T   T
  0.7935535318191136  0.3758646313748463  0.5231298792361506   T   T   T
  0.9514107174113056  0.4376330468295622  0.5222871566390958   T   T   T
  0.6811754055727542  0.4352510243050077  0.5440325707600274   T   T   T
  0.6888386004046732  0.3202811614974540  0.5509325163133623   T   T   T
  0.6767124455886077  0.1862955284724854  0.5478559143958447   T   T   T
  0.6832917182307771  0.0679447285791158  0.5524066087680887   T   T   T
  0.5679378666279112  0.5215731774839906  0.5361173010202873   T   T   T
  0.7805275699591214  0.9994135538246853  0.5260961464572834   T   T   T
  0.9418894401684530  0.5623735058415333  0.5195302239205473   T   T   T
  0.5652598901619078  0.7605339188589947  0.5333109250742908   T   T   T
  0.7870752225645229  0.7525828884746617  0.5244620189133500   T   T   T
  0.9406753497345871  0.8115567136859461  0.5192182656210989   T   T   T
  0.5669425832827909  0.6299445627372302  0.5351643958725424   T   T   T
  0.7827899727997499  0.6298047414898559  0.5254880068833472   T   T   T
  0.9452071290822918  0.6870891578569541  0.5213321904634148   T   T   T
  0.5668619178677347  0.8710884542096644  0.5335924886883133   T   T   T
  0.7811056845647677  0.8761346603165634  0.5260084464408867   T   T   T
  0.9453008691977790  0.9372519050859136  0.5210453064541763   T   T   T
  0.6737444661774822  0.9370858781553839  0.5483953803686151   T   T   T
  0.6832350832149340  0.8075800529622004  0.5519557826179866   T   T   T
  0.6761739837713230  0.6891201858849904  0.5479341156027976   T   T   T
  0.6898025042484491  0.5558633616993269  0.5504616154763874   T   T   T
  0.9996246524628063  0.9999635445867767  0.1022212275957983   F   F   F
  0.3339438256838960  0.0624457813299060  0.1075563970202325   F   F   F
  0.1656734882889026  0.0624869619810369  0.1076523577670159   F   F   F
  0.2496380332605455  0.1248777014917124  0.1827535963680589   F   F   F
  0.0820753910794778  0.0624168821917976  0.1887361965005994   F   F   F
  0.4168249566545654  0.0624128089775482  0.1889653308070223   F   F   F
  0.0002210549928823  0.1249182305785481  0.2747720561325160   T   T   T
  0.3319578878370252  0.0624136354632385  0.2731274813385522   T   T   T
  0.1676297021520319  0.0624289238469930  0.2728038277270646   T   T   T
  0.2489900102268401  0.1248998031720403  0.3595269866193883   T   T   T
  0.0837886193814575  0.0624631952920481  0.3592214767020164   T   T   T
  0.4159646064499887  0.0623501322009736  0.3588556554976070   T   T   T
  0.4964793203252846  0.1245086972962988  0.4433874568170163   T   T   T
  0.3319546323076026  0.0620587523620686  0.4449914714555712   T   T   T
  0.1654982990686138  0.0624391641226159  0.4474060207537054   T   T   T
  0.9996175425524214  0.1249358288969233  0.1022184789678420   F   F   F
  0.3339435537114426  0.1874256191358299  0.1075504356733603   F   F   F
  0.1656688965935942  0.1874633245330628  0.1076544484778310   F   F   F
  0.2496428192825420  0.2499248694537357  0.1827745152021549   F   F   F
  0.0820483011947246  0.1874164370395803  0.1887315368489411   F   F   F
  0.4168235962087010  0.1874178821048673  0.1889761876915443   F   F   F
  0.0002359880479857  0.2499137399203001  0.2747926183794942   T   T   T
  0.3320187399738797  0.1874671353837760  0.2731676764005178   T   T   T
  0.1676382450408605  0.1874678455289391  0.2728485357928139   T   T   T
  0.2490022461497155  0.2499830328022676  0.3596364697881491   T   T   T
  0.0836962596477212  0.1874925506136964  0.3594618100505172   T   T   T
  0.4158451892504519  0.1874261627298860  0.3587118509681679   T   T   T
  0.4972539981587031  0.2486056976108750  0.4439177081611444   T   T   T
  0.3321798608058047  0.1867997701134733  0.4440448168876184   T   T   T
  0.1640316880688276  0.1874483902398528  0.4481340183863835   T   T   T
  0.9996247444640574  0.2499647011854407  0.1022230082490267   F   F   F
  0.3339438339619036  0.3124448417397900  0.1075557633545969   F   F   F
  0.1656741876920407  0.3124866150128511  0.1076519504247102   F   F   F
  0.2496342491082189  0.3748782083517597  0.1827543288382500   F   F   F
  0.0820773763724816  0.3124181279228466  0.1887355922833933   F   F   F
  0.4168238893201348  0.3124134579098339  0.1889644027201030   F   F   F
  0.0002049604469297  0.3749334604048581  0.2747987571363328   T   T   T
  0.3320406857884763  0.3124831253319779  0.2732142641133062   T   T   T
  0.1675555108526983  0.3124732536861008  0.2729388636954038   T   T   T
  0.2491955097804990  0.3749748018525370  0.3597221400232187   T   T   T
  0.0837782205280897  0.3125182339350160  0.3595172344789103   T   T   T
  0.4160212152314858  0.3124575183738100  0.3591875496330915   T   T   T
  0.4983789854812663  0.3747548425278304  0.4445412429056220   T   T   T
  0.3325502236913924  0.3118145073483874  0.4454305888356918   T   T   T
  0.1658398806319782  0.3125483831710721  0.4475187050811860   T   T   T
  0.9996196554118555  0.3749345235867736  0.1022175688270863   F   F   F
  0.3339389444248013  0.4374272239936090  0.1075500232538360   F   F   F
  0.1656692123176882  0.4374660331456823  0.1076535614342404   F   F   F
  0.2496367764464793  0.9999279799998888  0.1827742299965678   F   F   F
  0.0820476334098430  0.4374171254006285  0.1887298800136392   F   F   F
  0.4168193524269412  0.4374154383080295  0.1889763507298241   F   F   F
  0.5002860243236859  0.4998554541879567  0.2748636303814917   T   T   T
  0.3321255560985152  0.4374063499466177  0.2732766014401768   T   T   T
  0.1675134716730981  0.4374255993218147  0.2729639571570195   T   T   T
  0.2492479511227540  0.4999911591811261  0.3597041272922730   T   T   T
  0.0836356024122460  0.4374930387900829  0.3597284084936649   T   T   T
  0.4160551386024639  0.4373911883416715  0.3593642442156990   T   T   T
  0.4984055056955691  0.4996837980537406  0.4446262920522024   T   T   T
  0.3334349311923511  0.4371450713715570  0.4452130937081600   T   T   T
  0.1646433254318098  0.4377318664668193  0.4479605111194458   T   T   T
  0.9996246524628063  0.4999635445867767  0.1022212275957983   F   F   F
  0.3339438256838960  0.5624457813299060  0.1075563970202325   F   F   F
  0.1656734882889026  0.5624869619810369  0.1076523577670159   F   F   F
  0.2496380332605455  0.6248777014917124  0.1827535963680589   F   F   F
  0.0820753910794778  0.5624168821917976  0.1887361965005994   F   F   F
  0.4168249566545654  0.5624128089775482  0.1889653308070223   F   F   F
  0.0001948242584006  0.6248865648723074  0.2747800253302617   T   T   T
  0.3320784835509765  0.5623340652439295  0.2732074257278656   T   T   T
  0.1676064934291080  0.5623700671845543  0.2729142765337588   T   T   T
  0.2491104181417666  0.6249375435097871  0.3596305080392577   T   T   T
  0.0837869596946336  0.5624342545318121  0.3593863408709234   T   T   T
  0.4160348483719885  0.5623304295072272  0.3592317484148808   T   T   T
  0.4974314559160766  0.6258741264526502  0.4438112703863066   T   T   T
  0.3326315132551135  0.5626055996419721  0.4455123172113760   T   T   T
  0.1657725248336036  0.5627198025534609  0.4472493357518855   T   T   T
  0.9996175425524214  0.6249358288969233  0.1022184789678420   F   F   F
  0.3339435537114426  0.6874256191358228  0.1075504356733603   F   F   F
  0.1656688965935942  0.6874633245330557  0.1076544484778310   F   F   F
  0.2496428192825420  0.7499248694537357  0.1827745152021549   F   F   F
  0.0820483011947246  0.6874164370395732  0.1887315368489411   F   F   F
  0.4168235962087010  0.6874178821048602  0.1889761876915443   F   F   F
  0.0002066203038350  0.7498974020146012  0.2747715444999573   T   T   T
  0.3320459804206303  0.6873552645161690  0.2731918135220768   T   T   T
  0.1676382166968668  0.6873654740471918  0.2728468683966168   T   T   T
  0.2490262834479786  0.7500323051699950  0.3596021241298825   T   T   T
  0.0836501374767212  0.6874476114546555  0.3594580219294573   T   T   T
  0.4158372094095163  0.6873803002028996  0.3587842664120920   T   T   T
  0.4962500957077151  0.7500211927236641  0.4435010036840272   T   T   T
  0.3321386486666776  0.6875300595075670  0.4442657324509247   T   T   T
  0.1639877683810642  0.6878228831579083  0.4481729493868286   T   T   T
  0.9996247444640574  0.7499647011854407  0.1022230082490267   F   F   F
  0.3339438339619036  0.8124448417397900  0.1075557633545969   F   F   F
  0.1656741876920407  0.8124866150128511  0.1076519504247102   F   F   F
  0.2496342491082189  0.8748782083517597  0.1827543288382500   F   F   F
  0.0820773763724816  0.8124181279228466  0.1887355922833933   F   F   F
  0.4168238893201348  0.8124134579098339  0.1889644027201030   F   F   F
  0.0001836833942966  0.8749064275382390  0.2747612959964947   T   T   T
  0.3319750269265493  0.8123792581874428  0.2731399717692489   T   T   T
  0.1676444197236776  0.8123870259723579  0.2728139884882213   T   T   T
  0.2491366513358295  0.8749267825018365  0.3595968094235694   T   T   T
  0.0837939667842045  0.8124558936754142  0.3592127662588066   T   T   T
  0.4159547101091582  0.8124165816400136  0.3589251839845402   T   T   T
  0.4960263475404584  0.8751057384723389  0.4440211559290934   T   T   T
  0.3320757317928610  0.8125471702839698  0.4451654889556867   T   T   T
  0.1655697286743374  0.8127075038853679  0.4473647288897244   T   T   T
  0.9996196554118555  0.8749345235867736  0.1022175688270863   F   F   F
  0.3339389444248013  0.9374272239936019  0.1075500232538360   F   F   F
  0.1656692123176882  0.9374660331456752  0.1076535614342404   F   F   F
  0.2496367764464793  0.4999279799998888  0.1827742299965678   F   F   F
  0.0820476334098430  0.9374171254006214  0.1887298800136392   F   F   F
  0.4168193524269412  0.9374154383080224  0.1889763507298241   F   F   F
  0.5001945492364395  0.9998854774734839  0.2747288865927447   T   T   T
  0.3320471585895755  0.9373942752423698  0.2731935896711595   T   T   T
  0.1676659798714008  0.9374001110963218  0.2728077535409235   T   T   T
  0.2490952524951015  0.9999716426617468  0.3595858640000019   T   T   T
  0.0836598316410330  0.9374397759059176  0.3592943225001271   T   T   T
  0.4159023931934813  0.9373899617154844  0.3588191073645670   T   T   T
  0.4959876492889262  0.9995221289148175  0.4440976824296370   T   T   T
  0.3323736560349200  0.9372625031467864  0.4441950441074022   T   T   T
  0.1641563865081484  0.9376086692521782  0.4479217449934383   T   T   T
  0.4996261485864011  0.9999638794554073  0.1022212895025945   F   F   F
  0.8339437371848675  0.0624482785398897  0.1075580759875550   F   F   F
  0.6656689243728380  0.0624780056916450  0.1076592327669417   F   F   F
  0.7496377014008289  0.1248750966894079  0.1827574333080477   F   F   F
  0.5820735458319604  0.0624174442172745  0.1887352315057669   F   F   F
  0.9168252921289621  0.0624138005358219  0.1889639379559043   F   F   F
  0.5002293134706894  0.1249197807795390  0.2747408973512502   T   T   T
  0.8320703703525432  0.0623930032322856  0.2731850435013179   T   T   T
  0.6677402088787351  0.0623831890354209  0.2728169665299016   T   T   T
  0.7492851965405382  0.1246661334114306  0.3596794107894442   T   T   T
  0.5837366723210153  0.0623006275127677  0.3590344937864878   T   T   T
  0.9160906615462422  0.0623074713801446  0.3590660401652811   T   T   T
  0.9954737893446202  0.1247553814172998  0.4441241713822334   T   T   T
  0.8326434718754422  0.0621988753226818  0.4452841063164088   T   T   T
  0.6653645941066424  0.0621113668961316  0.4469992543056283   T   T   T
  0.4996213536236240  0.1249348955726433  0.1022183024833154   F   F   F
  0.8339388961320680  0.1874236234033546  0.1075519903559652   F   F   F
  0.6656669566206190  0.1874574838225769  0.1076541056651124   F   F   F
  0.7496375557706187  0.2499211919418656  0.1827775726101990   F   F   F
  0.5820467926301731  0.1874136002736648  0.1887331258771638   F   F   F
  0.9168211714113710  0.1874148173649246  0.1889752459503455   F   F   F
  0.5002447230553746  0.2499902986573073  0.2747977253378716   T   T   T
  0.8321411085669267  0.1874031481808257  0.2732412111483040   T   T   T
  0.6677011822100059  0.1874213591519551  0.2728638387170462   T   T   T
  0.7491263533537019  0.2497630224188882  0.3598309684755609   T   T   T
  0.5837310211910415  0.1873570375432247  0.3593508046041674   T   T   T
  0.9160474634522666  0.1873046660242506  0.3589689656797613   T   T   T
  0.9960684481274421  0.2493385915993147  0.4442150247710504   T   T   T
  0.8320242934137421  0.1872279308611144  0.4446406172553981   T   T   T
  0.6643961064295260  0.1868341804107165  0.4482164638383826   T   T   T
  0.4996265847195431  0.2499624135589542  0.1022211658925301   F   F   F
  0.8339432913754052  0.3124470264806618  0.1075580597257542   F   F   F
  0.6656786166489255  0.3124812578813660  0.1076589101753385   F   F   F
  0.7496359798815462  0.3748756411498491  0.1827578042801292   F   F   F
  0.5820751330297256  0.3124154754956550  0.1887345581865603   F   F   F
  0.9168256971425777  0.3124110138011744  0.1889624020058491   F   F   F
  0.5002803607520196  0.3749390810832980  0.2748592448033966   T   T   T
  0.8320580286194659  0.3124210300694684  0.2732923200109590   T   T   T
  0.6677092352758213  0.3124296569673355  0.2729479636827336   T   T   T
  0.7488493035042284  0.3747110367810426  0.3600305895444256   T   T   T
  0.5838950463241899  0.3123366375902295  0.3595136153080279   T   T   T
  0.9162810957763362  0.3123006960019827  0.3591896952566760   T   T   T
  0.9936698129433774  0.3745750181562478  0.4453530575553640   T   T   T
  0.8322672034799666  0.3119328555742023  0.4451074516695538   T   T   T
  0.6649479841457177  0.3122017607003973  0.4482158389967391   T   T   T
  0.4996231203952064  0.3749337364865255  0.1022171720136171   F   F   F
  0.8339311317052278  0.4374224703005467  0.1075522038351053   F   F   F
  0.6656706818776428  0.4374574332997483  0.1076540871022118   F   F   F
  0.7496383104150084  0.9999213865668750  0.1827756388646549   F   F   F
  0.5820474546648100  0.4374150382907018  0.1887310280212660   F   F   F
  0.9168210958579976  0.4374163027642837  0.1889749839040178   F   F   F
  0.0001610925619033  0.4999008363646800  0.2747990923491563   T   T   T
  0.8321618920357465  0.4373810367659334  0.2734080724236581   T   T   T
  0.6676379662762402  0.4374041712820816  0.2730564953146615   T   T   T
  0.7488243727787068  0.4999316103118326  0.3600644480292855   T   T   T
  0.5836789990254547  0.4373862455694543  0.3599699095629867   T   T   T
  0.9162711212722470  0.4373617914906855  0.3592203485839961   T   T   T
  0.9937254536451781  0.4993937896523856  0.4452591196549524   T   T   T
  0.8315633335800264  0.4372032899925278  0.4437876392408715   T   T   T
  0.6632229988580038  0.4372172385784008  0.4493758274964442   T   T   T
  0.4996261485864011  0.4999638794554073  0.1022212895025945   F   F   F
  0.8339437371848675  0.5624482785398897  0.1075580759875550   F   F   F
  0.6656689243728380  0.5624780056916450  0.1076592327669417   F   F   F
  0.7496377014008289  0.6248750966894079  0.1827574333080477   F   F   F
  0.5820735458319604  0.5624174442172745  0.1887352315057669   F   F   F
  0.9168252921289621  0.5624138005358219  0.1889639379559043   F   F   F
  0.5002578455669859  0.6248121473499757  0.2748023460186182   T   T   T
  0.8320465567876284  0.5623683955535165  0.2733022261444614   T   T   T
  0.6677118736393326  0.5623727231584371  0.2729590500664329   T   T   T
  0.7491353348430827  0.6249154886362247  0.3598876982956334   T   T   T
  0.5839230416929916  0.5623970434841669  0.3595678246477786   T   T   T
  0.9161967474002016  0.5623951423197742  0.3592021889298423   T   T   T
  0.9953330346958060  0.6248467386573281  0.4442532879017737   T   T   T
  0.8319906198777507  0.5625344003950917  0.4452772632503950   T   T   T
  0.6648294526688329  0.5623585812305668  0.4483895783521435   T   T   T
  0.4996213536236240  0.6249348955726433  0.1022183024833154   F   F   F
  0.8339388961320680  0.6874236234033475  0.1075519903559652   F   F   F
  0.6656669566206190  0.6874574838225698  0.1076541056651124   F   F   F
  0.7496375557706187  0.7499211919418656  0.1827775726101990   F   F   F
  0.5820467926301731  0.6874136002736577  0.1887331258771638   F   F   F
  0.9168211714113710  0.6874148173649175  0.1889752459503455   F   F   F
  0.5002295722337161  0.7498580542992843  0.2747500310557580   T   T   T
  0.8321509280557252  0.6873670877058548  0.2732570854387085   T   T   T
  0.6677268219812983  0.6873649691024326  0.2728653602559329   T   T   T
  0.7493242609517329  0.7500279949179008  0.3596959352165691   T   T   T
  0.5837450805174645  0.6874007252021804  0.3593594867083797   T   T   T
  0.9160523778387651  0.6874096420157781  0.3589993584756854   T   T   T
  0.9960067214996713  0.7494435424214354  0.4441704867500882   T   T   T
  0.8320692580997983  0.6872827245911332  0.4445893974029089   T   T   T
  0.6643759377961004  0.6879449478335170  0.4481621979881911   T   T   T
  0.4996265847195431  0.7499624135589542  0.1022211658925301   F   F   F
  0.8339432913754052  0.8124470264806618  0.1075580597257542   F   F   F
  0.6656786166489255  0.8124812578813660  0.1076589101753385   F   F   F
  0.7496359798815462  0.8748756411498491  0.1827578042801292   F   F   F
  0.5820751330297256  0.8124154754956550  0.1887345581865603   F   F   F
  0.9168256971425777  0.8124110138011744  0.1889624020058491   F   F   F
  0.5001910595142818  0.8748745716087788  0.2747317642955978   T   T   T
  0.8321029702799531  0.8123739617383311  0.2732034756442872   T   T   T
  0.6677565630543054  0.8123764324349776  0.2728211721620953   T   T   T
  0.7493504605745958  0.8748438619827898  0.3596850201474179   T   T   T
  0.5837593615495701  0.8124515785842671  0.3590419607609239   T   T   T
  0.9160885042872604  0.8124486845585566  0.3590990868608911   T   T   T
  0.9958164207554818  0.8748324763780589  0.4439494656418780   T   T   T
  0.8326801627755673  0.8123609337647529  0.4453214583430125   T   T   T
  0.6654161946246007  0.8126259900977566  0.4470633424984597   T   T   T
  0.4996231203952064  0.8749337364865255  0.1022171720136171   F   F   F
  0.8339311317052278  0.9374224703005396  0.1075522038351053   F   F   F
  0.6656706818776428  0.9374574332997412  0.1076540871022118   F   F   F
  0.7496383104150084  0.4999213865668750  0.1827756388646549   F   F   F
  0.5820474546648100  0.9374150382906947  0.1887310280212660   F   F   F
  0.9168210958579976  0.9374163027642766  0.1889749839040178   F   F   F
  0.0001888797142352  0.9998935347812178  0.2747620670795231   T   T   T
  0.8321173929708843  0.9373833731884813  0.2731874356486754   T   T   T
  0.6677253776482228  0.9373769015585464  0.2728039772277691   T   T   T
  0.7493316279247891  0.9998614036982537  0.3596773634241132   T   T   T
  0.5835923544506177  0.9373808590501903  0.3592311521984132   T   T   T
  0.9159195961344556  0.9373712275808408  0.3589384289187581   T   T   T
  0.9961647466955436  0.9994377616283774  0.4438413787913865   T   T   T
  0.8322472139696778  0.9372759031090473  0.4450950025367207   T   T   T
  0.6645134586297528  0.9373608616106571  0.4479061463998678   T   T   T
  0.4054220745019208  0.9999222115495812  0.1371706404740110   F   F   F
  0.2498130538845231  0.9999469596221715  0.1043552466225179   F   F   F
  0.0938777968594522  0.9999465964224399  0.1371098030237761   F   F   F
  0.1543635830516692  0.1248899271375592  0.2204647086472562   F   F   F
  0.9995670073461937  0.1248966516782701  0.2080976692853085   F   F   F
  0.3446973568903360  0.1248674306196307  0.2206598414842134   F   F   F
  0.4004371177611425  0.1248906507816769  0.3066454439966788   T   T   T
  0.2495672034107777  0.1249491037312802  0.2919109366253858   T   T   T
  0.0995395850351276  0.1249862272682694  0.3071124807504333   T   T   T
  0.1516909044601235  0.1250839452080440  0.3937098388859691   T   T   T
  0.4996067133516889  0.1248156767557922  0.3756946074449863   T   T   T
  0.3475050750490080  0.1245853241106280  0.3920934648794807   T   T   T
  0.3999289288043664  0.1254848404539094  0.4776764271525341   T   T   T
  0.2506368206635212  0.1252338549809026  0.4634579817063101   T   T   T
  0.0946049610327057  0.1242981235881161  0.4729152245669659   T   T   T
  0.4054214644049878  0.1249282036816339  0.1371697875501496   F   F   F
  0.2498118312390858  0.1249501818115135  0.1042602234590362   F   F   F
  0.0938664600244081  0.1249385922007349  0.1371069089706722   F   F   F
  0.1543560911150905  0.2498790211591952  0.2204709660202369   F   F   F
  0.9995706735895027  0.2499094862395950  0.2080999580462830   F   F   F
  0.3447055266517580  0.2498932390428195  0.2206623926809286   F   F   F
  0.4004858171306654  0.2500594655782898  0.3067909299037593   T   T   T
  0.2495739248728921  0.2499884823876579  0.2919937334067297   T   T   T
  0.0995227046112655  0.2500095807286826  0.3072153295813084   T   T   T
  0.1517576555197059  0.2500777112546034  0.3939375368128188   T   T   T
  0.4996633561200013  0.2497520193323606  0.3761910941562260   T   T   T
  0.3474207361441464  0.2502903563314489  0.3924129844119872   T   T   T
  0.4007557623574426  0.2464021453818284  0.4779546579119116   T   T   T
  0.2505538442246606  0.2495220610805877  0.4637361448370850   T   T   T
  0.0948795444374633  0.2513268088197754  0.4735735455128693   T   T   T
  0.4054229972694188  0.2499207711709062  0.1371716336629376   F   F   F
  0.2498138581555835  0.2499451823925298  0.1043557657097551   F   F   F
  0.0938776901322669  0.2499459403779412  0.1371098843944125   F   F   F
  0.1543617400249389  0.3748920346981564  0.2204674382050342   F   F   F
  0.9995672189247742  0.3748993922795947  0.2080981530608312   F   F   F
  0.3446956533108718  0.3748674624887514  0.2206599019871973   F   F   F
  0.4005695106938806  0.3749770424577460  0.3070104198879825   T   T   T
  0.2496034230798095  0.3749639038803765  0.2920554078512148   T   T   T
  0.0993609913319583  0.3750037980284861  0.3073355340964199   T   T   T
  0.1520632666703089  0.3751156630472501  0.3938506103553621   T   T   T
  0.4997621309328293  0.3747235081833167  0.3766255579307194   T   T   T
  0.3473414319120906  0.3747741439429717  0.3928466731557849   T   T   T
  0.4024803701585511  0.3732701204046937  0.4776961217362629   T   T   T
  0.2512333488240059  0.3755057312742780  0.4645177650739956   T   T   T
  0.0945721774536649  0.3745456978331947  0.4722598009197567   T   T   T
  0.4054204481464510  0.3749288137657416  0.1371674470345781   F   F   F
  0.2498106243523637  0.3749504007233213  0.1042578114000037   F   F   F
  0.0938682935435935  0.3749385903486697  0.1371059653233644   F   F   F
  0.1543531827738107  0.9998787448957458  0.2204712064644667   F   F   F
  0.9995677263797802  0.9999081653989563  0.2081008624749074   F   F   F
  0.3447067510723798  0.9998918897834912  0.2206650007889195   F   F   F
  0.4005864686646063  0.4998143151777180  0.3070384665493593   T   T   T
  0.2496359393807325  0.4998798928995044  0.2920556038187102   T   T   T
  0.0993677285952647  0.4998931109539025  0.3072909178946162   T   T   T
  0.1520305316459445  0.5000651547418954  0.3937872638292084   T   T   T
  0.4997627754954902  0.4999801944530785  0.3767030973349635   T   T   T
  0.3476423158596413  0.0002120158953166  0.3923057711984325   T   T   T
  0.4022998082278990  0.5007010338741269  0.4778556848813502   T   T   T
  0.2510211800845228  0.5000491989144722  0.4641554431964494   T   T   T
  0.0946054155981781  0.0010249722083632  0.4733334736756305   T   T   T
  0.4054220745019208  0.4999222115495883  0.1371706404740110   F   F   F
  0.2498130538845231  0.4999469596221715  0.1043552466225179   F   F   F
  0.0938777968594522  0.4999465964224399  0.1371098030237761   F   F   F
  0.1543635830516692  0.6248899271375592  0.2204647086472562   F   F   F
  0.9995670073461937  0.6248966516782701  0.2080976692853085   F   F   F
  0.3446973568903360  0.6248674306196307  0.2206598414842134   F   F   F
  0.4005016727924011  0.6247378625303088  0.3068086581169122   T   T   T
  0.2496098344374780  0.6248675298315545  0.2919852430109475   T   T   T
  0.0994952425133753  0.6248827998168667  0.3071657868740316   T   T   T
  0.1518380492496014  0.6251202700427516  0.3937727151673928   T   T   T
  0.4996830482922289  0.6249873609591827  0.3760992890804213   T   T   T
  0.3475181961872057  0.6246522529244370  0.3924201439279283   T   T   T
  0.4011093052932222  0.6278677150320640  0.4779539550126395   T   T   T
  0.2506686765182987  0.6255865420424455  0.4639389602185626   T   T   T
  0.0947753747047151  0.6243037762002492  0.4728670740230104   T   T   T
  0.4054214644049878  0.6249282036816339  0.1371697875501496   F   F   F
  0.2498118312390858  0.6249501818115135  0.1042602234590362   F   F   F
  0.0938664600244081  0.6249385922007349  0.1371069089706722   F   F   F
  0.1543560911150905  0.7498790211591952  0.2204709660202369   F   F   F
  0.9995706735895027  0.7499094862395950  0.2080999580462830   F   F   F
  0.3447055266517580  0.7498932390428195  0.2206623926809286   F   F   F
  0.4004499765558655  0.7499028594845936  0.3067012832615770   T   T   T
  0.2495718907457020  0.7498809390263614  0.2919648507518924   T   T   T
  0.0995127348855921  0.7498893410887926  0.3071185591030471   T   T   T
  0.1516692506863768  0.7500048842886103  0.3937539059140066   T   T   T
  0.4996271801769213  0.7499466739313383  0.3758050656632714   T   T   T
  0.3475054958776592  0.7502384606700468  0.3922917041545329   T   T   T
  0.3996375449538443  0.7487972108350266  0.4780745422915223   T   T   T
  0.2504316542221666  0.7499282735779867  0.4633557882470090   T   T   T
  0.0946428601286163  0.7513932394606010  0.4734443689014566   T   T   T
  0.4054229972694188  0.7499207711709062  0.1371716336629376   F   F   F
  0.2498138581555835  0.7499451823925369  0.1043557657097551   F   F   F
  0.0938776901322669  0.7499459403779412  0.1371098843944125   F   F   F
  0.1543617400249389  0.8748920346981564  0.2204674382050342   F   F   F
  0.9995672189247742  0.8748993922795947  0.2080981530608312   F   F   F
  0.3446956533108718  0.8748674624887514  0.2206599019871973   F   F   F
  0.4004546364454669  0.8748627709444790  0.3067207875006528   T   T   T
  0.2495795666399550  0.8749071475448059  0.2919541876400792   T   T   T
  0.0995111026040859  0.8749130257693458  0.3070469645369325   T   T   T
  0.1516957556547942  0.8750824471022851  0.3936402763785352   T   T   T
  0.4996684566855226  0.8749494798762585  0.3761366102026163   T   T   T
  0.3477153648280371  0.8746422057032782  0.3923041243708237   T   T   T