Cu	N	Ru	Ta                              
   1.00000000000000     
    18.1096308199999996    0.0000000000000000    0.0000000000000000
     0.0000000000000000   23.3551997799999995    0.0000000000000000
     0.0000000000000000    0.0000000000000000   30.4818171199999988
   Cu   N    Ru   Ta
     4   240    36   204
Selective dynamics
Direct
  0.5824653575252432  0.4399328934488781  0.6158889241365531   T   T   T
  0.1136131861964947  0.0697137877156993  0.5899406942477717   T   T   T
  0.4676697730820605  0.4906283915117253  0.6295135400909457   T   T   T
  0.4698178511732577  0.3901608123123896  0.6344179641488861   T   T   T
  0.0002228040411025  0.3744490839754148  0.4734521940512815   T   T   T
  0.9996364664724006  0.8741266696165931  0.4735947849825988   T   T   T
  0.0007546365873381  0.7508357331636546  0.3024712727493721   F   F   F
  0.0007546365873381  0.2508357331636546  0.3024712727493721   F   F   F
  0.0007971388342227  0.6259226757939587  0.3025555019798603   F   F   F
  0.0007971388342227  0.1259226757939587  0.3025555019798603   F   F   F
  0.0009289261701255  0.8759179472966139  0.3027706837052264   F   F   F
  0.0009289261701255  0.3759179472966139  0.3027706837052264   F   F   F
  0.0009959888293309  0.0008861705399639  0.3028813086718003   F   F   F
  0.0009959888293309  0.5008861705399639  0.3028813086718003   F   F   F
  0.0016846802419277  0.0003336566020442  0.4734349924170085   T   T   T
  0.0022606809830147  0.5005178161948963  0.4724864322088503   T   T   T
  0.5620019633044998  0.7606639637901454  0.5812718255723573   T   T   T
  0.5626897574315803  0.2636823292761423  0.5803971911130850   T   T   T
  0.5944407181460178  0.8759335502460033  0.2316533513143781   F   F   F
  0.5944407181460178  0.3759335502460033  0.2316533513143781   F   F   F
  0.5944879250719026  0.6260651198762730  0.2317376786361365   F   F   F
  0.5944879250719026  0.1260651198762730  0.2317376786361365   F   F   F
  0.5945319922319641  0.7509793277392376  0.2318466107902424   F   F   F
  0.5945319922319641  0.2509793277392376  0.2318466107902424   F   F   F
  0.5946973191803622  0.0011281697544092  0.2317203788144795   F   F   F
  0.5946973191803622  0.5011281697544092  0.2317203788144795   F   F   F
  0.5991694013011909  0.7515638490757989  0.4022950556740723   T   T   T
  0.5996005879801520  0.2515981742197181  0.4021385953088561   T   T   T
  0.5998916966855340  0.6265618149816810  0.4016006201041584   T   T   T
  0.6001481590488614  0.8759982551442981  0.4011552057710382   T   T   T
  0.6001157946026791  0.1264248900975153  0.4012164571765332   T   T   T
  0.6005928732870780  0.3759879872757498  0.4014377530334753   T   T   T
  0.6008084150888928  0.0013036628516099  0.4007304274776922   T   T   T
  0.6009001290888485  0.5012870501496971  0.4011478963292133   T   T   T
  0.6034582472426423  0.4983694550882473  0.5711208141409779   T   T   T
  0.6040407405954320  0.3788909783006953  0.5720482829010637   T   T   T
  0.6039432277635416  0.8761419615346971  0.5693596013301192   T   T   T
  0.6039832001573999  0.9980767512878087  0.5688592761059833   T   T   T
  0.6134592074115993  0.6413361718545425  0.5671589597180582   T   T   T
  0.6144889091396873  0.1414002674402106  0.5674306309782089   T   T   T
  0.0634599157918673  0.1390932079254995  0.5766778812550308   T   T   T
  0.6479744478316884  0.7511586163754840  0.4874760683232904   T   T   T
  0.6485581865331400  0.2499560981127600  0.4873190593483983   T   T   T
  0.6520387862944312  0.1258369303514708  0.4848598857556812   T   T   T
  0.6524140634600428  0.6265376307920627  0.4852838419003263   T   T   T
  0.6528340323158645  0.8794545214425502  0.4845637959089461   T   T   T
  0.6535797896106089  0.3788475320029061  0.4859987311264934   T   T   T
  0.6546148140880237  0.9990394626901773  0.4857035794235561   T   T   T
  0.6549923804575926  0.7511371041673840  0.3152775575080256   F   F   F
  0.6549923804575926  0.2511371041673840  0.3152775575080256   F   F   F
  0.6552059756456146  0.6260466862938543  0.3150601846403305   F   F   F
  0.6552059756456146  0.1260466862938543  0.3150601846403305   F   F   F
  0.6552570788408829  0.8758846061131820  0.3149041322638837   F   F   F
  0.6552570788408829  0.3758846061131820  0.3149041322638837   F   F   F
  0.6554052259801963  0.0012023099894023  0.3149218625060755   F   F   F
  0.6554052259801963  0.5012023099894023  0.3149218625060755   F   F   F
  0.6554057105497234  0.4991093230055157  0.4865438789409719   T   T   T
  0.0699301307071307  0.6322160126555915  0.5733092847865882   T   T   T
  0.7271610180683606  0.7619653385141856  0.5570772780572255   T   T   T
  0.7278529996389598  0.2640715608485074  0.5565880203770651   T   T   T
  0.7501714089331012  0.7508821902262109  0.3869686264518129   T   T   T
  0.7503837756312706  0.8759246053428527  0.1980143607002915   F   F   F
  0.7503837756312706  0.3759246053428527  0.1980143607002915   F   F   F
  0.7504065850415813  0.0010474442621131  0.1995662990185920   F   F   F
  0.7504065850415813  0.5010474442621131  0.1995662990185920   F   F   F
  0.7504116177228610  0.6259067547141299  0.1982016356247982   F   F   F
  0.7504116177228610  0.1259067547141299  0.1982016356247982   F   F   F
  0.7504539896523426  0.7509563452768688  0.1993173260006742   F   F   F
  0.7504539896523426  0.2509563452768688  0.1993173260006742   F   F   F
  0.7506084395390457  0.6259624353644354  0.3867603134592149   T   T   T
  0.7505757491530032  0.2509092288819050  0.3868880691422756   T   T   T
  0.7508084049969715  0.8761756715944544  0.3858685436749748   T   T   T
  0.7509109450626165  0.1259105503785717  0.3866634137843324   T   T   T
  0.7510022761224512  0.3761362220764793  0.3860529766197410   T   T   T
  0.7513367827949089  0.0009100990308090  0.3865842326200288   T   T   T
  0.7512754955919105  0.5009761577651879  0.3866923384287999   T   T   T
  0.7557667050900810  0.8817378692943095  0.5559997505335831   T   T   T
  0.7582554276689132  0.3833442753743449  0.5566277711016563   T   T   T
  0.7616916367659464  0.9980482378907120  0.5550601686453401   T   T   T
  0.7658220589852019  0.4978870232010998  0.5565310338144497   T   T   T
  0.7697237780212243  0.1392235599532106  0.5565266346841951   T   T   T
  0.7722022770705554  0.6386545320449434  0.5574235703241680   T   T   T
  0.0800597250267256  0.7432692038720865  0.5715280337774900   T   T   T
  0.0793704706004729  0.2466515713454263  0.5726068304860337   T   T   T
  0.0819712478448800  0.9958026409987168  0.5767629882995077   T   T   T
  0.8457971856104365  0.7508865770875488  0.3147238720130474   F   F   F
  0.8457971856104365  0.2508865770875488  0.3147238720130474   F   F   F
  0.8459094352758285  0.6257770200071491  0.3148105564777453   F   F   F
  0.8459094352758285  0.1257770200071491  0.3148105564777453   F   F   F
  0.8459894799777032  0.8758569369000710  0.3146601051453359   F   F   F
  0.8459894799777032  0.3758569369000710  0.3146601051453359   F   F   F
  0.8461046449841095  0.7541902662425646  0.4849818768075876   T   T   T
  0.8462370857983075  0.0009253177109869  0.3148622358114821   F   F   F
  0.8462370857983075  0.5009253177109869  0.3148622358114821   F   F   F
  0.8466044610393110  0.2543032690576363  0.4846713937048394   T   T   T
  0.8488126404784737  0.8727718100942820  0.4849373521148572   T   T   T
  0.8492793161304477  0.1247591644249524  0.4844645858381114   T   T   T
  0.8495460903616467  0.6248564947203695  0.4847162018673933   T   T   T
  0.8496108392940501  0.3730052480431909  0.4850242780466242   T   T   T
  0.8513715511603497  0.0005715777488157  0.4856274617187101   T   T   T
  0.8519530441152653  0.5011532968965098  0.4858183390478796   T   T   T
  0.0881638831853699  0.8631992482588166  0.5732473009280509   T   T   T
  0.0887983198735051  0.3642592782142083  0.5738400716066794   T   T   T
  0.8951567665311259  0.8703997120510674  0.5709421733150997   T   T   T
  0.8963596404856894  0.3707237507640407  0.5715328158958549   T   T   T
  0.8964450749818298  0.2498604909898964  0.5669906017187153   T   T   T
  0.8969757229684887  0.7489510628887217  0.5672161259801846   T   T   T
  0.8984993795639276  0.1081176771215752  0.5678673190655480   T   T   T
  0.9005383405585581  0.7504640342816088  0.4005985464207512   T   T   T
  0.9011134082489138  0.6256746876518867  0.4011628446261869   T   T   T
  0.9010671828449742  0.2504231526168450  0.4006034617520582   T   T   T
  0.9017236043297377  0.1255329140799715  0.4013592385183110   T   T   T
  0.9018878877874411  0.8758501920314881  0.4008209189161926   T   T   T
  0.9021212695159165  0.3759236944240039  0.4008360888604197   T   T   T
  0.9022778910898667  0.5005987978323883  0.4012090317025655   T   T   T
  0.9024490077087678  0.0006217688600275  0.4012807182964293   T   T   T
  0.9028187705297743  0.6067592576820119  0.5672524258510311   T   T   T
  0.9063370116785165  0.7509661375287990  0.2314450664875594   F   F   F
  0.9063370116785165  0.2509661375287990  0.2314450664875594   F   F   F
  0.9065036119825223  0.6258452416457985  0.2314281613274076   F   F   F
  0.9065036119825223  0.1258452416457985  0.2314281613274076   F   F   F
  0.9065431196901699  0.0009511492176983  0.2315080614196674   F   F   F
  0.9065431196901699  0.5009511492176983  0.2315080614196674   F   F   F
  0.9067333030259945  0.8759844438376305  0.2313964578368939   F   F   F
  0.9067333030259945  0.3759844438376305  0.2313964578368939   F   F   F
  0.9109882741307375  0.9854060858065834  0.5702462448691108   T   T   T
  0.9236746432008021  0.4841466169590248  0.5699318029963989   T   T   T
  0.0952407101582224  0.7510020395980561  0.2320892091881959   F   F   F
  0.0952407101582224  0.2510020395980561  0.2320892091881959   F   F   F
  0.0953260277450525  0.0008979764762245  0.2323666739458474   F   F   F
  0.0953260277450525  0.5008979764762245  0.2323666739458474   F   F   F
  0.0953735919394063  0.6258547564434522  0.2322437075234305   F   F   F
  0.0953735919394063  0.1258547564434522  0.2322437075234305   F   F   F
  0.0955543013107132  0.8759987254538473  0.2323923499085652   F   F   F
  0.0955543013107132  0.3759987254538473  0.2323923499085652   F   F   F
  0.0994125206702284  0.7507674684692749  0.4016456325560768   T   T   T
  0.0994291989522090  0.6251121538208392  0.4016304310703590   T   T   T
  0.9982943420135530  0.7503757719011218  0.4721617707564817   T   T   T
  0.9984954010853287  0.6245402203514540  0.4719694450481281   T   T   T
  0.0996656133311686  0.1248451401757842  0.4024828675704377   T   T   T
  0.9987616101210627  0.2501939327447384  0.4723619089609579   T   T   T
  0.9991472691983244  0.1242005634854857  0.4731638090883939   T   T   T
  0.0997499348131497  0.2503641818604320  0.4021644553090188   T   T   T
  0.1001879504174802  0.8756634591734639  0.4030616807405071   T   T   T
  0.1004789437855364  0.3754992438253191  0.4029014024795831   T   T   T
  0.1007187424672937  0.0010775147867449  0.4034655851141900   T   T   T
  0.1008803896643273  0.5011269428590364  0.4028281823568590   T   T   T
  0.1038777579968614  0.5025069106569099  0.5669655050632716   T   T   T
  0.1482063920503815  0.6283569514144084  0.4860410760568249   T   T   T
  0.1486149736794991  0.7459713667495924  0.4869811984547808   T   T   T
  0.1491918650584384  0.2458908033238104  0.4873327943529037   T   T   T
  0.1509105327630842  0.1264954243344709  0.4883633045481722   T   T   T
  0.1532700559137487  0.8750229307359075  0.4882201015117876   T   T   T
  0.1537283360551351  0.3761523084897967  0.4882296172966938   T   T   T
  0.1550671719576246  0.5013250060603727  0.4871156062043813   T   T   T
  0.1550515420831349  0.0008074507978748  0.4895879257253058   T   T   T
  0.1554278840897965  0.7509669489112838  0.3157714680232928   F   F   F
  0.1554278840897965  0.2509669489112767  0.3157714680232928   F   F   F
  0.1555300833018336  0.8760083006234964  0.3161854069282626   F   F   F
  0.1555300833018336  0.3760083006234964  0.3161854069282626   F   F   F
  0.1556347359045702  0.6258770940815310  0.3158690852351640   F   F   F
  0.1556347359045702  0.1258770940815310  0.3158690852351640   F   F   F
  0.1557688557010550  0.0008265358541948  0.3160543218953578   F   F   F
  0.1557688557010550  0.5008265358541948  0.3160543218953578   F   F   F
  0.2048974300548524  0.1176883126181595  0.5727939788340503   T   T   T
  0.2107260928768650  0.6136284567232032  0.5656758745061881   T   T   T
  0.2217182053595065  0.7512027719264104  0.5628201615365223   T   T   T
  0.2217036139164436  0.2516413375674365  0.5629483429637501   T   T   T
  0.2500791985270265  0.7511983966413116  0.3875477640139856   T   T   T
  0.2502271638063799  0.2513608723230058  0.3877063530122775   T   T   T
  0.2504979518546172  0.6254827267182712  0.3887002009170793   T   T   T
  0.2506886730670530  0.7509740783728773  0.1986783637654739   F   F   F
  0.2506886730670530  0.2509740783728773  0.1986783637654739   F   F   F
  0.2507303928573421  0.8760426103278647  0.2004520155719618   F   F   F
  0.2507303928573421  0.3760426103278647  0.2004520155719618   F   F   F
  0.2507787477911734  0.6260460958471867  0.2004465916827201   F   F   F
  0.2507787477911734  0.1260460958471867  0.2004465916827201   F   F   F
  0.2507842901460080  0.0010521164550710  0.1987081864626035   F   F   F
  0.2507842901460080  0.5010521164550710  0.1987081864626035   F   F   F
  0.2507302946967082  0.8753917955291375  0.3886678982054120   T   T   T
  0.2506610764170699  0.1253962003757678  0.3885382110728435   T   T   T
  0.2509642670236342  0.3755542523706246  0.3888097742907913   T   T   T
  0.2509398704219349  0.0012322495738500  0.3877699663504436   T   T   T
  0.2512129505618585  0.5013567844727550  0.3880962341305280   T   T   T
  0.2805401181147243  0.5006831220148346  0.5640903872396016   T   T   T
  0.2801091151213402  0.0029628410747924  0.5590460594193741   T   T   T
  0.2884240556602321  0.3657419213567201  0.5646061603630433   T   T   T
  0.2884850780860477  0.8665531187674431  0.5639986530293908   T   T   T
  0.3450226987033193  0.7520444439519270  0.4857551995648476   T   T   T
  0.3457709857389588  0.7509801434034244  0.3160634932646005   F   F   F
  0.3457709857389588  0.2509801434034244  0.3160634932646005   F   F   F
  0.3458124879654534  0.8762438730036024  0.3160546332285037   F   F   F
  0.3458124879654534  0.3762438730036024  0.3160546332285037   F   F   F
  0.3458692307014104  0.0011300682609701  0.3160825482309733   F   F   F
  0.3458692307014104  0.5011300682609701  0.3160825482309733   F   F   F
  0.3458914509224655  0.6260993829100983  0.3163092197569100   F   F   F
  0.3458914509224655  0.1260993829100983  0.3163092197569100   F   F   F
  0.3457563855629697  0.2523399404193444  0.4858209569171398   T   T   T
  0.3477557533931715  0.6268418871206293  0.4878726070860510   T   T   T
  0.3490973115860787  0.1273934030213143  0.4876957810822471   T   T   T
  0.3526396078173384  0.4973682486329896  0.4878421035265604   T   T   T
  0.3525478791018096  0.9973902339679304  0.4869234088811091   T   T   T
  0.3528954909518434  0.8788471743159454  0.4864345536105390   T   T   T
  0.3533877788023312  0.3787750213157121  0.4868170054803263   T   T   T
  0.3880304841479205  0.7535726508070297  0.5652049294304591   T   T   T
  0.3889679831892811  0.2534397288710873  0.5656315842261873   T   T   T
  0.4007167845867730  0.7517211756499416  0.4025345060518146   T   T   T
  0.4009763322655447  0.2519838267843107  0.4024240244427745   T   T   T
  0.4013760667752087  0.6260439687512760  0.4029819751030164   T   T   T
  0.4013837398346723  0.1261897969081809  0.4027968196356316   T   T   T
  0.4018973272298488  0.8757112346254079  0.4018992399472382   T   T   T
  0.4019945453941318  0.5016441240440850  0.4022631346890699   T   T   T
  0.4019014335667154  0.0017403884759972  0.4019753041171789   T   T   T
  0.4021691817994840  0.3759690774856265  0.4020070854696270   T   T   T
  0.4059113337573805  0.8760558925948985  0.2324750129594619   F   F   F
  0.4059113337573805  0.3760558925948985  0.2324750129594619   F   F   F
  0.4059234726022964  0.6261621252550071  0.2326545521246786   F   F   F
  0.4059234726022964  0.1261621252550071  0.2326545521246786   F   F   F
  0.4060644417929637  0.7510364413590125  0.2325227387887452   F   F   F
  0.4060644417929637  0.2510364413590125  0.2325227387887452   F   F   F
  0.4061374416245584  0.0011248655651599  0.2324172293308493   F   F   F
  0.4061374416245584  0.5011248655651599  0.2324172293308493   F   F   F
  0.4158411381050052  0.6139534469426065  0.5729868285913738   T   T   T
  0.4193223516775831  0.1143033727982917  0.5732617180188548   T   T   T
  0.4211255166280055  0.4963376355099384  0.5742876410186674   T   T   T
  0.4254048141375205  0.9944046595701524  0.5721447372296903   T   T   T
  0.4336567460732756  0.3846362835569320  0.5770716343497848   T   T   T
  0.4351299069352124  0.8878596202868467  0.5746311866298921   T   T   T
  0.4982737545215123  0.7519534002784766  0.4735441437336458   T   T   T
  0.4989913446959947  0.2520358029633971  0.4733503941500808   T   T   T
  0.5004630585837617  0.7510598909550410  0.3031888444713573   F   F   F
  0.5004630585837617  0.2510598909550410  0.3031888444713573   F   F   F
  0.5004977600090044  0.6261199205207575  0.3031516629609641   F   F   F
  0.5004977600090044  0.1261199205207575  0.3031516629609641   F   F   F
  0.5005209432535551  0.8761149809355189  0.3028206587442455   F   F   F
  0.5005209432535551  0.3761149809355189  0.3028206587442455   F   F   F
  0.5006083602757840  0.0011215981985515  0.3028334437431965   F   F   F
  0.5006083602757840  0.5011215981985515  0.3028334437431965   F   F   F
  0.5015664643079160  0.6273488629112984  0.4741709476095845   T   T   T
  0.5020977462695773  0.8768745131446499  0.4726505950499888   T   T   T
  0.5019591721878626  0.1273238027106045  0.4736452701760499   T   T   T
  0.5026156497021312  0.3769003388409047  0.4718931308727786   T   T   T
  0.5028904187453627  0.0017233233758938  0.4723020538085847   T   T   T
  0.5032181012511494  0.5019004713354902  0.4725886546882708   T   T   T
  0.0034960398889603  0.4988179602996710  0.5404365623287573   T   T   T
  0.9934617542639133  0.9956090776308660  0.5422726108832878   T   T   T
  0.6254341924073239  0.7994187323302447  0.5471455509144115   T   T   T
  0.6256979578721082  0.3027973379059878  0.5456176789335875   T   T   T
  0.6276622252025479  0.5679615795082966  0.5387113638935114   T   T   T
  0.6274298122852421  0.0676754066183947  0.5392144724585106   T   T   T
  0.6986312162446573  0.1903104737751790  0.5378660601641120   T   T   T
  0.6993445704284331  0.6878254647459121  0.5382067870069230   T   T   T
  0.8048422675025085  0.0666276182725359  0.5372730387391869   T   T   T
  0.8070275681492508  0.5666701899381049  0.5372566089147324   T   T   T
  0.8429576867814250  0.9362816102391549  0.5360555272726429   T   T   T
  0.8468052029267490  0.4374607773953880  0.5366436076732812   T   T   T
  0.8701399241402616  0.1784855540408783  0.5414824001567985   T   T   T
  0.8739132361067787  0.6774314517418223  0.5419002403485640   T   T   T
  0.9909204914776163  0.1193712318275089  0.5406792879054779   T   T   T
  0.9943945564228264  0.2556697412996991  0.5392636835275479   T   T   T
  0.9951533799151239  0.7539874820468354  0.5392298013979264   T   T   T
  0.9966550690936432  0.6166590583251323  0.5394975332554921   T   T   T
  0.1158000982425854  0.9334835668654798  0.5447693590293833   T   T   T
  0.1203350823713117  0.4309103696647318  0.5426739267985075   T   T   T
  0.1399350640634904  0.8040220650718614  0.5407164158805235   T   T   T
  0.1408601928232144  0.3049524458617035  0.5403153086640884   T   T   T
  0.2016942949756480  0.5426550018798014  0.5423893335954439   T   T   T
  0.2158901357201711  0.0542978727523349  0.5357019854099517   T   T   T
  0.2983850376381997  0.7956005661081067  0.5407964332015439   T   T   T
  0.2990125457058495  0.2950561812671086  0.5409328228960657   T   T   T
  0.3606396737580133  0.5550753364357218  0.5414331471091154   T   T   T
  0.3665732730419992  0.0555260027572885  0.5411773929066185   T   T   T
  0.3759500818142065  0.6791123957672569  0.5418428431205103   T   T   T
  0.3780553484651403  0.1788126855162676  0.5420608788613313   T   T   T
  0.4870182142547475  0.7517725257616560  0.5417384748089275   T   T   T
  0.4881688122368103  0.2531561938252656  0.5415340849124641   T   T   T
  0.5082577995044327  0.4990141952545605  0.5397864923138037   T   T   T
  0.5093973965643802  0.9977555084419758  0.5396362575402888   T   T   T
  0.5105341956251852  0.3826512309545567  0.5391436606700863   T   T   T
  0.5109786680917141  0.8822185337030943  0.5402253050543928   T   T   T
  0.0003201259008095  0.7508804923058897  0.3689879729788228   T   T   T
  0.0003734108986975  0.6255559416239653  0.3691217823765508   T   T   T
  0.0010343750342656  0.7509675273691911  0.1970340395507222   F   F   F
  0.0010343750342656  0.2509675273691911  0.1970340395507222   F   F   F
  0.0009077152270442  0.2506776175027166  0.3691356028253427   T   T   T
  0.0009624524949580  0.1255296829766055  0.3693673641691260   T   T   T
  0.0013074606674977  0.0009931951008113  0.1970949867046485   F   F   F
  0.0013074606674977  0.5009931951008113  0.1970949867046485   F   F   F
  0.0014056432322107  0.6258753569951239  0.1970772590869743   F   F   F
  0.0014056432322107  0.1258753569951239  0.1970772590869743   F   F   F
  0.0016300205284878  0.8760244032474702  0.1970602374639512   F   F   F
  0.0016300205284878  0.3760244032474702  0.1970602374639512   F   F   F
  0.0016793705561156  0.8757830303788349  0.3694727499200966   T   T   T
  0.0019379131697741  0.5006459388153395  0.3695834945547979   T   T   T
  0.0018818561424318  0.3757692838854201  0.3694342477183942   T   T   T
  0.0021375345166145  0.0005849085643381  0.3697676876196850   T   T   T
  0.5828489970288615  0.8134981673875430  0.2835797008416634   F   F   F
  0.5828489970288615  0.3134981673875430  0.2835797008416634   F   F   F
  0.5829043521053947  0.6885407361734863  0.2836251512160501   F   F   F
  0.5829043521053947  0.1885407361734863  0.2836251512160501   F   F   F
  0.5829602019462925  0.4385545752758304  0.2833243807611936   F   F   F
  0.5829602019462925  0.9385545752758304  0.2833243807611936   F   F   F
  0.5830265959005345  0.5635893986773652  0.2835447360626375   F   F   F
  0.5830265959005345  0.0635893986773652  0.2835447360626375   F   F   F
  0.5841850349968226  0.8145683933470066  0.4552195588870233   T   T   T
  0.5843010516511575  0.6894842798497691  0.4537813679779332   T   T   T
  0.5846873566317634  0.1891040780638998  0.4532123033876321   T   T   T
  0.5848880868601186  0.3143364518147320  0.4553768673987359   T   T   T
  0.5851245023457493  0.9391967622554465  0.4523258662649390   T   T   T
  0.5858746933111734  0.4389994385510409  0.4528638126161345   T   T   T
  0.5864636258720063  0.0633062450864467  0.4531020922841451   T   T   T
  0.5868841702840911  0.5634664939986936  0.4536702363472315   T   T   T
  0.6662453414939336  0.5635923628994988  0.2021068355520654   F   F   F
  0.6662453414939336  0.0635923628994988  0.2021068355520654   F   F   F
  0.6663404610475681  0.8134949072998268  0.2022484366903115   F   F   F
  0.6663404610475681  0.3134949072998268  0.2022484366903115   F   F   F
  0.6663750951053373  0.6883939277525641  0.2022233082671292   F   F   F
  0.6663750951053373  0.1883939277525641  0.2022233082671292   F   F   F
  0.6663864277493872  0.4383644600106251  0.2021335334354930   F   F   F
  0.6663864277493872  0.9383644600106251  0.2021335334354930   F   F   F
  0.6680367852867731  0.8135479505016725  0.3678776198360602   T   T   T
  0.6681143748807989  0.6887297220024521  0.3676924390462417   T   T   T
  0.6682828695157155  0.3135993222527757  0.3679001726960725   T   T   T
  0.6686221893609016  0.5637258467865891  0.3675941603779914   T   T   T
  0.6685123747889673  0.1886856897148069  0.3675405078989321   T   T   T
  0.6688267027285992  0.9385640472932401  0.3668847378593309   T   T   T
  0.6688177132404028  0.4385912840942787  0.3671572789555918   T   T   T
  0.6689572031697829  0.0636898006308404  0.3674010615837898   T   T   T
  0.6742552160851534  0.9355266159706269  0.5398315244943678   T   T   T
  0.6779290406832715  0.4366977615835305  0.5401715725327276   T   T   T
  0.7472051010464574  0.7522260748376658  0.4551507682743641   T   T   T
  0.7476635357177367  0.2523624617303461  0.4549939737390237   T   T   T
  0.7500179035504985  0.1256838869180049  0.4545994485974385   T   T   T
  0.7501730562611186  0.7507079098083409  0.2774330469442816   F   F   F
  0.7501730562611186  0.2507079098083409  0.2774330469442816   F   F   F
  0.7503107951644366  0.6262128555819274  0.4547427056371964   T   T   T
  0.7504750055418299  0.6259680682551618  0.2773981497465243   F   F   F
  0.7504750055418299  0.1259680682551618  0.2773981497465243   F   F   F
  0.7505173338481086  0.8759365097582545  0.2770578193141517   F   F   F
  0.7505173338481086  0.3759365097582545  0.2770578193141517   F   F   F
  0.7507524260591165  0.8754044441655472  0.4534496651082703   T   T   T
  0.7507337004896470  0.0010587017123740  0.2774432067716575   F   F   F
  0.7507337004896470  0.5010587017123740  0.2774432067716575   F   F   F
  0.7511888903253418  0.3756909346508539  0.4537021128960984   T   T   T
  0.7532634798136894  0.0007167479730123  0.4544727007734713   T   T   T
  0.7536942277056711  0.5005972873278396  0.4546125568256057   T   T   T
  0.0812706016639562  0.6876714045242263  0.4526273589328292   T   T   T
  0.0821433286283884  0.1868947702374534  0.4537755173966906   T   T   T
  0.8253748396413009  0.8144154376788292  0.5404312757035978   T   T   T
  0.8264050863822732  0.3151256155778075  0.5404435367027471   T   T   T
  0.8322865574630236  0.6882753073050720  0.3670669024917649   T   T   T
  0.8323109896972557  0.8133229418482212  0.3669795104779244   T   T   T
  0.8325648034487054  0.3133372984248913  0.3669476590184329   T   T   T
  0.8327021152973270  0.1882207351276613  0.3671201179741830   T   T   T
  0.8329608191842387  0.5633337244483605  0.3672994363698302   T   T   T
  0.8332177722102083  0.0632823876677127  0.3673767668706774   T   T   T
  0.8333947313041514  0.9383568857870178  0.3671440688805938   T   T   T
  0.8333788744981282  0.4383395772854149  0.3671768480938390   T   T   T
  0.8344344719226058  0.6883603527882158  0.2020465356692611   F   F   F
  0.8344344719226058  0.1883603527882158  0.2020465356692611   F   F   F
  0.8344691253071090  0.4383027932291981  0.2021423465583752   F   F   F
  0.8344691253071090  0.9383027932291981  0.2021423465583752   F   F   F
  0.8345236995836203  0.8136019065986346  0.2020593032807980   F   F   F
  0.8345236995836203  0.3136019065986346  0.2020593032807980   F   F   F
  0.8345432068835521  0.5635442939465207  0.2020614199525141   F   F   F
  0.8345432068835521  0.0635442939465207  0.2020614199525141   F   F   F
  0.0835181835032017  0.8134609632527869  0.2839000862688721   F   F   F
  0.0835181835032017  0.3134609632527869  0.2839000862688721   F   F   F
  0.0836480050342630  0.5633752300961916  0.2839758639034855   F   F   F
  0.0836480050342630  0.0633752300961916  0.2839758639034855   F   F   F
  0.0836768758602418  0.6884091217994310  0.2837888281379435   F   F   F
  0.0836768758602418  0.1884091217994310  0.2837888281379435   F   F   F
  0.0836920180794749  0.4383888699923588  0.2841732146708722   F   F   F
  0.0836920180794749  0.9383888699923588  0.2841732146708722   F   F   F
  0.0847915700483235  0.8124562836659899  0.4545176706603281   T   T   T
  0.0850064557292523  0.3123353012317741  0.4546262334711058   T   T   T
  0.0856670732859318  0.5635361138230202  0.4552177120265564   T   T   T
  0.0862215054446560  0.4380074334544556  0.4551103412629384   T   T   T
  0.0863965694403309  0.0625003457823587  0.4561758054575493   T   T   T
  0.0869891550483688  0.9377850390425364  0.4564359802190672   T   T   T
  0.9144656179074174  0.6886866894133870  0.4536914083221308   T   T   T
  0.9149668055469677  0.1885566155811579  0.4538129079237122   T   T   T
  0.9163841656999741  0.8124894643691524  0.4518495849589060   T   T   T
  0.9170837797930994  0.3124966745706826  0.4518661316004939   T   T   T
  0.9175409897932389  0.5627762954235485  0.4529486217482572   T   T   T
  0.9179883992332574  0.0625416017237522  0.4533935706284176   T   T   T
  0.9179876370325394  0.4376771502269316  0.4534480694597930   T   T   T
  0.9180769482310248  0.9377141237871142  0.4533711788241964   T   T   T
  0.9181839152478091  0.6884040565462470  0.2831378587445599   F   F   F
  0.9181839152478091  0.1884040565462470  0.2831378587445599   F   F   F
  0.9183594213103916  0.8134327656776748  0.2832265145484243   F   F   F
  0.9183594213103916  0.3134327656776748  0.2832265145484243   F   F   F
  0.9184058656586132  0.5633566590711467  0.2833389507587185   F   F   F
  0.9184058656586132  0.0633566590711467  0.2833389507587185   F   F   F
  0.9185001265531056  0.4384185648785746  0.2832681567508857   F   F   F
  0.9185001265531056  0.9384185648785746  0.2832681567508857   F   F   F
  0.9906761851875981  0.8663335325462805  0.5417611552480405   T   T   T
  0.9915399980982200  0.3672166066123156  0.5419134376663264   T   T   T
  0.1499761763268347  0.1844202961547936  0.5456652508748648   T   T   T
  0.1528339552904302  0.6815921984027206  0.5435881472811942   T   T   T
  0.1667765378554549  0.5633392265506032  0.2026421323795375   F   F   F
  0.1667765378554549  0.0633392265506032  0.2026421323795375   F   F   F
  0.1668059973185052  0.6886073834303943  0.2025943133799615   F   F   F
  0.1668059973185052  0.1886073834303943  0.2025943133799615   F   F   F
  0.1668155121452699  0.8133424731509606  0.2025799106952988   F   F   F
  0.1668155121452699  0.3133424731509606  0.2025799106952988   F   F   F