Ta  N Ru Cu 
 1.0000000000000000
    18.1096308199999996    0.0000000000000000    0.0000000000000000
     0.0000000000000000   23.3551997799999995    0.0000000000000000
     0.0000000000000000    0.0000000000000000   30.4818171199999988
 228 240  12  29
Selective dynamics
Cartesian
   0.000000    0.001679   6.009014  F  F  F
   6.053917    1.457674   6.178475  F  F  F
   3.012006    1.461299   6.178298  F  F  F
   4.531153    2.921544   8.472142  F  F  F
   1.495909    1.464206   8.645480  F  F  F
   7.557842    1.453803   8.658006  F  F  F
   0.004979    2.914471  11.260577  F  F  F
   6.006384    1.454629  11.224138  F  F  F
   3.040154    1.459973  11.229285  F  F  F
   4.517538    2.939432  13.891839  F  F  F
   1.587756    1.438552  13.878662  F  F  F
   7.517311    1.440515  13.844972  F  F  F
   0.066317    2.716267  16.629544  F  F  F
   6.120286    1.419399  16.561518  F  F  F
   0.000000    2.924065   6.008802  F  F  F
   6.054719    4.378062   6.179304  F  F  F
   3.010915    4.382166   6.179341  F  F  F
   4.531029    5.836202   8.470972  F  F  F
   1.495362    4.383375   8.647985  F  F  F
   7.557100    4.373273   8.659481  F  F  F
   0.004866    5.843171  11.259555  F  F  F
   6.007466    4.373788  11.228428  F  F  F
   3.040602    4.380652  11.227732  F  F  F
   4.526867    5.818448  13.877188  F  F  F
   1.514411    4.391475  13.829470  F  F  F
   7.519368    4.379194  13.837497  F  F  F
  17.986945    5.589772  16.687277  F  F  F
   6.135950    4.336122  16.523825  F  F  F
   3.201447    4.414882  16.502822  F  F  F
   0.000000    5.840479   6.009014  F  F  F
   6.053917    7.296474   6.178475  F  F  F
   3.012006    7.300098   6.178298  F  F  F
   4.531153    8.760344   8.472142  F  F  F
   1.495909    7.303006   8.645480  F  F  F
   7.557842    7.292603   8.658006  F  F  F
   0.004454    8.754515  11.257989  F  F  F
   6.005113    7.295942  11.222605  F  F  F
   3.031146    7.301982  11.227585  F  F  F
   4.534029    8.801459  13.865355  F  F  F
   1.561919    7.322604  13.897133  F  F  F
   7.533288    7.281478  13.840432  F  F  F
   0.109265    8.680844  16.735822  F  F  F
   6.083560    7.277883  16.538921  F  F  F
   0.000000    8.762865   6.008802  F  F  F
   6.054719   10.216862   6.179304  F  F  F
   3.010915   10.220965   6.179341  F  F  F
   4.531029   23.352602   8.470972  F  F  F
   1.495362   10.222175   8.647985  F  F  F
   7.557100   10.212073   8.659481  F  F  F
   0.003215    0.012347  11.259484  F  F  F
   6.007151   10.216998  11.227380  F  F  F
   3.035667   10.222281  11.219746  F  F  F
   4.504252   23.305403  13.888453  F  F  F
   1.496778   10.248580  13.829541  F  F  F
   7.547108   10.226231  13.821876  F  F  F
  18.092971   23.233785  16.591384  F  F  F
   6.117019   10.242200  16.454403  F  F  F
   3.030646   10.367079  16.543532  F  F  F
   0.000000   11.679279   6.009014  F  F  F
   6.053917   13.135274   6.178475  F  F  F
   3.012006   13.138898   6.178298  F  F  F
   4.531153   14.599144   8.472142  F  F  F
   1.495909   13.141806   8.645480  F  F  F
   7.557842   13.131403   8.658006  F  F  F
  18.104637   14.594545  11.251457  F  F  F
   6.007777   13.133121  11.231393  F  F  F
   3.030647   13.139884  11.222381  F  F  F
   4.527287   14.611054  13.909874  F  F  F
   1.508475   13.166489  13.864341  F  F  F
   7.548069   13.129624  13.843573  F  F  F
  17.926586   14.758564  16.596372  F  F  F
   5.886472   13.185283  16.552887  F  F  F
   0.000000   14.601665   6.008802  F  F  F
   6.054719   16.055662   6.179304  F  F  F
   3.010915   16.059765   6.179341  F  F  F
   4.531029   17.513802   8.470972  F  F  F
   1.495362   16.060975   8.647985  F  F  F
   7.557100   16.050873   8.659481  F  F  F
  18.103769   17.527295  11.257112  F  F  F
   6.015201   16.046024  11.227398  F  F  F
   3.051792   16.055486  11.206323  F  F  F
   4.519664   17.481882  13.843096  F  F  F
   1.495775   16.084562  13.766273  F  F  F
   7.557341   16.058016  13.829383  F  F  F
   0.067731   17.767925  17.802155  F  F  F
   6.072175   16.073382  16.451919  F  F  F
   3.040192   16.088833  16.527773  F  F  F
   0.000000   17.518079   6.009014  F  F  F
   6.053917   18.974074   6.178475  F  F  F
   3.012006   18.977698   6.178298  F  F  F
   4.531153   20.437944   8.472142  F  F  F
   1.495909   18.980606   8.645480  F  F  F
   7.557842   18.970203   8.658006  F  F  F
  18.107662   20.435943  11.260079  F  F  F
   6.017617   18.970957  11.219767  F  F  F
   3.058784   18.975082  11.205040  F  F  F
   4.526154   20.441521  13.877232  F  F  F
   1.522404   18.966601  13.815540  F  F  F
   7.544064   18.964901  13.842111  F  F  F
  17.849369   20.528706  17.877370  F  F  F
   6.054099   18.951064  16.509993  F  F  F
   0.000000   20.440465   6.008802  F  F  F
   6.054719   21.894462   6.179304  F  F  F
   3.010915   21.898565   6.179341  F  F  F
   4.531029   11.675002   8.470972  F  F  F
   1.495362   21.899774   8.647985  F  F  F
   7.557100   21.889673   8.659481  F  F  F
   0.000859   11.685102  11.255320  F  F  F
   6.014550   21.889817  11.228713  F  F  F
   3.056933   21.896085  11.215680  F  F  F
   4.523093   11.685568  13.883191  F  F  F
   1.503938   21.841948  13.780773  F  F  F
   7.527219   21.893321  13.840507  F  F  F
  17.996652   11.781429  16.616122  F  F  F
   6.131442   21.891084  16.532099  F  F  F
   3.144158   21.798908  16.504777  F  F  F
   9.054815   23.349334   6.012908  F  F  F
  15.097625    1.461299   6.178298  F  F  F
  12.055713    1.457674   6.178475  F  F  F
  13.578478    2.921544   8.472142  F  F  F
  10.551789    1.453803   8.658006  F  F  F
  16.613722    1.464206   8.645480  F  F  F
   9.048977    2.911068  11.267600  F  F  F
  15.084100    1.457606  11.236461  F  F  F
  12.098409    1.453626  11.216908  F  F  F
  13.555168    2.931591  13.865271  F  F  F
  10.561976    1.442255  13.833719  F  F  F
  16.560101    1.433450  13.930860  F  F  F
   9.020643    3.021374  16.502258  F  F  F
  11.916375    1.423493  16.552885  F  F  F
   9.054815    2.917798   6.013242  F  F  F
  15.098716    4.382166   6.179341  F  F  F
  12.054912    4.378062   6.179304  F  F  F
  13.578602    5.836202   8.470972  F  F  F
  10.552531    4.373273   8.659481  F  F  F
  16.614269    4.383375   8.647985  F  F  F
   9.053448    5.832563  11.266204  F  F  F
  15.072510    4.374178  11.228277  F  F  F
  12.103168    4.372376  11.223795  F  F  F
  13.599961    5.798859  13.872282  F  F  F
  10.573169    4.376854  13.826813  F  F  F
  16.604941    4.370314  13.818055  F  F  F
  14.865089    4.307750  16.454410  F  F  F
  11.920631    4.325332  16.501568  F  F  F
   9.054815    5.832934   6.012908  F  F  F
  15.097625    7.300098   6.178298  F  F  F
  12.055713    7.296474   6.178475  F  F  F
  13.578478    8.760344   8.472142  F  F  F
  10.551789    7.292603   8.658006  F  F  F
  16.613722    7.303006   8.645480  F  F  F
   9.058245    8.751120  11.268539  F  F  F
  15.079039    7.295210  11.228496  F  F  F
  12.107076    7.292389  11.220550  F  F  F
  13.599745    8.775199  13.884919  F  F  F
  10.582717    7.282984  13.838637  F  F  F
  16.568893    7.290179  13.890058  F  F  F
   9.040854    8.895238  16.476173  F  F  F
  11.975660    7.254052  16.532075  F  F  F
   9.054815    8.756598   6.013242  F  F  F
  15.098716   10.220965   6.179341  F  F  F
  12.054912   10.216862   6.179304  F  F  F
  13.578602   23.352602   8.470972  F  F  F
  10.552531   10.212073   8.659481  F  F  F
  16.614269   10.222175   8.647985  F  F  F
   9.049058   23.350270  11.265667  F  F  F
  15.067617   10.216140  11.225780  F  F  F
  12.106016   10.212058  11.226794  F  F  F
  13.572263   23.312676  13.867396  F  F  F
  10.597878   10.222125  13.837272  F  F  F
  16.621368   10.208972  13.810166  F  F  F
  14.973104   10.215791  16.471317  F  F  F
  12.014092   10.250534  16.493770  F  F  F
   9.054815   11.671734   6.012908  F  F  F
  15.097625   13.138898   6.178298  F  F  F
  12.055713   13.135274   6.178475  F  F  F
  13.578478   14.599144   8.472142  F  F  F
  10.551789   13.131403   8.658006  F  F  F
  16.613722   13.141806   8.645480  F  F  F
   9.062699   14.587926  11.267361  F  F  F
  15.069793   13.138497  11.222985  F  F  F
  12.106527   13.132702  11.223226  F  F  F
  13.617817   14.631263  13.890844  F  F  F
  10.588473   13.127223  13.853053  F  F  F
  16.545307   13.161180  13.840041  F  F  F
   9.080824   14.735906  16.521600  F  F  F
  12.051811   13.162905  16.556159  F  F  F
   9.054815   14.595398   6.013242  F  F  F
  15.098716   16.059765   6.179341  F  F  F
  12.054912   16.055662   6.179304  F  F  F
  13.578602   17.513802   8.470972  F  F  F
  10.552531   16.050873   8.659481  F  F  F
  16.614269   16.060975   8.647985  F  F  F
   9.061819   17.509345  11.265814  F  F  F
  15.057054   16.064741  11.221879  F  F  F
  12.099633   16.051427  11.231842  F  F  F
  13.609724   17.493969  13.877472  F  F  F
  10.593371   16.061219  13.840439  F  F  F
  16.620010   16.106816  13.778211  F  F  F
  14.950916   16.141230  16.516105  F  F  F
  11.995750   16.064345  16.500310  F  F  F
   9.054815   17.510534   6.012908  F  F  F
  15.097625   18.977698   6.178298  F  F  F
  12.055713   18.974074   6.178475  F  F  F
  13.578478   20.437944   8.472142  F  F  F
  10.551789   18.970203   8.658006  F  F  F
  16.613722   18.980606   8.645480  F  F  F
   9.055083   20.428350  11.267352  F  F  F
  15.066091   18.979843  11.227467  F  F  F
  12.096009   18.973369  11.221248  F  F  F
  13.596332   20.462661  13.870701  F  F  F
  10.582913   18.966866  13.856567  F  F  F
  16.636296   18.986478  13.921610  F  F  F
   9.035638   20.516685  16.524298  F  F  F
  11.979494   18.984268  16.574243  F  F  F
   9.054815   20.434198   6.013242  F  F  F
  15.098716   21.898565   6.179341  F  F  F
  12.054912   21.894462   6.179304  F  F  F
  13.578602   11.675002   8.470972  F  F  F
  10.552531   21.889673   8.659481  F  F  F
  16.614269   21.899774   8.647985  F  F  F
   9.062102   11.670315  11.267128  F  F  F
  15.061774   21.896890  11.228421  F  F  F
  12.097302   21.890031  11.224800  F  F  F
  13.609224   11.651076  13.886750  F  F  F
  10.566564   21.895214  13.826726  F  F  F
  16.609595   21.854692  13.789552  F  F  F
  14.867650   21.893569  16.515761  F  F  F
  11.907359   21.904837  16.512893  F  F  F
   7.351617   23.350771   7.082145  F  F  F
   4.532511    0.000234   6.074116  F  F  F
   1.706746    0.003278   7.072370  F  F  F
   2.804278    2.923829   9.618451  F  F  F
   0.000000    2.924231   9.229069  F  F  F
   6.252124    2.911903   9.631240  F  F  F
   7.253324    2.911857  12.261891  F  F  F
   4.523143    2.916890  11.817647  F  F  F
   1.781927    2.908911  12.278831  F  F  F
   2.728655    3.035866  14.863432  F  F  F
   0.035688    2.908405  14.561402  F  F  F
   6.325983    2.905140  14.886919  F  F  F
   7.305773    2.886195  17.430659  F  F  F
   4.541884    2.982981  17.031881  F  F  F
   1.311411    1.273142  17.025501  F  F  F
   7.350637    2.915768   7.082412  F  F  F
   4.532223    2.920083   6.075700  F  F  F
   1.707441    2.922941   7.071920  F  F  F
   2.803719    5.843329   9.617047  F  F  F
   0.000000    5.845008   9.229303  F  F  F
   6.252538    5.831988   9.629520  F  F  F
   7.250403    5.834549  12.252559  F  F  F
   4.520214    5.841480  11.807638  F  F  F
   1.779877    5.855574  12.279182  F  F  F
   2.752108    5.792920  14.871308  F  F  F
  18.104034    5.821226  14.584320  F  F  F
   6.303649    5.836480  14.901791  F  F  F
   7.288475    5.801063  17.415600  F  F  F
   4.542373    5.849956  17.195908  F  F  F
   1.347258    4.392319  17.248627  F  F  F
   7.351617    5.834371   7.082145  F  F  F
   4.532511    5.839034   6.074116  F  F  F
   1.706746    5.842078   7.072370  F  F  F
   2.804278    8.762629   9.618451  F  F  F
   0.000000    8.763031   9.229069  F  F  F
   6.252124    8.750703   9.631240  F  F  F
   7.259071    8.750969  12.256347  F  F  F
   4.520809    8.760455  11.802871  F  F  F
   1.779427    8.757502  12.266571  F  F  F
   2.761719    8.900943  14.794579  F  F  F
   0.015117    8.732469  14.582825  F  F  F
   6.341236    8.749274  14.878263  F  F  F
   7.313268    8.735635  17.437358  F  F  F
   4.586902    8.816969  17.003864  F  F  F
   1.918910    8.809392  17.319126  F  F  F
   7.350637    8.754568   7.082412  F  F  F
   4.532223    8.758883   6.075700  F  F  F
   1.707441    8.761741   7.071920  F  F  F
   2.803719    0.004529   9.617047  F  F  F
   0.000000    0.006208   9.229303  F  F  F
   6.252538   23.348388   9.629520  F  F  F
   7.252131   23.349415  12.258969  F  F  F
   4.526761    0.000796  11.812514  F  F  F
   1.789510    0.012360  12.264833  F  F  F
   2.714247   23.204257  14.867656  F  F  F
   0.014791   23.299304  14.515295  F  F  F
   6.302842   23.332406  14.886375  F  F  F
   7.340907   23.308735  17.378099  F  F  F
   4.540812   23.249667  17.018165  F  F  F
   1.271264   21.693979  17.291333  F  F  F
   7.351617   11.673171   7.082145  F  F  F
   4.532511   11.677834   6.074116  F  F  F
   1.706746   11.680878   7.072370  F  F  F
   2.804278   14.601429   9.618451  F  F  F
   0.000000   14.601830   9.229069  F  F  F
   6.252124   14.589503   9.631240  F  F  F
   7.272011   14.583459  12.264802  F  F  F
   4.526166   14.589004  11.828764  F  F  F
   1.787645   14.600265  12.240300  F  F  F
   2.703056   14.677712  14.838668  F  F  F
  18.067169   14.653440  14.475106  F  F  F
   6.352912   14.587768  14.890768  F  F  F
   7.331076   14.617081  17.516227  F  F  F
   4.588337   14.693944  16.996583  F  F  F
   1.581432   14.877831  17.375759  F  F  F
   7.350637   14.593367   7.082412  F  F  F
   4.532223   14.597683   6.075700  F  F  F
   1.707441   14.600541   7.071920  F  F  F
   2.803719   17.520929   9.617047  F  F  F
   0.000000   17.522608   9.229303  F  F  F
   6.252538   17.509588   9.629520  F  F  F
   7.265678   17.512546  12.248961  F  F  F
   4.536525   17.509035  11.783808  F  F  F
   1.808181   17.531281  12.203993  F  F  F
   2.733006   17.426160  14.783998  F  F  F
   0.020606   17.517564  14.302692  F  F  F
   6.315641   17.514354  14.846058  F  F  F
   7.289552   17.495763  17.357757  F  F  F
   4.606082   17.464880  17.036121  F  F  F
   1.920457   17.646455  17.287212  F  F  F
   7.351617   17.511971   7.082145  F  F  F
   4.532511   17.516634   6.074116  F  F  F
   1.706746   17.519678   7.072370  F  F  F
   2.804278   20.440229   9.618451  F  F  F
   0.000000   20.440630   9.229069  F  F  F
   6.252124   20.428303   9.631240  F  F  F
   7.265189   20.424194  12.264398  F  F  F
   4.536676   20.430457  11.805211  F  F  F
   1.812667   20.416993  12.212951  F  F  F
   2.718025   20.465120  14.855253  F  F  F
   0.024507   20.451769  14.284280  F  F  F
   6.337081   20.421082  14.896107  F  F  F
   7.315285   20.361753  17.510057  F  F  F
   4.530714   20.436066  17.004087  F  F  F
  17.464892   19.147166  16.594960  F  F  F
   7.350637   20.432167   7.082412  F  F  F
   4.532223   20.436483   6.075700  F  F  F
   1.707441   20.439341   7.071920  F  F  F
   2.803719   11.682129   9.617047  F  F  F
   0.000000   11.683808   9.229303  F  F  F
   6.252538   11.670788   9.629520  F  F  F
   7.263017   11.679164  12.254758  F  F  F
   4.518378   11.680633  11.813085  F  F  F
   1.785560   11.684933  12.260008  F  F  F
   2.717995   11.687285  14.868671  F  F  F
  18.068378   11.673602  14.505372  F  F  F
   6.305829   11.709851  14.870509  F  F  F
   7.342509   11.727518  17.257205  F  F  F
   4.653594   11.612875  17.141873  F  F  F
   1.644989   11.577194  17.440743  F  F  F
  16.402885    0.003278   7.072370  F  F  F
  13.577120    0.000234   6.074116  F  F  F
  10.758014   23.350771   7.082145  F  F  F
  11.857507    2.911903   9.631240  F  F  F
   9.054815    2.913211   9.239478  F  F  F
  15.305353    2.923829   9.618451  F  F  F
  16.341579    2.895697  12.283046  F  F  F
  13.584851    2.909369  11.803211  F  F  F
  10.846469    2.913152  12.253509  F  F  F
  11.752830    2.901733  14.873352  F  F  F
   9.041594    2.907741  14.418240  F  F  F
  15.351139    3.002618  14.818811  F  F  F
  16.743977    1.396301  16.677893  F  F  F
  13.494806    2.957325  17.027149  F  F  F
  10.737534    2.900923  17.424313  F  F  F
  16.402190    2.922941   7.071920  F  F  F
  13.577408    2.920083   6.075700  F  F  F
  10.758994    2.915768   7.082412  F  F  F
  11.857093    5.831988   9.629520  F  F  F
   9.054815    5.830323   9.239646  F  F  F
  15.305912    5.843329   9.617047  F  F  F
  16.338533    5.841824  12.273827  F  F  F
  13.591673    5.836564  11.805572  F  F  F
  10.857123    5.833899  12.249389  F  F  F
  11.799212    5.825068  14.886107  F  F  F
   9.052213    5.824743  14.354134  F  F  F
  15.386284    5.741216  14.856282  F  F  F
  16.698391    4.226673  17.228102  F  F  F
  13.535874    5.796008  17.137679  F  F  F
  10.744382    5.785607  17.374742  F  F  F
  16.402885    5.842078   7.072370  F  F  F
  13.577120    5.839034   6.074116  F  F  F
  10.758014    5.834371   7.082145  F  F  F
  11.857507    8.750703   9.631240  F  F  F
   9.054815    8.752011   9.239478  F  F  F
  15.305353    8.762629   9.618451  F  F  F
  16.337289    8.739448  12.270035  F  F  F
  13.590160    8.749424  11.815101  F  F  F
  10.856292    8.749831  12.258706  F  F  F
  11.791986    8.742437  14.894958  F  F  F
   9.060403    8.753310  14.409603  F  F  F
  15.394905    8.837737  14.857909  F  F  F
  17.587474    7.142394  17.676540  F  F  F
  13.563777    8.804687  17.116789  F  F  F
  10.788225    8.732426  17.380215  F  F  F
  16.402190    8.761741   7.071920  F  F  F
  13.577408    8.758883   6.075700  F  F  F
  10.758994    8.754568   7.082412  F  F  F
  11.857093   23.348388   9.629520  F  F  F
   9.054815   23.346723   9.239646  F  F  F
  15.305912    0.004529   9.617047  F  F  F
  16.332957    0.019334  12.277560  F  F  F
  13.582933    0.005037  11.801353  F  F  F
  10.846646   23.349740  12.249720  F  F  F
  11.767439   23.342166  14.871102  F  F  F
   9.041199   23.345069  14.388464  F  F  F
  15.363084   23.240737  14.838784  F  F  F
  16.567387   22.051109  17.544748  F  F  F
  13.475413   23.300481  17.015317  F  F  F
  10.695693   23.321850  17.371075  F  F  F
  16.402885   11.680878   7.072370  F  F  F
  13.577120   11.677834   6.074116  F  F  F
  10.758014   11.673171   7.082145  F  F  F
  11.857507   14.589503   9.631240  F  F  F
   9.054815   14.590811   9.239478  F  F  F
  15.305353   14.601429   9.618451  F  F  F
  16.317373   14.597598  12.249916  F  F  F
  13.584733   14.591148  11.816306  F  F  F
  10.853334   14.583902  12.266985  F  F  F
  11.805808   14.594079  14.880183  F  F  F
   9.071520   14.582451  14.447501  F  F  F
  15.416539   14.726369  14.864394  F  F  F
  16.872127   13.242552  17.211762  F  F  F
  13.585796   14.679254  17.020995  F  F  F
  10.800695   14.578154  17.403736  F  F  F
  16.402190   14.600541   7.071920  F  F  F
  13.577408   14.597683   6.075700  F  F  F
  10.758994   14.593367   7.082412  F  F  F
  11.857093   17.509588   9.629520  F  F  F
   9.054815   17.507923   9.239646  F  F  F
  15.305912   17.520929   9.617047  F  F  F
  16.305372   17.553733  12.241648  F  F  F
  13.578152   17.521791  11.806835  F  F  F
  10.856874   17.516319  12.259254  F  F  F
  11.807794   17.520802  14.893158  F  F  F
   9.067743   17.506978  14.377301  F  F  F
  15.407841   17.452673  14.870853  F  F  F
  16.797579   16.247365  17.370405  F  F  F
  13.550491   17.483242  17.055080  F  F  F
  10.854854   17.502474  17.456810  F  F  F
  16.402885   17.519678   7.072370  F  F  F
  13.577120   17.516634   6.074116  F  F  F
  10.758014   17.511971   7.082145  F  F  F
  11.857507   20.428303   9.631240  F  F  F
   9.054815   20.429611   9.239478  F  F  F
  15.305353   20.440229   9.618451  F  F  F
  16.305945   20.414406  12.245081  F  F  F
  13.577219   20.430755  11.804468  F  F  F
  10.846099   20.425366  12.259823  F  F  F
  11.776199   20.437912  14.878795  F  F  F
   9.054202   20.431681  14.432288  F  F  F
  15.392324   20.533875  14.868260  F  F  F
  18.098367   19.129592  19.159928  T  T  T
  13.498223   20.493038  17.039233  F  F  F
  10.746192   20.410199  17.429426  F  F  F
  16.402190   20.439341   7.071920  F  F  F
  13.577408   20.436483   6.075700  F  F  F
  10.758994   20.432167   7.082412  F  F  F
  11.857093   11.670788   9.629520  F  F  F
   9.054815   11.669123   9.239646  F  F  F
  15.305912   11.682129   9.617047  F  F  F
  16.326919   11.680945  12.256074  F  F  F
  13.587989   11.675944  11.814225  F  F  F
  10.861613   11.675157  12.258486  F  F  F
  11.812986   11.690591  14.891763  F  F  F
   9.072202   11.655108  14.389433  F  F  F
  15.406419   11.570521  14.848824  F  F  F
  16.907474   10.160485  17.188928  F  F  F
  13.603274   11.610649  17.034288  F  F  F
  10.862942   11.681770  17.434210  F  F  F
   3.432499    1.429302  16.052826  F  F  F
   3.296332    7.432495  16.116838  F  F  F
   2.197347   13.209951  16.336036  F  F  F
   3.381622   18.866181  16.097039  F  F  F
  14.624487    1.441136  16.043773  F  F  F
   9.034874    5.687932  16.346484  F  F  F
  14.657983    7.288423  16.097495  F  F  F
   9.022043   23.245320  16.403228  F  F  F
  14.745034   13.148747  16.077402  F  F  F
   9.058063   17.390269  16.376465  F  F  F
  14.624003   19.002053  16.061590  F  F  F
   9.105891   11.460971  16.400733  F  F  F
   7.908319   11.049465  18.918061  T  T  T
  10.304129    8.654466  19.221564  T  T  T
   8.301833    6.006977  18.975755  T  T  T
   9.059184    9.985409  20.776600  T  T  T
  10.401851   11.561896  21.954291  T  T  T
   5.391326    8.302859  20.881359  T  T  T
  10.439648   11.349765  19.263018  T  T  T
   7.606182    8.502913  22.038027  T  T  T
   9.287294    7.128748  20.943758  T  T  T
  11.816194    7.535240  20.862602  T  T  T
  10.695368    6.101764  19.234353  T  T  T
   4.160639   10.389016  20.850715  T  T  T
   6.859820    6.475404  20.800597  T  T  T
  12.976291    8.836726  19.018211  T  T  T
   4.363695    9.006122  18.891829  T  T  T
   5.323727   11.499446  19.009025  T  T  T
   8.261700   12.339658  20.974792  T  T  T
   7.546967    8.489126  19.396867  T  T  T
   4.999872    6.578039  19.064211  T  T  T
  10.219107    8.830275  22.494718  T  T  T
  13.111045    6.378995  18.984524  T  T  T
   7.743194   16.135518  18.819044  T  T  T
  11.769874    9.937830  20.841123  T  T  T
   6.563907   10.540296  20.963059  T  T  T
   8.238959   17.518138  20.736637  T  T  T
   7.216157   13.472787  19.098969  T  T  T
   8.285224   10.705641  22.907250  T  T  T
   7.758574   18.855732  18.763152  T  T  T
   9.806742   17.498820  18.986345  T  T  T
