Ta  N Ru Cu                             
   1.00000000000000     
    18.1096308199999996    0.0000000000000000    0.0000000000000000
     0.0000000000000000   23.3551997799999995    0.0000000000000000
     0.0000000000000000    0.0000000000000000   30.4818171199999988
   Ta   N    Ru   Cu
   228   240    12    29
Selective dynamics
Direct
  0.0000000000000000  0.0000718897725491  0.1971343760886626   F   F   F
  0.3342926788609191  0.0624132533110782  0.2026937887487748   F   F   F
  0.1663206737861032  0.0625684649998774  0.2026879820083352   F   F   F
  0.2502068123330190  0.1250918008632027  0.2779408447549940   F   F   F
  0.0826029539126765  0.0626929340700357  0.2836274479951371   F   F   F
  0.4173382701790516  0.0622475086359557  0.2840383815018441   F   F   F
  0.0003625142922701  0.1248333145279545  0.3694619961685532   F   F   F
  0.3316366887704447  0.0622815481649468  0.3682310984221289   F   F   F
  0.1678180538414722  0.0625128456940161  0.3684318082412261   F   F   F
  0.2496532946992431  0.1260100546226184  0.4558326344292425   F   F   F
  0.0878824651821333  0.0616952975599858  0.4553693746457341   F   F   F
  0.4148927758208174  0.0616887465562925  0.4542475911291746   F   F   F
  0.0039924612886182  0.1166702501227732  0.5451801621464512   F   F   F
  0.3379291417272512  0.0609171410821503  0.5433876180935471   F   F   F
  0.0000000000000000  0.1251997425645683  0.1971274211227225   F   F   F
  0.3343369646891574  0.1874555577019379  0.2027209852901350   F   F   F
  0.1662604295983101  0.1876312787421597  0.2027221991285302   F   F   F
  0.2501999651476083  0.2498887637432148  0.2779024612165273   F   F   F
  0.0825727489899180  0.1876830445164330  0.2837096281351847   F   F   F
  0.4172972975050442  0.1872505070046557  0.2840867710054695   F   F   F
  0.0003264009111348  0.2502148581492492  0.3694515965260834   F   F   F
  0.3315552403955664  0.1872489655920191  0.3682890346007071   F   F   F
  0.1678447247330439  0.1875767298617390  0.3683716740309606   F   F   F
  0.2502029469864127  0.2492267270171027  0.4552853901513103   F   F   F
  0.0838269987438665  0.1881490221189637  0.4538103140486243   F   F   F
  0.4151748356844749  0.1874832174953056  0.4539224464712603   F   F   F
  0.9947755522494930  0.2403071287279701  0.5483245941080597   F   F   F
  0.3405844139676404  0.1860498750141701  0.5426799831151286   F   F   F
  0.1776507777534064  0.1893204529034449  0.5415301172832443   F   F   F
  0.0000000000000000  0.2500718921274867  0.1971343760886626   F   F   F
  0.3342926788609191  0.3124132556660157  0.2026937887487748   F   F   F
  0.1663206737861032  0.3125684245377940  0.2026879820083352   F   F   F
  0.2502068123330190  0.3750918032181332  0.2779408447549940   F   F   F
  0.0826029539126765  0.3126929364249662  0.2836274479951371   F   F   F
  0.4173382701790516  0.3122475109908933  0.2840383815018441   F   F   F
  0.0002466091133684  0.3749120573782534  0.3693806361895824   F   F   F
  0.3313739004205729  0.3123641873638476  0.3680174300579893   F   F   F
  0.1672403501818067  0.3126648912784447  0.3683808598350353   F   F   F
  0.2504300084898148  0.3769374735787423  0.4548015935343983   F   F   F
  0.0863600708123116  0.3135595528611645  0.4561197892260012   F   F   F
  0.4156788216624747  0.3118297453501810  0.4536145251959951   F   F   F
  0.0048077181067541  0.3707454477616992  0.5490877375882661   F   F   F
  0.3369039965884824  0.3117834601541603  0.5422600606430024   F   F   F
  0.0000000000000000  0.3751997449194988  0.1971274211227225   F   F   F
  0.3343369646891574  0.4374555600568684  0.2027209852901350   F   F   F
  0.1662604295983101  0.4376312382800762  0.2027221991285302   F   F   F
  0.2501999651476083  0.9998887708080204  0.2779024612165273   F   F   F
  0.0825727489899180  0.4376830468713706  0.2837096281351847   F   F   F
  0.4172972975050442  0.4372505093595933  0.2840867710054695   F   F   F
  0.0002020471889423  0.0005536668545645  0.3694003200554619   F   F   F
  0.3315129976790985  0.4375261653188929  0.3682037706549934   F   F   F
  0.1675076665091311  0.4377298886886223  0.3680760223654289   F   F   F
  0.2487945251221859  0.9979692316723145  0.4556700456970688   F   F   F
  0.0827990374240031  0.4388507097583059  0.4537396817765540   F   F   F
  0.4164112496248009  0.4380366298027027  0.4530519931155581   F   F   F
  0.9991059453303635  0.9951638606792486  0.5443122676933143   F   F   F
  0.3380069456324790  0.4389685850077569  0.5397295684582204   F   F   F
  0.1672546519642424  0.4438928845677381  0.5427485157748393   F   F   F
  0.0000000000000000  0.5000718944824172  0.1971343760886626   F   F   F
  0.3342926788609191  0.5624132580209533  0.2026937887487748   F   F   F
  0.1663206737861032  0.5625684268927316  0.2026879820083352   F   F   F
  0.2502068123330190  0.6250918055730708  0.2779408447549940   F   F   F
  0.0826029539126765  0.5626929387799038  0.2836274479951371   F   F   F
  0.4173382701790516  0.5622475133458238  0.2840383815018441   F   F   F
  0.9996734334311483  0.6249050805593228  0.3691564369571907   F   F   F
  0.3315764998018906  0.5624240479093885  0.3683952618635757   F   F   F
  0.1672924771417286  0.5626537612088001  0.3681737855659719   F   F   F
  0.2499880889344368  0.6256224796891914  0.4563301441393861   F   F   F
  0.0833162760189268  0.5637367748519395  0.4549273734373713   F   F   F
  0.4167946920079757  0.5621971177161100  0.4540983874257947   F   F   F
  0.9899715338316355  0.6316731237141227  0.5446342957391224   F   F   F
  0.3254793572870867  0.5646876979957938  0.5430007645161012   F   F   F
  0.0000000000000000  0.6251997472744364  0.1971274211227225   F   F   F
  0.3343369646891574  0.6874555624118059  0.2027209852901350   F   F   F
  0.1662604295983101  0.6876312406350138  0.2027221991285302   F   F   F
  0.2501999651476083  0.7498887684530899  0.2779024612165273   F   F   F
  0.0825727489899180  0.6876830492263082  0.2837096281351847   F   F   F
  0.4172972975050442  0.6872505117145238  0.2840867710054695   F   F   F
  0.9996806671512246  0.7504838821806885  0.3693347727820750   F   F   F
  0.3321216241116076  0.6870940155152070  0.3683255809783574   F   F   F
  0.1684228701466139  0.6874799252948236  0.3676643999234130   F   F   F
  0.2495810679369797  0.7485196086813346  0.4541471706067384   F   F   F
  0.0826151021448567  0.6887413146332761  0.4516689718923175   F   F   F
  0.4173636158089309  0.6876848047240287  0.4537771139281759   F   F   F
  0.0034554818930527  0.7608462791405382  0.5836909217789042   T   T   T
  0.3355779618261678  0.6882408693315867  0.5398991121563412   F   F   F
  0.1679888469421584  0.6889536014065314  0.5422753812519403   F   F   F
  0.0000000000000000  0.7500718968373548  0.1971343760886626   F   F   F
  0.3342926788609191  0.8124132603758838  0.2026937887487748   F   F   F
  0.1663206737861032  0.8125684292476620  0.2026879820083352   F   F   F
  0.2502068123330190  0.8750918079280083  0.2779408447549940   F   F   F
  0.0826029539126765  0.8126929411348414  0.2836274479951371   F   F   F
  0.4173382701790516  0.8122475157007614  0.2840383815018441   F   F   F
  0.9998834874094911  0.8750279249377471  0.3694305019831461   F   F   F
  0.3322521623883645  0.8122949569562650  0.3680721183986932   F   F   F
  0.1688844477504361  0.8124875907184403  0.3676147637749523   F   F   F
  0.2499768794292834  0.8752954028466888  0.4553258733021366   F   F   F
  0.0841144148735324  0.8121310962299120  0.4532714026072497   F   F   F
  0.4165647591042401  0.8119708321330421  0.4541117396481482   F   F   F
  0.9854214727290583  0.8791902783624954  0.5862124721145910   T   T   T
  0.3342710329199292  0.8114565569346652  0.5416843403724201   F   F   F
  0.0000000000000000  0.8751997496293740  0.1971274211227225   F   F   F
  0.3343369646891574  0.9374555647667435  0.2027209852901350   F   F   F
  0.1662604295983101  0.9376312429899514  0.2027221991285302   F   F   F
  0.2501999651476083  0.4998887660981524  0.2779024612165273   F   F   F
  0.0825727489899180  0.9376830087642247  0.2837096281351847   F   F   F
  0.4172972975050442  0.9372505140694614  0.2840867710054695   F   F   F
  0.9999987851767784  0.5003257993967836  0.3693043612092879   F   F   F
  0.3321145008300093  0.9372640014300089  0.3683898159940142   F   F   F
  0.1687935016667552  0.9375361463938603  0.3679664816517985   F   F   F
  0.2496552825917817  0.5003955911354652  0.4553808897072713   F   F   F
  0.0831067190137205  0.9353032389260960  0.4521936781438214   F   F   F
  0.4157270280565584  0.9374437900869026  0.4541283397083760   F   F   F
  0.9943629541090786  0.5040683492710443  0.5451277374503221   F   F   F
  0.3391609724708928  0.9375913375295468  0.5425244805746701   F   F   F
  0.1738512524795937  0.9334913083753520  0.5415406153450490   F   F   F
  0.4999999773601118  0.9997488447945102  0.1972621243782342   F   F   F
  0.8336793361533594  0.0625684649998774  0.2026879820083352   F   F   F
  0.6657072758593117  0.0624132533110782  0.2026937887487748   F   F   F
  0.7497931976064436  0.1250918008632027  0.2779408447549940   F   F   F
  0.5826617397604110  0.0622475086359557  0.2840383815018441   F   F   F
  0.9173970560267861  0.0626929340700357  0.2836274479951371   F   F   F
  0.4995625857821864  0.1246088249046835  0.3696170066123656   F   F   F
  0.8330110177254326  0.0624494336909507  0.3687082353310842   F   F   F
  0.6681114662281118  0.0622382601601501  0.3679627089108379   F   F   F
  0.7483320965899196  0.1255716083624066  0.4549514861730799   F   F   F
  0.5831903535182050  0.0617301077952916  0.4537162251697140   F   F   F
  0.9143664586311004  0.0614851944546260  0.4570743583019024   F   F   F
  0.4981297017958752  0.1264404084665074  0.5410938572024335   F   F   F
  0.6576960137059302  0.0609988359517288  0.5430080475464791   F   F   F
  0.4999999773601118  0.1249314083152768  0.1972730817302377   F   F   F
  0.8337395803411525  0.1876312787421597  0.2027221991285302   F   F   F
  0.6656630452503052  0.1874555577019379  0.2027209852901350   F   F   F
  0.7498000447918542  0.2498887637432148  0.2779024612165273   F   F   F
  0.5827027124344184  0.1872505070046557  0.2840867710054695   F   F   F
  0.9174272609495446  0.1876830445164330  0.2837096281351847   F   F   F
  0.4997477358845472  0.2497042652143833  0.3694925717735558   F   F   F
  0.8324937791305018  0.1872964068475227  0.3684212773729811   F   F   F
  0.6683410125971889  0.1871723659475393  0.3681068276155344   F   F   F
  0.7503756501205174  0.2483432406759718  0.4550031563210197   F   F   F
  0.5834151510328809  0.1872918682436548  0.4533403289442717   F   F   F
  0.9170226143792775  0.1874334213038367  0.4536555004434746   F   F   F
  0.8193655711419936  0.1843795403406290  0.5393729624213393   F   F   F
  0.6556427415895811  0.1855086679117264  0.5415376627651654   F   F   F
  0.4999999773601118  0.2497488377297046  0.1972621243782342   F   F   F
  0.8336793361533594  0.3125684245377940  0.2026879820083352   F   F   F
  0.6657072758593117  0.3124132556660157  0.2026937887487748   F   F   F
  0.7497931976064436  0.3750918032181332  0.2779408447549940   F   F   F
  0.5826617397604110  0.3122475109908933  0.2840383815018441   F   F   F
  0.9173970560267861  0.3126929364249662  0.2836274479951371   F   F   F
  0.4999583420552582  0.3747320546362687  0.3695475225658100   F   F   F
  0.8329064877093941  0.3123472318248801  0.3684344655631193   F   F   F
  0.6686314105656663  0.3122148844234829  0.3679825568089328   F   F   F
  0.7506609679191669  0.3758276564825849  0.4552193507812774   F   F   F
  0.5839501702221881  0.3117759243590612  0.4533224822392086   F   F   F
  0.9156977392209456  0.3121858973025695  0.4559102216672599   F   F   F
  0.4980901096027992  0.3791023448055455  0.5386893745657346   F   F   F
  0.6603059509525693  0.3109836382654123  0.5415213579629281   F   F   F
  0.4999999773601118  0.3749314106702144  0.1972730817302377   F   F   F
  0.8337395803411525  0.4376312382800762  0.2027221991285302   F   F   F
  0.6656630452503052  0.4374555600568684  0.2027209852901350   F   F   F
  0.7498000447918542  0.9998887708080204  0.2779024612165273   F   F   F
  0.5827027124344184  0.4372505093595933  0.2840867710054695   F   F   F
  0.9174272609495446  0.4376830468713706  0.2837096281351847   F   F   F
  0.4996319963633553  0.9998043690465934  0.3695677313347758   F   F   F
  0.8322427524781517  0.4374437425600135  0.3683030757583623   F   F   F
  0.6686705610048449  0.4373153771412532  0.3681536096034392   F   F   F
  0.7494389661997545  0.9982099155479816  0.4549327208876051   F   F   F
  0.5850188833391172  0.4378636490516001  0.4532118261065108   F   F   F
  0.9177906035303707  0.4369985740280384  0.4534064667336324   F   F   F
  0.8251389632690476  0.4365278865535771  0.5406820379217621   F   F   F
  0.6617050959849422  0.4392603829826882  0.5404212595052797   F   F   F
  0.4999999773601118  0.4997488400846350  0.1972621243782342   F   F   F
  0.8336793361533594  0.5625684268927316  0.2026879820083352   F   F   F
  0.6657072758593117  0.5624132580209533  0.2026937887487748   F   F   F
  0.7497931976064436  0.6250918055730708  0.2779408447549940   F   F   F
  0.5826617397604110  0.5622475133458238  0.2840383815018441   F   F   F
  0.9173970560267861  0.5626929387799038  0.2836274479951371   F   F   F
  0.5003829227701502  0.6246890687055355  0.3696335738661531   F   F   F
  0.8322499309789890  0.5625560527746458  0.3682550471256150   F   F   F
  0.6685919840302930  0.5623624342210647  0.3681669290193526   F   F   F
  0.7518791595112120  0.6264725259395760  0.4557838184418586   F   F   F
  0.5846172738269004  0.5621386296700734  0.4543311491398399   F   F   F
  0.9134643419528317  0.5634539256336879  0.4542883039251038   F   F   F
  0.5014254619686369  0.6289944054591174  0.5419481369816737   F   F   F
  0.6649581164681067  0.5636475013702480  0.5432809971533601   F   F   F
  0.4999999773601118  0.6249314130251449  0.1972730817302377   F   F   F
  0.8337395803411525  0.6876312406350138  0.2027221991285302   F   F   F
  0.6656630452503052  0.6874555624118059  0.2027209852901350   F   F   F
  0.7498000447918542  0.7498887684530899  0.2779024612165273   F   F   F
  0.5827027124344184  0.6872505117145238  0.2840867710054695   F   F   F
  0.9174272609495446  0.6876830492263082  0.2837096281351847   F   F   F
  0.5003542639860399  0.7497300457688496  0.3695771139775132   F   F   F
  0.8314897829595864  0.6878537606754733  0.3681938303027223   F   F   F
  0.6682331142076805  0.6873208172574223  0.3684582502343972   F   F   F
  0.7515244311313936  0.7490782851269628  0.4553014981148849   F   F   F
  0.5849009350484380  0.6878010101097942  0.4540516710507703   F   F   F
  0.9177070016052369  0.6896509193551452  0.4521331174497902   F   F   F
  0.8252806006124871  0.6909645882720881  0.5418670394542389   F   F   F
  0.6618970380534819  0.6879531389733202  0.5413631981005764   F   F   F
  0.4999999773601118  0.7497488424395726  0.1972621243782342   F   F   F
  0.8336793361533594  0.8125684292476620  0.2026879820083352   F   F   F
  0.6657072758593117  0.8124132603758838  0.2026937887487748   F   F   F
  0.7497931976064436  0.8750918079280083  0.2779408447549940   F   F   F
  0.5826617397604110  0.8122475157007614  0.2840383815018441   F   F   F
  0.9173970560267861  0.8126929411348414  0.2836274479951371   F   F   F
  0.5000137269501792  0.8746916400815294  0.3696346564787731   F   F   F
  0.8320118808473893  0.8126821084293923  0.3683984112821150   F   F   F
  0.6679858976826978  0.8123778935193542  0.3681050232611582   F   F   F
  0.7507726764360427  0.8761866390680026  0.4550668992400304   F   F   F
  0.5844240617159073  0.8121144832270843  0.4545008896766163   F   F   F
  0.9186284450165303  0.8129870512287241  0.4569440183033322   F   F   F
  0.4988010572818524  0.8768493180493806  0.5419388855647043   F   F   F
  0.6615089020351448  0.8129649148306299  0.5436937678208835   F   F   F
  0.4999999773601118  0.8749314153800825  0.1972730817302377   F   F   F
  0.8337395803411525  0.9376312429899514  0.2027221991285302   F   F   F
  0.6656630452503052  0.9374555647667435  0.2027209852901350   F   F   F
  0.7498000447918542  0.4998887660981524  0.2779024612165273   F   F   F
  0.5827027124344184  0.9372505140694614  0.2840867710054695   F   F   F
  0.9174272609495446  0.9376830087642247  0.2837096281351847   F   F   F
  0.5002635939985467  0.4998864539792010  0.3695245908620564   F   F   F
  0.8317406991734586  0.9375677025358300  0.3683942120573960   F   F   F
  0.6680404542890628  0.9372843823303825  0.3682173853288973   F   F   F
  0.7517100229876448  0.4988493401789285  0.4556330400292126   F   F   F
  0.5834557923914687  0.9374895614787135  0.4536243999353786   F   F   F
  0.9171572388795965  0.9358201687795642  0.4524463861752892   F   F   F
  0.8205729949827898  0.9375791346795310  0.5418994194136175   F   F   F
  0.6566925697273831  0.9380461398904814  0.5417326314567177   F   F   F
  0.4059506829858179  0.9998103728487990  0.2323399872166121   F   F   F
  0.2502818000571452  0.0000100191821204  0.1992701411496398   F   F   F
  0.0942452122279107  0.0001403541836851  0.2320193042349672   F   F   F
  0.1548500920793501  0.1251896377484130  0.3155471657786819   F   F   F
  0.0000000000000000  0.1252068501894854  0.3027729273378696   F   F   F
  0.3452375182102116  0.1246790019965331  0.3159667273799300   F   F   F
  0.4003290885418522  0.1247250302904490  0.4022642072724310   F   F   F
  0.2497347430741286  0.1248983107606705  0.3877532941513806   F   F   F
  0.0984826812720172  0.1246205995845244  0.4028947143030450   F   F   F
  0.1510210797328639  0.1302951817438895  0.4878574312501485   F   F   F
  0.0023236255017167  0.1245328675154695  0.4774898406712822   F   F   F
  0.3495169538745984  0.1247450258376688  0.4886394712416049   F   F   F
  0.4040459506175651  0.1238951080383330  0.5722501034413412   F   F   F
  0.2515128577314627  0.1282961836432648  0.5589422025900532   F   F   F
  0.0727060652471110  0.0546232107632179  0.5583031330777857   F   F   F
  0.4058965681333504  0.1248444897695506  0.2323487465369354   F   F   F
  0.2502658969168294  0.1250292452004871  0.1993221065555701   F   F   F
  0.0942835895977723  0.1251516162367849  0.2320045413355558   F   F   F
  0.1548192245257454  0.2501939206276376  0.3155011055325190   F   F   F
  0.0000000000000000  0.2502658104001867  0.3027806040455658   F   F   F
  0.3452603789744160  0.2497083328310552  0.3159103002977375   F   F   F
  0.4000998734882018  0.2497062776142087  0.4017985526185726   F   F   F
  0.2495089516131870  0.2501367599091466  0.3873628974780772   F   F   F
  0.0982780387789290  0.2507731064246954  0.4029457283221163   F   F   F
  0.1523968670279032  0.2482037428326365  0.4879428592280703   F   F   F
  0.0001046956737483  0.2491756891321302  0.4788697780888711   F   F   F
  0.3484088142223101  0.2499077744990288  0.4889590388041825   F   F   F
  0.4055364834875164  0.2492528882148548  0.5719051436917724   F   F   F
  0.2524005069695860  0.2511527221027237  0.5645084061838901   F   F   F
  0.0751247230560637  0.1880476742383053  0.5659382093950427   F   F   F
  0.4059506829858179  0.2498103657839934  0.2323399872166121   F   F   F
  0.2502818000571452  0.2500100215370509  0.1992701411496398   F   F   F
  0.0942452122279107  0.2501403565386227  0.2320193042349672   F   F   F
  0.1548500920793501  0.3751896401033505  0.3155471657786819   F   F   F
  0.0000000000000000  0.3752068525444230  0.3027729273378696   F   F   F
  0.3452375182102116  0.3746790043514636  0.3159667273799300   F   F   F
  0.4004143470440980  0.3747887871845919  0.4017757193341467   F   F   F
  0.2494834955448297  0.3750904330735736  0.3871688473669295   F   F   F
  0.0982188437566407  0.3749853601123831  0.4025225908185632   F   F   F
  0.1528117291570510  0.3810362610394264  0.4854782751875533   F   F   F
  0.0010296178969824  0.3740768686329758  0.4783724652173902   F   F   F
  0.3503110065056561  0.3748305337767519  0.4879366588103196   F   F   F
  0.4037950344036858  0.3746913784695565  0.5716950512299377   F   F   F
  0.2535008607094298  0.3772724311074143  0.5582421458999960   F   F   F
  0.1043403379550512  0.3775769457365783  0.5677326562216436   F   F   F
  0.4058965681333504  0.3748444921244882  0.2323487465369354   F   F   F
  0.2502658969168294  0.3750292475554247  0.1993221065555701   F   F   F
  0.0942835895977723  0.3751516185917225  0.2320045413355558   F   F   F
  0.1548192245257454  0.0001939182727071  0.3155011055325190   F   F   F
  0.0000000000000000  0.0002658080452491  0.3027806040455658   F   F   F
  0.3452603789744160  0.9997083398958608  0.3159103002977375   F   F   F
  0.4003655884576460  0.9997536736977537  0.4021933453552577   F   F   F
  0.2499444105178057  0.0000464136470768  0.3875640665873803   F   F   F
  0.0988104074448515  0.0005544803779003  0.4024184959744943   F   F   F
  0.1500507120774088  0.9937533490882444  0.4878408968028083   F   F   F
  0.0008680464089110  0.9977309549693771  0.4761898853620607   F   F   F
  0.3480782166491423  0.9991055525023640  0.4885069004048930   F   F   F
  0.4052416679800643  0.9987462749076954  0.5704141892706147   F   F   F
  0.2508773395304331  0.9955437760764028  0.5583717969632644   F   F   F
  0.0701577526691963  0.9289315529032081  0.5671287552164159   F   F   F
  0.4059506829858179  0.4998103681389310  0.2323399872166121   F   F   F
  0.2502818000571452  0.5000100238919885  0.1992701411496398   F   F   F
  0.0942452122279107  0.5001403588935602  0.2320193042349672   F   F   F
  0.1548500920793501  0.6251896424582810  0.3155471657786819   F   F   F
  0.0000000000000000  0.6252068120823395  0.3027729273378696   F   F   F
  0.3452375182102116  0.6246790067064012  0.3159667273799300   F   F   F
  0.4014597576429253  0.6245615596271321  0.4023538672815192   F   F   F
  0.2498794174756114  0.6247447736454319  0.3880775858417707   F   F   F
  0.0986588858579509  0.6251420727517356  0.4016123760537837   F   F   F
  0.1493344081323471  0.6285041506076112  0.4868383319006000   F   F   F
  0.9976552807496688  0.6274044811446302  0.4750276515011151   F   F   F
  0.3508648002356125  0.6246453097135500  0.4886397336931481   F   F   F
  0.4052492964137596  0.6256586294801001  0.5750496573672129   T   T   T
  0.2536612725935186  0.6292135857722059  0.5577433895450099   F   F   F
  0.0875328721913746  0.6369839324919724  0.5700770702609574   F   F   F
  0.4058965681333504  0.6248444516624048  0.2323487465369354   F   F   F
  0.2502658969168294  0.6250292499103622  0.1993221065555701   F   F   F
  0.0942835895977723  0.6251516209466601  0.2320045413355558   F   F   F
  0.1548192245257454  0.7501939253375127  0.3155011055325190   F   F   F
  0.0000000000000000  0.7502658151100619  0.3027806040455658   F   F   F
  0.3452603789744160  0.7497083375409233  0.3159103002977375   F   F   F
  0.4011460571563461  0.7498640630339324  0.4018661338914313   F   F   F
  0.2504724168639925  0.7497255071649818  0.3865962437084534   F   F   F
  0.0998182137431343  0.7506724483261920  0.4004136942345156   F   F   F
  0.1509529391941484  0.7461054567780678  0.4850495933951038   F   F   F
  0.0011942816623360  0.7500688996461236  0.4692873113071130   F   F   F
  0.3487517809046068  0.7499490119968470  0.4871380515650827   F   F   F
  0.4025434351731292  0.7492777696119575  0.5696286717961883   F   F   F
  0.2544440605001768  0.7477935605139123  0.5589342634308139   F   F   F
  0.1059091717033667  0.7554967701500885  0.5671121879626284   F   F   F
  0.4059506829858179  0.7498103704938615  0.2323399872166121   F   F   F
  0.2502818000571452  0.7500100262469260  0.1992701411496398   F   F   F
  0.0942452122279107  0.7501403612484978  0.2320193042349672   F   F   F
  0.1548500920793501  0.8751896448132186  0.3155471657786819   F   F   F
  0.0000000000000000  0.8752068144372771  0.3027729273378696   F   F   F
  0.3452375182102116  0.8746790090613388  0.3159667273799300   F   F   F
  0.4011630094621665  0.8745416092518639  0.4023331336094600   F   F   F
  0.2505098002875812  0.8748034353144831  0.3873315345184380   F   F   F
  0.1000933712021421  0.8742736603557333  0.4007113470930790   F   F   F
  0.1501868827163619  0.8763729787285968  0.4874025371096380   F   F   F
  0.0014463574801908  0.8757946920889097  0.4686220950596649   F   F   F
  0.3500933322725786  0.8744430444773528  0.4887126296097932   F   F   F
  0.4040239734327880  0.8719268458453651  0.5746133171978278   T   T   T
  0.2503557938350056  0.8752136223430753  0.5579217581763345   F   F   F
  0.9639396392731072  0.8199838657085579  0.5441047669404853   F   F   F
  0.4058965681333504  0.8748444540173423  0.2323487465369354   F   F   F
  0.2502658969168294  0.8750292522652927  0.1993221065555701   F   F   F
  0.0942835895977723  0.8751516233015906  0.2320045413355558   F   F   F
  0.1548192245257454  0.5001939229825751  0.3155011055325190   F   F   F
  0.0000000000000000  0.5002658127551243  0.3027806040455658   F   F   F
  0.3452603789744160  0.4997083351859928  0.3159103002977375   F   F   F
  0.4007942553960930  0.5002384954978965  0.4018361159959625   F   F   F
  0.2493897332800543  0.5001932807273093  0.3874934999281976   F   F   F
  0.0985769957291680  0.5003418985953942  0.4022412427622371   F   F   F
  0.1502145475542065  0.5004061241217954  0.4879230113299755   F   F   F
  0.9979309351818131  0.4998808877669134  0.4758874755692375   F   F   F
  0.3480566259273985  0.5014895231180958  0.4877667870477680   F   F   F
  0.4056255521171366  0.5027271061947616  0.5666208786702427   F   F   F
  0.2570652072519692  0.4970654119576992  0.5625168582469371   F   F   F
  0.0914689546387990  0.4959347857909862  0.5723256894863198   F   F   F
  0.9057547977115519  0.0001403541836851  0.2320193042349672   F   F   F
  0.7497182098823174  0.0000100191821204  0.1992701411496398   F   F   F
  0.5940493269536447  0.9998103728487990  0.2323399872166121   F   F   F
  0.6547624917292509  0.1246790019965331  0.3159667273799300   F   F   F
  0.4999999773601118  0.1247350066555484  0.3031144096044613   F   F   F
  0.8451499178601125  0.1251896377484130  0.3155471657786819   F   F   F
  0.9025262945697108  0.1241673814532476  0.4030541208102392   F   F   F
  0.7502136368785486  0.1246157184445167  0.3872805533058070   F   F   F
  0.5988952015533116  0.1246503145947386  0.4018304732877453   F   F   F
  0.6483372917261931  0.1243484974376869  0.4879587047401088   F   F   F
  0.4990380030287085  0.1243352241622304  0.4726183463172760   F   F   F
  0.8477689110616566  0.1285875962650422  0.4860056059545030   F   F   F
  0.9247794815068460  0.0602890154339732  0.5470211613158611   F   F   F
  0.7439542050255881  0.1266671673917088  0.5583609380305887   F   F   F
  0.5920010245686527  0.1239656276663226  0.5720326951426813   F   F   F
  0.9057164203416903  0.1251516162367849  0.2320045413355558   F   F   F
  0.7497341130226332  0.1250292452004871  0.1993221065555701   F   F   F
  0.5941034418061122  0.1248444897695506  0.2323487465369354   F   F   F
  0.6547396309650466  0.2497083328310552  0.3159103002977375   F   F   F
  0.4999999773601118  0.2496370424967509  0.3031199210869104   F   F   F
  0.8451807854137172  0.2501939206276376  0.3155011055325190   F   F   F
  0.9024016647513307  0.2500772442546833  0.4028664023426174   F   F   F
  0.7506730609321153  0.2498781023058356  0.3872565061829860   F   F   F
  0.5994537993569082  0.2496605062223978  0.4015597873254322   F   F   F
  0.6504877497000265  0.2494495895937021  0.4880164440800243   F   F   F
  0.4996280205782782  0.2496133218690062  0.4699604011009200   F   F   F
  0.8491046644097224  0.2464249954705409  0.4873562144119319   F   F   F
  0.9234477039438644  0.1819746369131678  0.5631979200064166   F   F   F
  0.7438554730294626  0.2459452736053649  0.5589173024997152   F   F   F
  0.5923593974181287  0.2491146320650302  0.5717927816240405   F   F   F
  0.9057547977115519  0.2501403565386227  0.2320193042349672   F   F   F
  0.7497182098823174  0.2500100215370509  0.1992701411496398   F   F   F
  0.5940493269536447  0.2498103657839934  0.2323399872166121   F   F   F
  0.6547624917292509  0.3746790043514636  0.3159667273799300   F   F   F
  0.4999999773601118  0.3747350090104860  0.3031144096044613   F   F   F
  0.8451499178601125  0.3751896401033505  0.3155471657786819   F   F   F
  0.9022646658238145  0.3742877852616715  0.4027118183825635   F   F   F
  0.7506385489088601  0.3746425242524722  0.3874197182375880   F   F   F
  0.5994711381973943  0.3747415600141792  0.4016826474549759   F   F   F
  0.6505287775932729  0.3745264473177627  0.4876866409071852   F   F   F
  0.5000646943061184  0.3749165531651073  0.4711591157266284   F   F   F
  0.8496448189880894  0.3777823389700004  0.4875234944654778   F   F   F
  0.9693017959250754  0.3055234330793517  0.5845178271982673   T   T   T
  0.7447612893966209  0.3777068097509542  0.5595586356565576   F   F   F
  0.5939176842921441  0.3750980973197215  0.5681421462448526   F   F   F
  0.9057164203416903  0.3751516185917225  0.2320045413355558   F   F   F
  0.7497341130226332  0.3750292475554247  0.1993221065555701   F   F   F
  0.5941034418061122  0.3748444921244882  0.2323487465369354   F   F   F
  0.6547396309650466  0.9997083398958608  0.3159103002977375   F   F   F
  0.4999999773601118  0.9996370495615636  0.3031199210869104   F   F   F
  0.8451807854137172  0.0001939182727071  0.3155011055325190   F   F   F
  0.9019443942480123  0.0008642186832120  0.4028312010291302   F   F   F
  0.7500754783470498  0.0002342947203005  0.3871566761765308   F   F   F
  0.5989520221484028  0.9997521751021381  0.4018056716167351   F   F   F
  0.6496955193037977  0.9995405305841487  0.4878483438654015   F   F   F
  0.4991943286892493  0.9997004093278647  0.4717374933190968   F   F   F
  0.8483322025004156  0.9951969248365842  0.4868419078029049   F   F   F
  0.9146901031931918  0.9443893190378624  0.5754975887603112   T   T   T