Mo  S Cu                                
   1.00000000000000     
    15.9214998300000001    0.0000000000000000    0.0000000000000000
    -7.9622501300000001   13.7910221699999997    0.0000000000000000
     0.0000000000000000    0.0000000000000000   13.5821998300000004
   Mo   S    Cu
    25    49     4
Direct
  0.1364808949319780  0.0664157964273713  0.6767394101554061
  0.1415826512948044  0.2653703223481330  0.6767193568415237
  0.1381784842299325  0.4690476904323830  0.6764962367288021
  0.1369910989089789  0.6681067930905300  0.6768473425017874
  0.1363799146698170  0.8672099595016860  0.6771186887886103
  0.3351271881991735  0.0668508596015087  0.6785784747554899
  0.3262773378716091  0.2604129620783979  0.6759855878573120
  0.3388799245774621  0.4717781202750473  0.6690348880972365
  0.3375369797153880  0.6694894403217404  0.6759995718881200
  0.3370800949692736  0.8684143453972197  0.6779461863212290
  0.5380057448775801  0.0684822550699522  0.6803932090265761
  0.5353965826563467  0.2685535191501600  0.6793674327507375
  0.5376659226334439  0.4711167423334786  0.6778327221326919
  0.5379519687605878  0.6700190463473419  0.6766198128525787
  0.5378892477455040  0.8691665800809787  0.6783786663719980
  0.7383772176965735  0.0690064341903351  0.6805977319589687
  0.7378386487878288  0.2681596024955510  0.6811746603845705
  0.7370777823751453  0.4696177270852786  0.6796876953049846
  0.7370973375589926  0.6685861991725162  0.6783467423513017
  0.7379974493990886  0.8690254402300326  0.6790418350838294
  0.9382293403200279  0.0687126017546618  0.6796783935709882
  0.9393551303322099  0.2686731633236619  0.6795870920965257
  0.9371825008811427  0.4683701423446394  0.6785895060602627
  0.9369742810324837  0.6683164776133026  0.6777219302374604
  0.9367795195977848  0.8677934743550964  0.6780048305456106
  0.0698369265454204  0.1346858686052670  0.5626845508636649
  0.0746411743562660  0.1351073278746426  0.7952115231125205
  0.0723241653268829  0.3337120352269523  0.5635947577611944
  0.0772307852909506  0.3355926554388518  0.7907672654002269
  0.0695627627848907  0.5343246218809625  0.5623978634727820
  0.0711739616162745  0.5349861621328174  0.7918172443483087
  0.0697388735539164  0.7341839603581448  0.5622128041534680
  0.0704385710649618  0.7343796332747274  0.7919578660052338
  0.0690963726773006  0.9331643046031886  0.5621212789795251
  0.0697769036356135  0.9334579230358742  0.7919330876885056
  0.2695938127845636  0.1321934335710893  0.5610128234729430
  0.2657778563044602  0.1324423275867943  0.7957777333650640
  0.2710498274357462  0.3353159609258185  0.5615446308348453
  0.2700037986532848  0.5372590557491748  0.5595272533678184
  0.2700017451479368  0.5337727790882525  0.7907930093129139
  0.2707364829957015  0.7360617527868953  0.5621509485273890
  0.2701381012866335  0.7344166601705169  0.7918123984066838
  0.2704151569743942  0.9347100341387318  0.5630071134035077
  0.2686097311528997  0.9331316868280979  0.7925147364197684
  0.4706364391851565  0.1356166169256880  0.5663952469261702
  0.4667660660111963  0.1302165059136442  0.7956247102969201
  0.4672360444570955  0.3341007066785480  0.5660254815500991
  0.4595011859508560  0.3369640089720320  0.7921209742226409
  0.4738584785666546  0.5379306938660875  0.5602032402917487
  0.4688173256329691  0.5349529247255091  0.7913621186907207
  0.4716849869469826  0.7370374827305852  0.5622392269429781
  0.4701794661086183  0.7351101812845542  0.7916882030481744
  0.4715685643017977  0.9364775911430243  0.5641782798537562
  0.4700829851824153  0.9338900165585926  0.7934508356925392
  0.6714975215975088  0.1356580975025281  0.5660866532467566
  0.6711997165194674  0.1349229007469575  0.7953853265514468
  0.6695245837495705  0.3344989186097393  0.5670107053916666
  0.6739629606394075  0.3380807413087652  0.7964700050113649
  0.6705664640897453  0.5352264538299707  0.5634366658799834
  0.6698771309801330  0.5358502855538987  0.7934891228005583
  0.6718133068331085  0.7367270411079332  0.5632934430228360
  0.6702031519069251  0.7351130185774508  0.7929211540911965
  0.6720330857879020  0.9366537380821640  0.5647212830588586
  0.6708193049469671  0.9347941420783670  0.7940513990829814
  0.8716059325797403  0.1355947952423975  0.5656534525625005
  0.8725705997569406  0.1359788872213201  0.7948375424839753
  0.8706061801903004  0.3340145686453297  0.5654060253439894
  0.8731511750594407  0.3358580186780529  0.7942763960578674
  0.8695596727870694  0.5343500865337418  0.5639755162710358
  0.8714930591907333  0.5362330041948695  0.7931889152263452
  0.8698319105097880  0.7346925943703084  0.5631338599820026
  0.8704228943120924  0.7348615120200179  0.7928222678336070
  0.8709691714884968  0.9360842710932644  0.5642322338828691
  0.8713564741978601  0.9349611806353408  0.7937002596893592
  0.2351309263251267  0.2617570056333491  0.8418122024062029
  0.5319755427712636  0.2715903402537023  0.8758993437433773
  0.2831135439386756  0.3336054171888847  0.9979597855202087
  0.3165912921589751  0.4313933219774455  0.8593162322282453
 
  0.00000000E+00  0.00000000E+00  0.00000000E+00
  0.00000000E+00  0.00000000E+00  0.00000000E+00
  0.00000000E+00  0.00000000E+00  0.00000000E+00
  0.00000000E+00  0.00000000E+00  0.00000000E+00
  0.00000000E+00  0.00000000E+00  0.00000000E+00
  0.00000000E+00  0.00000000E+00  0.00000000E+00
  0.00000000E+00  0.00000000E+00  0.00000000E+00
  0.00000000E+00  0.00000000E+00  0.00000000E+00
  0.00000000E+00  0.00000000E+00  0.00000000E+00
  0.00000000E+00  0.00000000E+00  0.00000000E+00
  0.00000000E+00  0.00000000E+00  0.00000000E+00
  0.00000000E+00  0.00000000E+00  0.00000000E+00
  0.00000000E+00  0.00000000E+00  0.00000000E+00
  0.00000000E+00  0.00000000E+00  0.00000000E+00
  0.00000000E+00  0.00000000E+00  0.00000000E+00
  0.00000000E+00  0.00000000E+00  0.00000000E+00
  0.00000000E+00  0.00000000E+00  0.00000000E+00
  0.00000000E+00  0.00000000E+00  0.00000000E+00
  0.00000000E+00  0.00000000E+00  0.00000000E+00
  0.00000000E+00  0.00000000E+00  0.00000000E+00
  0.00000000E+00  0.00000000E+00  0.00000000E+00
  0.00000000E+00  0.00000000E+00  0.00000000E+00
  0.00000000E+00  0.00000000E+00  0.00000000E+00
  0.00000000E+00  0.00000000E+00  0.00000000E+00
  0.00000000E+00  0.00000000E+00  0.00000000E+00
  0.00000000E+00  0.00000000E+00  0.00000000E+00
  0.00000000E+00  0.00000000E+00  0.00000000E+00
  0.00000000E+00  0.00000000E+00  0.00000000E+00
  0.00000000E+00  0.00000000E+00  0.00000000E+00
  0.00000000E+00  0.00000000E+00  0.00000000E+00
  0.00000000E+00  0.00000000E+00  0.00000000E+00
  0.00000000E+00  0.00000000E+00  0.00000000E+00
  0.00000000E+00  0.00000000E+00  0.00000000E+00
  0.00000000E+00  0.00000000E+00  0.00000000E+00
  0.00000000E+00  0.00000000E+00  0.00000000E+00
  0.00000000E+00  0.00000000E+00  0.00000000E+00
  0.00000000E+00  0.00000000E+00  0.00000000E+00
  0.00000000E+00  0.00000000E+00  0.00000000E+00
  0.00000000E+00  0.00000000E+00  0.00000000E+00
  0.00000000E+00  0.00000000E+00  0.00000000E+00
  0.00000000E+00  0.00000000E+00  0.00000000E+00
  0.00000000E+00  0.00000000E+00  0.00000000E+00
  0.00000000E+00  0.00000000E+00  0.00000000E+00
  0.00000000E+00  0.00000000E+00  0.00000000E+00
  0.00000000E+00  0.00000000E+00  0.00000000E+00
  0.00000000E+00  0.00000000E+00  0.00000000E+00
  0.00000000E+00  0.00000000E+00  0.00000000E+00
  0.00000000E+00  0.00000000E+00  0.00000000E+00
  0.00000000E+00  0.00000000E+00  0.00000000E+00
  0.00000000E+00  0.00000000E+00  0.00000000E+00
  0.00000000E+00  0.00000000E+00  0.00000000E+00
  0.00000000E+00  0.00000000E+00  0.00000000E+00
  0.00000000E+00  0.00000000E+00  0.00000000E+00
  0.00000000E+00  0.00000000E+00  0.00000000E+00
  0.00000000E+00  0.00000000E+00  0.00000000E+00
  0.00000000E+00  0.00000000E+00  0.00000000E+00
  0.00000000E+00  0.00000000E+00  0.00000000E+00
  0.00000000E+00  0.00000000E+00  0.00000000E+00
  0.00000000E+00  0.00000000E+00  0.00000000E+00
  0.00000000E+00  0.00000000E+00  0.00000000E+00
  0.00000000E+00  0.00000000E+00  0.00000000E+00
  0.00000000E+00  0.00000000E+00  0.00000000E+00
  0.00000000E+00  0.00000000E+00  0.00000000E+00
  0.00000000E+00  0.00000000E+00  0.00000000E+00
  0.00000000E+00  0.00000000E+00  0.00000000E+00
  0.00000000E+00  0.00000000E+00  0.00000000E+00
  0.00000000E+00  0.00000000E+00  0.00000000E+00
  0.00000000E+00  0.00000000E+00  0.00000000E+00
  0.00000000E+00  0.00000000E+00  0.00000000E+00
  0.00000000E+00  0.00000000E+00  0.00000000E+00
  0.00000000E+00  0.00000000E+00  0.00000000E+00
  0.00000000E+00  0.00000000E+00  0.00000000E+00
  0.00000000E+00  0.00000000E+00  0.00000000E+00
  0.00000000E+00  0.00000000E+00  0.00000000E+00
  0.00000000E+00  0.00000000E+00  0.00000000E+00
  0.00000000E+00  0.00000000E+00  0.00000000E+00
  0.00000000E+00  0.00000000E+00  0.00000000E+00
  0.00000000E+00  0.00000000E+00  0.00000000E+00
