Ta  N Co Cu                             
   1.00000000000000     
    18.1096308199999996    0.0000000000000000    0.0000000000000000
     0.0000000000000000   23.3551997799999995    0.0000000000000000
     0.0000000000000000    0.0000000000000000   30.4818171199999988
   Ta   N    Co   Cu
   192   240    48     1
Direct
  0.9999040373754084  0.0015206563556873  0.1973959399478886
  0.3347888720620773  0.0636949383181289  0.2038344164615964
  0.1658795066580936  0.0636748754797338  0.2031428560737822
  0.2505262120813612  0.1259568674114036  0.2791052863111005
  0.0824128621876525  0.0636134555490315  0.2841959358039503
  0.4167418469762225  0.0635499413586800  0.2859969954250161
  0.9988275245237190  0.1262801356440306  0.3703055905466641
  0.3329753779080207  0.0632931509334114  0.3708183305505983
  0.1675007995266498  0.0633198477480690  0.3682827852089474
  0.2515757444904381  0.1251538833772017  0.4562562430888875
  0.0840553156176682  0.0637781010141296  0.4536297951120360
  0.4153624245697145  0.0624682776491241  0.4584903457485083
  0.9997994862894686  0.1263400133497043  0.1979494454585620
  0.3348051286447102  0.1884442791036918  0.2039442316480304
  0.1657147030007167  0.1885530953262986  0.2033452937354809
  0.2502237286069402  0.2508236662109198  0.2790708654283662
  0.0824644138676192  0.1885475679609883  0.2846434357512422
  0.4167455276521608  0.1883787100862975  0.2861618548570064
  0.9987862680091979  0.2510666113577855  0.3706041929002737
  0.3329159266852173  0.1883290100792081  0.3708968626157372
  0.1672957524821825  0.1883921209584827  0.3689512563377377
  0.2485312608267662  0.2505147029359449  0.4571553478787393
  0.0831970801122210  0.1882103662165022  0.4541791176913605
  0.4158054308613117  0.1887863310602071  0.4585057636720506
  0.9998810742217756  0.2507867047667389  0.1980867146864469
  0.3345062859661354  0.3129316649722469  0.2036567258924578
  0.1657084880853503  0.3130898476765296  0.2032916580263517
  0.2497578184617026  0.3759155194193511  0.2788059259883866
  0.0825440222868679  0.3134016926551269  0.2846906412764909
  0.4164747700525098  0.3133064732611786  0.2856637128643698
  0.9994847314461239  0.3762754387239582  0.3705840792817696
  0.3318443732789333  0.3136060385033659  0.3701414610268969
  0.1673701818906537  0.3136150861028995  0.3692145905583573
  0.2497899750916091  0.3786607246316223  0.4586330131342038
  0.0829701285741393  0.3120650964614740  0.4549475581491436
  0.4159932867169758  0.3146694690790000  0.4552592551269612
  0.0002058145723325  0.3754495011485588  0.1977397273682797
  0.3344125421774038  0.4378350533996382  0.2030655523675833
  0.1654989723996181  0.4379083671611141  0.2028391318842964
  0.2503121862176982  0.0010992969406303  0.2787462588780159
  0.0824696932398510  0.4382737795671190  0.2843044566982371
  0.4163262471430897  0.4382996809346551  0.2850985773193813
  0.9991917655512736  0.0010209212688181  0.3698190776990771
  0.3309347045402049  0.4387940293094132  0.3695491599296190
  0.1675654839937124  0.4386857111918445  0.3690925080270517
  0.2505023228981145  0.0006389652429348  0.4557167871246790
  0.0827122344719839  0.4392527663349668  0.4543491580061740
  0.4164236823046323  0.4412617779485544  0.4551161097971743
  0.0006098367677723  0.5001919881922561  0.1970263569382311
  0.3338735756656845  0.5630910447857147  0.2025839069164661
  0.1658700075144353  0.5630544512072007  0.2023582649035447
  0.2494036715951466  0.6258504565294700  0.2777791006780248
  0.0826337716093946  0.5632889311574090  0.2835290453003054
  0.4157840362553813  0.5632747724634299  0.2842858437844811
  0.9997439973189870  0.6262319309019659  0.3682511899908150
  0.3309381452216016  0.5637054793295846  0.3692003707721909
  0.1671302362829366  0.5636511241231332  0.3686585205878359
  0.2448364665694669  0.6270949000770329  0.4575948870390221
  0.0805247736214341  0.5650597330539142  0.4540985885952935
  0.4175757045699839  0.5635917741777661  0.4537008420989110
  0.0008210150791967  0.6256870720127807  0.1963482296621706
  0.3335853968110740  0.6883862436259420  0.2023962601637521
  0.1661048466020176  0.6883803891051272  0.2021078005314720
  0.2494907058552158  0.7511056526993372  0.2777285696913623
  0.0825327021747810  0.6885293058719029  0.2830479895120703
  0.4158217519230121  0.6884158949844092  0.2840741515838516
  0.9995091111929355  0.7514086258666595  0.3684046149405376
  0.3313237227895485  0.6884375651757253  0.3690387362535787
  0.1667383651719376  0.6886368461237140  0.3680326173520214
  0.2462430425642594  0.7506455401737142  0.4567445035790172
  0.0809494058391920  0.6896929153153764  0.4533152095340753
  0.4186206663994199  0.6890503592123949  0.4537147377847646
  0.0005964700514980  0.7513837677320367  0.1963148015976088
  0.3342214125254870  0.8137301797046561  0.2026641025768328
  0.1656801072723155  0.8137373787545812  0.2021970840848368
  0.2497610173884368  0.8760672931128681  0.2782849177552507
  0.0824521222848205  0.8136602155439121  0.2833696655782916
  0.4159510138679821  0.8135229518770970  0.2845279200982631
  0.9993504754674305  0.8761267642815938  0.3694976689148106
  0.3315338092500539  0.8132530217889595  0.3692874408318758
  0.1670408533133809  0.8135657902941915  0.3682303192073633
  0.2493286581164753  0.8734724057066430  0.4570158529186159
  0.0818199073657553  0.8145089536349417  0.4539563835993903
  0.4145068117644328  0.8125640108620829  0.4548842011366929
  0.0003592157059558  0.8764391606815352  0.1968280482715059
  0.3343730898764505  0.9389651621294632  0.2033498137160237
  0.1659301215219742  0.9389510563039352  0.2027115866402411
  0.2494018407616281  0.5007218586236633  0.2783015003866254
  0.0823329656950662  0.9385964537201161  0.2837779286056161
  0.4164420110538600  0.9386110910098822  0.2853254737025210
  0.9996011825487443  0.5011948674337248  0.3694129302321869
  0.3321410540822498  0.9382263802359034  0.3702085017862800
  0.1673487875264001  0.9384725031554240  0.3683335288188374
  0.2499127698248671  0.4996075835957043  0.4605374848477197
  0.0836317825934572  0.9387499968481166  0.4546047862221556
  0.4115346811443530  0.9370848605917672  0.4582867727683961
  0.4986175071444876  0.0014903122536722  0.1983380479208137
  0.8332357556531136  0.0638057116685928  0.2028732436590559
  0.6640915233264693  0.0638499553250895  0.2035015142284493
  0.7487905756231967  0.1263079441794019  0.2788582730711155
  0.5818525865747546  0.0636908103360128  0.2853780135223829
  0.9166893974270565  0.0637018320525939  0.2840045325277245
  0.5001498694589515  0.1257413226142887  0.3729097193703765
  0.8322888964908870  0.0637991060950966  0.3684907041077778
  0.6661286026165598  0.0636012735027691  0.3702439361119261
  0.7513922230989394  0.1254891454773954  0.4564109069636118
  0.5869683887499946  0.0607050805649010  0.4619297082096452
  0.9156718626183888  0.0639976627566341  0.4546386459214204
  0.4988725466203974  0.1262013952047809  0.1989087057714087
  0.8333868392909096  0.1885318615535354  0.2031404599196804
  0.6640944682542553  0.1884350694336234  0.2036615077566424
  0.7488381026590645  0.2508950322924335  0.2788396565679037
  0.5819011024564205  0.1884546834772678  0.2857451506191424
  0.9167306198691989  0.1886742177314034  0.2844178577235326
  0.4996633621524040  0.2508862807063039  0.3721213004306350
  0.8319646300011172  0.1889117285327160  0.3689116129106793
  0.6664594504153882  0.1883988025006786  0.3703405654286911
  0.7469409091705757  0.2523197661701033  0.4555839185341952
  0.5858335855472490  0.1881327531502563  0.4581848209482260
  0.9145007381657777  0.1895630940437272  0.4560312028949980
  0.4989361474023255  0.2506810603660128  0.1987636493058815
  0.8333199986539270  0.3131775645470469  0.2029905493273034
  0.6645844242238965  0.3130470257690874  0.2033670756432997
  0.7491727133997799  0.3756600077712307  0.2779162131090658
  0.5819502278842208  0.3132935869941349  0.2851327848572893
  0.9168471572766848  0.3134987017736037  0.2843067484804109
  0.4994351122745613  0.3760918143912875  0.3712178446722234
  0.8318805209736482  0.3138984952157458  0.3687765218039232
  0.6665567150388227  0.3136253631096579  0.3695859008884170
  0.7510383138048269  0.3780123771358745  0.4567541560986470
  0.5854071956396325  0.3142849544616197  0.4566885332229944
  0.9131124372400450  0.3153979663487689  0.4562214532258295
  0.4985845978897601  0.3754537340349131  0.1982409445336017
  0.8335646570893402  0.4378964787308632  0.2021772542637379
  0.6644704904182461  0.4378153272356684  0.2024318201199691
  0.7489611826236668  0.0012567677105935  0.2779643975883133
  0.5816063024630225  0.4382281828963741  0.2841736553734577
  0.9169378725010944  0.4382902935765145  0.2835102084224772
  0.4989170459753538  0.0007772056325166  0.3720161769338048
  0.8318135944562570  0.4387040902656665  0.3678939736120910
  0.6674237761592750  0.4384429372211827  0.3679313890771638
  0.7533325711670003  0.9994508672032083  0.4529187319769576
  0.5848131851372358  0.4400624287715260  0.4545603415282500
  0.9137721626310267  0.4395389523820086  0.4543729455425449
  0.4981987434251636  0.5001821786652840  0.1975139086984683
  0.8331882089535441  0.5631266502649481  0.2013640997707853
  0.6647431355983215  0.5630807833821905  0.2016730754070863
  0.7489210314414123  0.6258415913369504  0.2759371258701080
  0.5813063318507972  0.5632800059752512  0.2829238367906655
  0.9172052656556389  0.5633360772638270  0.2822044709760760
  0.5001053082160070  0.6260800782240423  0.3690613534950202
  0.8317023586278651  0.5636681649417739  0.3657854312619691
  0.6668152390737419  0.5634188398047755  0.3664183939401937
  0.7464736771660370  0.6279019688790655  0.4504527652332371
  0.5854824995827812  0.5636655161158046  0.4546173747668263
  0.9124946231657631  0.5640669045596667  0.4528787149407449
  0.4978898180521796  0.6256003631181031  0.1968793007226921
  0.8329005223893873  0.6884368924359237  0.2010286879002052
  0.6648013076296522  0.6884681465787850  0.2013364319304571
  0.7489178021349900  0.7511212809278405  0.2761866974218421
  0.5812694411293648  0.6884837609754868  0.2825828873795757
  0.9171781036941056  0.6885654437948006  0.2817288951776291
  0.4999171547369983  0.7509860253546208  0.3694863636144916
  0.8317311276584647  0.6887254649581109  0.3652053445746120
  0.6663946947624737  0.6885344768840227  0.3663900835379792
  0.7498282206189231  0.7498259716305213  0.4529539262921958
  0.5857415055975821  0.6874426630047736  0.4539479974850664
  0.9123033373229887  0.6885428633468251  0.4509311938041662
  0.4979665554913453  0.7513199564197777  0.1969539438612884
  0.8332138984819011  0.8138516296189522  0.2012787402579406
  0.6642915850056923  0.8138932443404130  0.2016900941317274
  0.7490620060846709  0.8761576634678292  0.2769172761831769
  0.5812615175022344  0.8136121680693975  0.2831501788629680
  0.9169842487196291  0.8136995238780571  0.2822758844514652
  0.4990641408198400  0.8757637576765021  0.3703660207068680
  0.8320890022849454  0.8135985589433261  0.3662943750708862
  0.6669997471169538  0.8133886221620870  0.3668210993383241
  0.7502478086151498  0.8754650318178250  0.4525590358989362
  0.5841097635223065  0.8125079536177893  0.4536180850877827
  0.9127766475384504  0.8119912232695583  0.4536683782056770
  0.4981095487970819  0.8763722088200154  0.1975718780050641
  0.8330111475031359  0.9389951861829644  0.2021263441139070
  0.6644166808659051  0.9390635678715782  0.2027344466039054
  0.7492559479637109  0.5006991788355037  0.2767764449168979
  0.5814101527417748  0.9387209640485352  0.2842319302660243
  0.9169921193667108  0.9386656323807685  0.2831456324665922
  0.5000046076088580  0.5012161093049130  0.3702793297176683
  0.8324461774778484  0.9385078519145154  0.3674096935381996
  0.6666298771459296  0.9385213662876737  0.3676335715708632
  0.7490097567595839  0.5024230897264204  0.4532316671621501
  0.5828108334693312  0.9376179492366816  0.4542883684623789
  0.9151520857804272  0.9382707565554043  0.4550628539856589
  0.4050823462583466  0.0013331765355957  0.2339609894064125
  0.2502050660489346  0.0014391541455154  0.2001501218559696
  0.0941523274550491  0.0013105683510375  0.2322799721974818
  0.1549229049497782  0.1260448922726241  0.3160841203160132
  0.9994755062807954  0.1260767469994306  0.3035598848765630
  0.3449199960735712  0.1259115998359803  0.3179920815442827
  0.4011987980546010  0.1258248871417962  0.4055049050360893
  0.2498053263103941  0.1257959501432282  0.3888026146816301
  0.0988080812240639  0.1256945440405417  0.4014563165603846
  0.1536674676717311  0.1261135232957358  0.4856535924280720
  0.0004101108078274  0.1264192530907238  0.4731750263222665
  0.3494341819360969  0.1268482773435338  0.4885747751450324
  0.4360336950189989  0.1309460085888219  0.5617269458186982
  0.2790942258265119  0.0786349124308714  0.5577220654070061
  0.0968562850731303  0.1254629611734259  0.5619935084580518
  0.4052143544102620  0.1260888623929759  0.2344642178298173
  0.2501960734370314  0.1261166530743552  0.2013607105307571
  0.0942271429249004  0.1261726860616221  0.2327587741077011
  0.1549462734832190  0.2510041210490499  0.3164559423490516
  0.9995079880043249  0.2510591937682563  0.3037406693777456
  0.3444210592170975  0.2508358409255464  0.3176904390932762
  0.4007675327528020  0.2502237732461765  0.4043364111402781
  0.2494173560288786  0.2509364570095158  0.3894562769254222
  0.0986260489349959  0.2506962199115179  0.4021694434185221
  0.1500506464838409  0.2476135180251546  0.4872438789229179
  0.9965433118957421  0.2535511001999282  0.4755135062843294
  0.3470311166601547  0.2530213455927850  0.4871532971943395
  0.4240216045112817  0.2906669088795226  0.5603587956899574
  0.3116999770735589  0.2016093507921681  0.5643368602290408
  0.0674903316252511  0.2437582370690876  0.5587269075677668
  0.4052661700946629  0.2506485511977985  0.2342564945613503
  0.2501443810298696  0.2506775664397480  0.2005217177016618
  0.0942428071905326  0.2508656627318899  0.2330231103528178
  0.1549001334266933  0.3760055157237971  0.3163654394803501
  0.9995345951472530  0.3759368485557957  0.3036048390448016
  0.3440668000431728  0.3759542671166969  0.3170569263326470
  0.3995221184711824  0.3769716197533128  0.4027122730648500
  0.2493555006391830  0.3762176379350350  0.3897057344439432
  0.0993076003377382  0.3759976194434458  0.4017849560051019
  0.1457184220296810  0.3733414576343179  0.4851726957782958
  0.0012689043413658  0.3764044873565666  0.4705797636193978
  0.3533958835140538  0.3781948524486793  0.4869175024329451
  0.4110385002185026  0.4302691959094247  0.5670962738373930
  0.2702242141666176  0.3290232263177231  0.5600867451034617
  0.1181221511778645  0.4029777603630791  0.5708524879188204
  0.4048704563645416  0.3755239008737306  0.2337220114660994
  0.2500556698760690  0.3754211886967340  0.2008302769556209
  0.0943757184222491  0.3756284172695175  0.2328583774900324
  0.1547382813004248  0.0009220874976918  0.3157030957742606
  0.9995154935492536  0.0010976963035034  0.3030143502061051
  0.3448555924563408  0.0009039118998757  0.3175430872267384
  0.3999395472650278  0.0003424179925915  0.4050685584882885
  0.2494937991675030  0.0009834115831922  0.3878025117377319
  0.0987538423968033  0.0009020418684642  0.4013428152226979
  0.1510228035912533  0.0016864855325451  0.4850626717156103
  0.0005291834165106  0.0006374233654896  0.4724267301528684
  0.3470922600687842  0.0011334913688188  0.4899499804045391
  0.4491142895328153  0.9722793973385748  0.5762107125843272
  0.2243557467936839  0.9539842922330806  0.5577738759950890
  0.0903626481479520  0.0065096729024035  0.5617957084793872
  0.4044848008717921  0.5003991850712950  0.2330302510308115
  0.2499513275829415  0.5002522197425847  0.2001156294589563
  0.0945356786249079  0.5004217377323172  0.2323467404124884
  0.1545230535423627  0.6259157144547203  0.3154561274362209
  0.9996676978253305  0.6260172687613590  0.3015833193597572
  0.3436605303609923  0.6260034348747467  0.3161089769325613
  0.4017445577214360  0.6264418062277244  0.4012871582857755
  0.2483788917561469  0.6262061256041775  0.3890737348515501
  0.0982414468204382  0.6264527174671741  0.4012739800036798
  0.1435729452574819  0.6280990501229198  0.4882572669619236
  0.9950385847850072  0.6271136044762073  0.4705729442609723
  0.3485776382903509  0.6294763233812404  0.4809970435418691
  0.4185444439767636  0.5864756441076793  0.5494977611464265
  0.2667603945088501  0.6243633758216092  0.5457186873196989
  0.0591875868391867  0.6396566864041233  0.5617061148446680
  0.4043561001163027  0.6258004514237143  0.2324509316394341
  0.2498515744074510  0.6256090235962475  0.1986020075032116
  0.0945847819134116  0.6257104432823226  0.2316424183507664
  0.1544205065902418  0.7510765962808819  0.3153184108194438
  0.9995748248607157  0.7511765817590685  0.3016679348216798
  0.3438351080539874  0.7507944094981482  0.3161722485214611
  0.4008860603727413  0.7508118791199792  0.4018443543560295
  0.2486252110719320  0.7507890618630100  0.3884948583386461
  0.0982533633052753  0.7516573009525800  0.4010645068466019
  0.1453119812804999  0.7522771668767660  0.4871170184985445
  0.9964277558449126  0.7511512548223891  0.4705111920300169
  0.3490517256918793  0.7488143610266604  0.4850892398320212
  0.4854033366115900  0.8051737199971001  0.5537777438775962
  0.2579663695419754  0.7465269494544771  0.5499466468356857
  0.0664293824955493  0.7606783153601810  0.5565403154936135
  0.4044156173471620  0.7510606297926685  0.2325833124193011
  0.2499023556362658  0.7512831804458102  0.1989921614147789
  0.0945312056999015  0.7512141477799403  0.2315548373831291
  0.1544986000211921  0.8760919700297904  0.3156185381664258
  0.9995766105280950  0.8760952888443754  0.3025219416012987
  0.3441903293768007  0.8760101619012914  0.3168368860348565
  0.3999840283754281  0.8756954456266826  0.4032128047427932
  0.2490803350716533  0.8756216112602289  0.3888529254657271
  0.0986876420171114  0.8765528422071753  0.4018427007663234
  0.1498603608208597  0.8757878850709346  0.4881825353647926
  0.9975286837637540  0.8759494719311292  0.4734395789730641
  0.3474036902636541  0.8707522237703813  0.4873720132930686
  0.3918281430366051  0.9561246542641797  0.5875172615696869
  0.2939878928350410  0.8535108357781311  0.5707166369298520
  0.0737381737679641  0.8803636891454900  0.5599460472352717
  0.4045526460984235  0.8763401118589869  0.2332640982549350
  0.2500669910505593  0.8764044206305854  0.2001598681998189
  0.0944185016499119  0.8763586205884479  0.2319262038747283
  0.1547772646782164  0.5009056653225059  0.3161403769515871
  0.9995491397446514  0.5008880838077658  0.3025811604864046
  0.3436304548425895  0.5010305596410802  0.3165528303109255
  0.4000246993996015  0.5017125862400107  0.4014100409826042
  0.2491200519906016  0.5011788552679235  0.3908067102505797
  0.0985255109878196  0.5014895027647981  0.4016998614963754
  0.1465151458961529  0.5051271525886207  0.4861451685157760
  0.9971265124903610  0.5020187007138759  0.4718886413261814
  0.3522178496723498  0.5055835560772763  0.4865788592137505
  0.4596727652318151  0.4610209636821736  0.5770496670616225
  0.2435295084425277  0.4403283989077593  0.5218684682588446
  0.0745105706788038  0.5171516368071067  0.5658770300850193
  0.9051069247994619  0.0014012410764792  0.2318098882674562
  0.7487405814183319  0.0015968488495162  0.1997004806246920
  0.5929831514229562  0.0014741681161539  0.2330648879665347
  0.6541323625942468  0.1260643910519832  0.3174042584210071
  0.4995039721829926  0.1259111715672958  0.3057097539193023
  0.8444414824538029  0.1263825959254135  0.3161108821386378
  0.8996237200316628  0.1267699311069208  0.4028659388107201
  0.7497316573110950  0.1261341282385686  0.3883802220557300
  0.5990830002039473  0.1255404462041554  0.4052308671788794
  0.6570623626349814  0.1266543637999433  0.4885682158886482
  0.5010048701575371  0.1254239750644928  0.4779694528554188
  0.8485852418614996  0.1260337704742014  0.4899604517604317
  0.9345342839978912  0.1188791875875523  0.5711854861224381
  0.7303237443899775  0.0436320782228492  0.5652396428580104
  0.5993938514628852  0.1318688755074646  0.5829459458051574
  0.9050560121488047  0.1262645525085730  0.2325523774682949
  0.7488158037510289  0.1262464932089387  0.2008577160055012
  0.5931548758582252  0.1262283247400546  0.2338937234349459
  0.6539386157027494  0.2508657507974448  0.3171210005842013
  0.4993798301535364  0.2509098032222852  0.3051766248378556
  0.8444259465518726  0.2512013054398139  0.3161814999687493
  0.8997394127748422  0.2520930144477944  0.4028293451850686
  0.7492884299509797  0.2514526872822671  0.3879641375409904
  0.5987537022775911  0.2506765324037801  0.4045218169624221
  0.6502573648756780  0.2520648127276743  0.4877490722983069
  0.5010717559363513  0.2509994539616187  0.4772661014077784
  0.8446330816310024  0.2537486164868241  0.4844092996935814
  0.9059924641156911  0.2378462917999613  0.5585802914929587
  0.7380500406706076  0.2219417232374639  0.5720817684401425
  0.5875004371611396  0.2425243439368003  0.5713720671876672
  0.9051157196963544  0.2509555780121602  0.2326279918597578
  0.7489063043992132  0.2506759594391070  0.2006271760939669
  0.5932347720387838  0.2507138439290912  0.2337000125083364
  0.6543908324741352  0.3757330542946349  0.3161331889829029
  0.4992749506441854  0.3758165338139392  0.3043371418994454
  0.8444308869015487  0.3759451431829248  0.3157187440493558
  0.8996477873827402  0.3765887003461188  0.4024488910338704
  0.7497093458457869  0.3762184727176248  0.3885283174235568
  0.5992806092603473  0.3765347593841852  0.4027424488140952
  0.6519570309901113  0.3792804883668879  0.4864260722607341
  0.4983886605630161  0.3788097806348887  0.4719246282661871
  0.8485811788378541  0.3794225606354473  0.4890525415714535
  0.9737483442172845  0.3495223586399874  0.5565239567759406
  0.6950091756322649  0.3407673709829311  0.5700956645885640
  0.5367366295645795  0.3484788997947064  0.5533006243746357
  0.9052557119803808  0.3755976974192023  0.2321622692560297
  0.7489690355868888  0.3754768775584267  0.1994942867638301
  0.5932501869530284  0.3754673862174016  0.2328565261977289
  0.6539025604271416  0.0014396792682305  0.3161932521263822
  0.4992574513477379  0.0011009680501175  0.3049249548180271
  0.8448262878960904  0.0012475432375894  0.3152199630098451
  0.8999877401298448  0.0007758646502012  0.4021059684925490
  0.7498241581818803  0.0007994301760164  0.3857670720136852
  0.5985066075570487  0.0008968449149194  0.4034641203475147
  0.6583076399038887  0.9932613570731448  0.4834854462459504
  0.4981501329960452  0.9960906080091476  0.4751657447717861
  0.8498470442509429  0.0021689478415823  0.4871140756109398
  0.9265962873396418  0.0096704556288216  0.5687481168283028
  0.7511844617322865  0.9961167964041096  0.5593539620986050
  0.5701182492507400  0.0485935177784995  0.5319020310259290
  0.9054071455935357  0.5004590689161432  0.2310272533293656
  0.7489924073226462  0.5003005275760799  0.1988469923956231
  0.5931573557362171  0.5003844402545070  0.2317163367336619
  0.6534809434959570  0.6259549663220199  0.3137779377371359
  0.4989488967646238  0.6259240770235834  0.3023669487279719
  0.8446841560458864  0.6260027050305936  0.3129583094710497
  0.8998061201180008  0.6258576856772535  0.3985315648515453
  0.7492062882940402  0.6263205003470276  0.3834032236661002
  0.5993769867656553  0.6256104215265381  0.4009331063898216
  0.6534722887764772  0.6263709499492549  0.4843436151795544
  0.5015275939347532  0.6260058700475497  0.4743667903096025
  0.8431966024386739  0.6271053614070539  0.4795004091337844
  0.8892817420351378  0.6071016549631949  0.5550444491826241
  0.7177145078618921  0.6742435477454336  0.5852084122202541
  0.5870620319372506  0.5634747562191862  0.5552722610071541
  0.9054205443419505  0.6257824484417469  0.2300298872620488
  0.7489214682046921  0.6256817599842464  0.1971667103005927
  0.5929802211012216  0.6257729462989587  0.2308294096029684
  0.6537871845404482  0.7511111021209160  0.3140077074159038
  0.4989691911795191  0.7509690682126973  0.3027293469039094
  0.8446167375520588  0.7512584842163932  0.3132942771562881
  0.8995707018331274  0.7515071609737518  0.3994166801873575
  0.7495102428512084  0.7509360484777048  0.3849614553520055
  0.5996203691347048  0.7506347571147387  0.4009201894940446
  0.6509375791289074  0.7495731254620708  0.4850453921870894
  0.5023402667647616  0.7499336199715998  0.4727911990220122
  0.8458059346477356  0.7478499756957859  0.4838270282815955
  0.9310319120257589  0.8120268958559294  0.5452927777533532
  0.7751316296801321  0.6920063213654544  0.5705306887629362
  0.6367740966288977  0.7836645703150182  0.5654450724424507
  0.9052823410237423  0.7512650416027284  0.2301570849731718
  0.7488341519456156  0.7513370908689936  0.1980746208986943
  0.5929269257260472  0.7511718238768452  0.2310626422216799
  0.6539416890931378  0.8760797521327817  0.3147557396697565
  0.4990389745713344  0.8759488015168131  0.3036164163763431
  0.8448014261895835  0.8762280111607694  0.3142342149194874
  0.8998354930300820  0.8758078534603868  0.4011103754324949
  0.7494225104611942  0.8759352270625058  0.3851923056686388
  0.5991044504623773  0.8759833425492545  0.4011781334860487
  0.6534242644419379  0.8753677370080126  0.4843638806621655
  0.4985220796778762  0.8741705673227571  0.4712876590688779
  0.8473965783683610  0.8745448922656749  0.4828148289377054
  0.8979365954468719  0.9029574693834945  0.5723471883793323
  0.7468692075485421  0.8767182814333196  0.5498935818327908
  0.5804973125982329  0.9111550341635279  0.5574047945435368
  0.9051896610689454  0.8764234023413664  0.2309112623715635
  0.7487466935199905  0.8764432989920508  0.1987715279009450
  0.5928562365340113  0.8764088803942940  0.2318877342482182
  0.6542001306456839  0.5006268183816758  0.3147015098266621
  0.4991880952812977  0.5009529946030469  0.3034453939604091
  0.8446647714791595  0.5006833385070593  0.3142704128018252
  0.8996026994558974  0.5019164942048917  0.4005192134353450
  0.7495754715671481  0.5013511765395577  0.3856932527223833
  0.6004412490494104  0.5012755552051402  0.4012537774704725
  0.6531770341248588  0.5014711524462641  0.4854368661247648
  0.5013164944657404  0.5003803037275389  0.4688721030744745
  0.8452933335665662  0.5039139405035229  0.4841551264167663
  0.9116980237342318  0.4722217594639844  0.5597467218663184
  0.7605806220852642  0.5264139244749089  0.5553627034357405
  0.6193730076093189  0.4509387397461495  0.5666247519655556
  0.0118491470287339  0.1200551746771552  0.5364485354694182
  0.2812557469940984  0.0104212678638049  0.5410696795805023
  0.1363979323274691  0.0651269714422824  0.5345506228016177
  0.9873398326784866  0.2761759162753776  0.5414220812369521
  0.3430049994280751  0.1348212739654429  0.5521792607489004
  0.1182898185527179  0.1930251372673837  0.5351862922738988
  0.0539932458331620  0.3782525922058895  0.5317849863146336
  0.3335702195311541  0.2687682759603405  0.5489519550301054
  0.1958582356677638  0.3725279294075321  0.5428809880846970
  0.0054394223548755  0.0049573884478278  0.5357900877775634
  0.3183526350364687  0.3940064063972386  0.5460193105793394
  0.1385723008880788  0.4676993556866123  0.5428262204046206
  0.9761714363001204  0.6295569313565039  0.5330281675823514
  0.3323255092056456  0.5768579353124750  0.5279334357174221
  0.1015843852142524  0.5788291860812080  0.5389552637413004
  0.9799120859005370  0.7509251843518072  0.5327493918792072
  0.2998329638041923  0.6894251301084182  0.5259969682455932
  0.1063017311585241  0.6967139491124072  0.5358651563925960
  0.9800307455879178  0.8802680509774703  0.5408186138708899
  0.3085424705257651  0.8059925712890674  0.5303337099774055
  0.1165751816035439  0.8198282737634273  0.5365891005493140
  0.9957770578437746  0.4959738576422907  0.5360518482406391
  0.3006484664416931  0.9215714920735039  0.5821377025554852
  0.1249822497384656  0.9414214000208929  0.5397508290760697
  0.5213948391375283  0.1160328754372699  0.5457261412016692
  0.8912395211513413  0.0665355901103197  0.5377309564488186
  0.6524587219045870  0.0903277713402915  0.5470980199411173
  0.5190085210393676  0.2758465008427464  0.5416088426671237
  0.8889602976510105  0.1701065484182536  0.5400722001246976
  0.6502360838570311  0.1930580772013926  0.5887295968647663
  0.4457516700479687  0.3581021232556125  0.5340409008766045
  0.8112537883987443  0.2488954577119600  0.5430935511249046
  0.6744088865157281  0.2760383615014561  0.5495948016736207
  0.5315932562528047  0.9745768929570104  0.5395061046271721
  0.9118890886041413  0.4022904494110264  0.5389524556612031
  0.6245237806460722  0.3794166385552344  0.5476468414297528
  0.5057333898714163  0.5931717968682548  0.5336589924180899
  0.8535809429701757  0.5334999262830635  0.5451446387698482
  0.6687565559882032  0.5138286455195384  0.5492986191564242
  0.5585856327099137  0.7679756749600344  0.5327149817052899
  0.8493893999242914  0.6692609808317016  0.5314095240916998
  0.6887477477949773  0.7299504377618504  0.5407880376386132
  0.5135954725614766  0.8674098377713335  0.5325901893954992
  0.8415310212283629  0.8541010979602035  0.5427659369712856
  0.6513836283696151  0.8546446212088270  0.5471295744517803
  0.5450719222815579  0.4975229289346856  0.5720847354039336
  0.8645149522693814  0.9623675620384162  0.5440764631889223
  0.7080289398006485  0.9395911414780187  0.5249336259306148
  0.6457969288003653  0.6295687868163213  0.5513882570694264
 
  0.00000000E+00  0.00000000E+00  0.00000000E+00
  0.00000000E+00  0.00000000E+00  0.00000000E+00
  0.00000000E+00  0.00000000E+00  0.00000000E+00
  0.00000000E+00  0.00000000E+00  0.00000000E+00
  0.00000000E+00  0.00000000E+00  0.00000000E+00
  0.00000000E+00  0.00000000E+00  0.00000000E+00