Ta  N Ru                                
   1.00000000000000     
    11.9754398999999996    0.0000000000000000    0.0000000000000000
    -1.7175315499999999   11.8516346499999994    0.0000000000000000
     0.0000000000000000    0.0000000000000000   22.7106327899999982
   Ta   N    Ru
    72    72     2
Selective dynamics
Direct
  0.9955339587019623  0.9955339540487174  0.2712224588739929   F   F   F
  0.2699333485827822  0.1030132974397020  0.3100259080635226   F   F   F
  0.1030132717436416  0.2699333822854797  0.3100259080635226   F   F   F
  0.3596205863249367  0.3596206399952564  0.3447007771003783   F   F   F
  0.1253409742651783  0.4593656738838163  0.3919418349552828   F   F   F
  0.4593656603424634  0.1253409739335112  0.3919418349552828   F   F   F
  0.2215179899757586  0.2215130187628767  0.4357692418582519   T   T   T
  0.4867272578623377  0.3205387960295172  0.4784401307712300   T   T   T
  0.3205569500578044  0.4867246176501488  0.4784410590704244   T   T   T
  0.0844750852807847  0.0844868842197372  0.5206366935452935   T   T   T
  0.3477620804337426  0.1822261578412754  0.5640788933383383   T   T   T
  0.1822587971512374  0.3477105902940897  0.5641068315668143   T   T   T
  0.4475068491371913  0.4474924882726640  0.6080161545504180   T   T   T
  0.2075287295908074  0.0430579966580331  0.6495375569246745   T   T   T
  0.0429815187498569  0.2074558138507959  0.6495589250524614   T   T   T
  0.3109248883955985  0.3108824981746942  0.7008681093492615   T   T   T
  0.0720341222785239  0.3996555286057184  0.7298885793812292   T   T   T
  0.3998721485746620  0.0718538462100594  0.7298330684449493   T   T   T
  0.9955339590589745  0.4955339536268326  0.2712224588739929   F   F   F
  0.2699333482257629  0.6030132978615868  0.3100259080635226   F   F   F
  0.1030132722216663  0.7699333827073573  0.3100259080635226   F   F   F
  0.3596205866819489  0.8596206395733716  0.3447007771003783   F   F   F
  0.1253409746221976  0.9593656734619316  0.3919418349552828   F   F   F
  0.4593656608204952  0.6253409743553888  0.3919418349552828   F   F   F
  0.2213463936845079  0.7214179919001983  0.4357563307286239   T   T   T
  0.4865669132440950  0.8202142124007281  0.4784501074794268   T   T   T
  0.3202567166338756  0.9867214996585292  0.4784120679894847   T   T   T
  0.0844604561822169  0.5844857507770338  0.5210033579013812   T   T   T
  0.3471528298470637  0.6820647542865728  0.5640941797249218   T   T   T
  0.1813552993718902  0.8474078815956547  0.5641249635367602   T   T   T
  0.4436117670355173  0.9445361555455035  0.6077910702631701   T   T   T
  0.2077013860702374  0.5442142374308210  0.6497115749298890   T   T   T
  0.0422920330392878  0.7075444192055658  0.6507750009005689   T   T   T
  0.3136314130182380  0.8136714583705159  0.6940525784278547   T   T   T
  0.0646432406020652  0.9029972316430139  0.7289078038588598   T   T   T
  0.4048565136902508  0.5637608078024312  0.7350897531129476   T   T   T
  0.4955339587019623  0.9955339540487174  0.2712224588739929   F   F   F
  0.7699333485827822  0.1030132974397020  0.3100259080635226   F   F   F
  0.6030132717436416  0.2699333822854797  0.3100259080635226   F   F   F
  0.8596205863249367  0.3596206399952564  0.3447007771003783   F   F   F
  0.6253409742651783  0.4593656738838163  0.3919418349552828   F   F   F
  0.9593656603424634  0.1253409739335112  0.3919418349552828   F   F   F
  0.7214367299231688  0.2213369043099589  0.4357481918549820   T   T   T
  0.9867462378643308  0.3202583320363260  0.4784157475308535   T   T   T
  0.8202413348018152  0.4865624445100806  0.4784490744636946   T   T   T
  0.5845020680645385  0.0844348510192512  0.5209900258789035   T   T   T
  0.8474076204725777  0.1813321414229576  0.5641049541940774   T   T   T
  0.6821021617371557  0.3471485833929383  0.5640662871316714   T   T   T
  0.9445619214129392  0.4435984418335731  0.6077965581864865   T   T   T
  0.7075047473907297  0.0421993150363886  0.6507431639001726   T   T   T
  0.5442405075604797  0.2076950778499264  0.6497063692193602   T   T   T
  0.8135579582337312  0.3136021463337009  0.6940292778468347   T   T   T
  0.5640164709926773  0.4046962816456274  0.7350509935219925   T   T   T
  0.9029714820307361  0.0645476520490876  0.7288975343455069   T   T   T
  0.4955339590589745  0.4955339536268326  0.2712224588739929   F   F   F
  0.7699333482257629  0.6030132978615868  0.3100259080635226   F   F   F
  0.6030132722216663  0.7699333827073573  0.3100259080635226   F   F   F
  0.8596205866819489  0.8596206395733716  0.3447007771003783   F   F   F
  0.6253409746221976  0.9593656734619316  0.3919418349552828   F   F   F
  0.9593656608204952  0.6253409743553888  0.3919418349552828   F   F   F
  0.7214170365114501  0.7214098472380839  0.4358191666341004   T   T   T
  0.9864194581807005  0.8199681277375432  0.4786204828399045   T   T   T
  0.8199723962886574  0.9863980948994300  0.4786175659385888   T   T   T
  0.5844169029651761  0.5844035606593563  0.5213893991565516   T   T   T
  0.8465805274123201  0.6808746403377617  0.5647148768262110   T   T   T
  0.6808691756764941  0.8465302202203502  0.5647079068598011   T   T   T
  0.9438826708183999  0.9438622360069404  0.6072417851017122   T   T   T
  0.7060605575771349  0.5404400633530256  0.6510754986234633   T   T   T
  0.5404781183586468  0.7059566615600208  0.6510946004465188   T   T   T
  0.8133523449588692  0.8133368608898111  0.6950252594750350   T   T   T
  0.5633946937064136  0.9069846093477799  0.7289929763862562   T   T   T
  0.9070856693352821  0.5633856842987319  0.7290182228949206   T   T   T
  0.4506180773709048  0.1400782132052782  0.2976725581183857   F   F   F
  0.2642075833142314  0.2642075209653356  0.2836189927733201   F   F   F
  0.1400781798198807  0.4506180903161052  0.2976725581183857   F   F   F
  0.3074132852265237  0.9999309000767909  0.3839488749030693   F   F   F
  0.1352939988863540  0.1352940283866033  0.3689431455789318   F   F   F
  0.9999308780646601  0.3074132624267207  0.3839488749030693   F   F   F
  0.1686799441853482  0.3644639446155859  0.4691899052859872   T   T   T
  0.4971748368764308  0.4971699309880541  0.4539246157288913   T   T   T
  0.3644665547884439  0.1686685289722538  0.4691765410191757   T   T   T
  0.0298264089794907  0.2252785711299181  0.5547242521980755   T   T   T
  0.3588427556787436  0.3588071727143136  0.5408390091279571   T   T   T
  0.2252649155897152  0.0298178118787169  0.5547234240402620   T   T   T
  0.3886513163622533  0.0880076368826010  0.6401833683176498   T   T   T
  0.2225353379976046  0.2224697535404007  0.6266844185972610   T   T   T
  0.0880255954334763  0.3885994938791036  0.6402348052810146   T   T   T
  0.2476683508272107  0.4568787373195711  0.7270742943815905   T   T   T
  0.0794165007345473  0.0794227710076092  0.7084708513311698   T   T   T
  0.4567207853357652  0.2474849326922677  0.7271142865879534   T   T   T
  0.4506180777279170  0.6400782127833935  0.2976725581183857   F   F   F
  0.2642075828362067  0.7642075205434509  0.2836189927733201   F   F   F
  0.1400781801769000  0.9506180898942276  0.2976725581183857   F   F   F
  0.3074132857045484  0.4999309004986756  0.3839488749030693   F   F   F
  0.1352939993643858  0.6352940288084810  0.3689431455789318   F   F   F
  0.9999308775866353  0.8074132620048431  0.3839488749030693   F   F   F
  0.1681471001370327  0.8642716648586301  0.4692730232383846   T   T   T
  0.4970644908157744  0.9970172504093917  0.4537993026515935   T   T   T
  0.3643697937601525  0.6683643052560080  0.4690809716982600   T   T   T
  0.0292991321302963  0.7252618194177666  0.5551864032589874   T   T   T
  0.3573389825082125  0.8580595363347649  0.5398085659341262   T   T   T
  0.2255637559828741  0.5301535280647923  0.5546320448309140   T   T   T
  0.3889257696845948  0.5896678330119240  0.6391033702508561   T   T   T
  0.2210964532244714  0.7222041488422815  0.6280432172336196   T   T   T
  0.0872087583354331  0.8908904288715498  0.6395428158656260   T   T   T
  0.2483611186074439  0.9496126171464685  0.7284981331268008   T   T   T
  0.0757778772117128  0.5745304593347313  0.7088467431249412   T   T   T
  0.4509115225695411  0.7530261422142718  0.7291840033826019   T   T   T
  0.9506180773709048  0.1400782132052782  0.2976725581183857   F   F   F
  0.7642075824791874  0.2642075209653356  0.2836189927733201   F   F   F
  0.6400781798198807  0.4506180903161052  0.2976725581183857   F   F   F
  0.8074132852265237  0.9999309000767909  0.3839488749030693   F   F   F
  0.6352939988863540  0.1352940283866033  0.3689431455789318   F   F   F
  0.4999308780646601  0.3074132624267207  0.3839488749030693   F   F   F
  0.6683895459359523  0.3643681599987157  0.4690683347378773   T   T   T
  0.9970408669271407  0.4970710924507106  0.4538046387869342   T   T   T
  0.8642864420796829  0.1681410836997554  0.4692650257265065   T   T   T
  0.5301863233440843  0.2255251193513622  0.5546153887077861   T   T   T
  0.8580927643537047  0.3573379204029082  0.5398038337529498   T   T   T
  0.7252626138130205  0.0292584409179253  0.5551673356416919   T   T   T
  0.8908248084767523  0.0871617070367112  0.6395274215908507   T   T   T
  0.7221906810967644  0.2210301441910440  0.6280091907174271   T   T   T
  0.5897117939456797  0.3889033911466705  0.6390639451501596   T   T   T
  0.7531624915776989  0.4509859540614503  0.7291915440099047   T   T   T
  0.5745381462756276  0.0756839453958768  0.7088249504338803   T   T   T
  0.9493408180964196  0.2482173168236700  0.7284973354510937   T   T   T
  0.9506180777279170  0.6400782127833935  0.2976725581183857   F   F   F
  0.7642075828362067  0.7642075205434509  0.2836189927733201   F   F   F
  0.6400781801769000  0.9506180898942276  0.2976725581183857   F   F   F
  0.8074132857045484  0.4999309004986756  0.3839488749030693   F   F   F
  0.6352939993643858  0.6352940288084810  0.3689431455789318   F   F   F
  0.4999308775866353  0.8074132620048431  0.3839488749030693   F   F   F
  0.6682754091191707  0.8641975480392418  0.4694264456884537   T   T   T
  0.9968079069106335  0.9968029943568641  0.4537491779343099   T   T   T
  0.8642187326650014  0.6682801560252525  0.4694277969134979   T   T   T
  0.5293684082536061  0.7252794811957144  0.5552699611974287   T   T   T
  0.8564835534512057  0.8564788441507907  0.5399765286204222   T   T   T
  0.7253213318610728  0.5293616216787873  0.5552545828854077   T   T   T
  0.8889567239007851  0.5862255758126287  0.6401597421848837   T   T   T
  0.7213076562584354  0.7212642118577091  0.6289262442894658   T   T   T
  0.5862075267623916  0.8888728597031922  0.6401588122084375   T   T   T
  0.7499598446284411  0.9506798088238698  0.7299159547392980   T   T   T
  0.5760172005264145  0.5758686325368917  0.7088353662807702   T   T   T
  0.9507614476028490  0.7500048782041241  0.7299354483746313   T   T   T
  0.1821444845820773  0.1849287136476233  0.7602282953382100   T   T   T
  0.4265925465997319  0.4262763301039064  0.8087928061205351   T   T   T
 
  0.00000000E+00  0.00000000E+00  0.00000000E+00
  0.00000000E+00  0.00000000E+00  0.00000000E+00
  0.00000000E+00  0.00000000E+00  0.00000000E+00
  0.00000000E+00  0.00000000E+00  0.00000000E+00
  0.00000000E+00  0.00000000E+00  0.00000000E+00
  0.00000000E+00  0.00000000E+00  0.00000000E+00
  0.00000000E+00  0.00000000E+00  0.00000000E+00
  0.00000000E+00  0.00000000E+00  0.00000000E+00
  0.00000000E+00  0.00000000E+00  0.00000000E+00
  0.00000000E+00  0.00000000E+00  0.00000000E+00
  0.00000000E+00  0.00000000E+00  0.00000000E+00
  0.00000000E+00  0.00000000E+00  0.00000000E+00
  0.00000000E+00  0.00000000E+00  0.00000000E+00
  0.00000000E+00  0.00000000E+00  0.00000000E+00
  0.00000000E+00  0.00000000E+00  0.00000000E+00
  0.00000000E+00  0.00000000E+00  0.00000000E+00
  0.00000000E+00  0.00000000E+00  0.00000000E+00
  0.00000000E+00  0.00000000E+00  0.00000000E+00
  0.00000000E+00  0.00000000E+00  0.00000000E+00
  0.00000000E+00  0.00000000E+00  0.00000000E+00
  0.00000000E+00  0.00000000E+00  0.00000000E+00
  0.00000000E+00  0.00000000E+00  0.00000000E+00
  0.00000000E+00  0.00000000E+00  0.00000000E+00
  0.00000000E+00  0.00000000E+00  0.00000000E+00
  0.00000000E+00  0.00000000E+00  0.00000000E+00
  0.00000000E+00  0.00000000E+00  0.00000000E+00
  0.00000000E+00  0.00000000E+00  0.00000000E+00
  0.00000000E+00  0.00000000E+00  0.00000000E+00
  0.00000000E+00  0.00000000E+00  0.00000000E+00
  0.00000000E+00  0.00000000E+00  0.00000000E+00
  0.00000000E+00  0.00000000E+00  0.00000000E+00
  0.00000000E+00  0.00000000E+00  0.00000000E+00
  0.00000000E+00  0.00000000E+00  0.00000000E+00
  0.00000000E+00  0.00000000E+00  0.00000000E+00
  0.00000000E+00  0.00000000E+00  0.00000000E+00
  0.00000000E+00  0.00000000E+00  0.00000000E+00
  0.00000000E+00  0.00000000E+00  0.00000000E+00
  0.00000000E+00  0.00000000E+00  0.00000000E+00
  0.00000000E+00  0.00000000E+00  0.00000000E+00
  0.00000000E+00  0.00000000E+00  0.00000000E+00
  0.00000000E+00  0.00000000E+00  0.00000000E+00
  0.00000000E+00  0.00000000E+00  0.00000000E+00
  0.00000000E+00  0.00000000E+00  0.00000000E+00
  0.00000000E+00  0.00000000E+00  0.00000000E+00
  0.00000000E+00  0.00000000E+00  0.00000000E+00
  0.00000000E+00  0.00000000E+00  0.00000000E+00
  0.00000000E+00  0.00000000E+00  0.00000000E+00
  0.00000000E+00  0.00000000E+00  0.00000000E+00
  0.00000000E+00  0.00000000E+00  0.00000000E+00
  0.00000000E+00  0.00000000E+00  0.00000000E+00
  0.00000000E+00  0.00000000E+00  0.00000000E+00
  0.00000000E+00  0.00000000E+00  0.00000000E+00
  0.00000000E+00  0.00000000E+00  0.00000000E+00
  0.00000000E+00  0.00000000E+00  0.00000000E+00
  0.00000000E+00  0.00000000E+00  0.00000000E+00
  0.00000000E+00  0.00000000E+00  0.00000000E+00
  0.00000000E+00  0.00000000E+00  0.00000000E+00
  0.00000000E+00  0.00000000E+00  0.00000000E+00
  0.00000000E+00  0.00000000E+00  0.00000000E+00
  0.00000000E+00  0.00000000E+00  0.00000000E+00
  0.00000000E+00  0.00000000E+00  0.00000000E+00
  0.00000000E+00  0.00000000E+00  0.00000000E+00
  0.00000000E+00  0.00000000E+00  0.00000000E+00
  0.00000000E+00  0.00000000E+00  0.00000000E+00
  0.00000000E+00  0.00000000E+00  0.00000000E+00
  0.00000000E+00  0.00000000E+00  0.00000000E+00
  0.00000000E+00  0.00000000E+00  0.00000000E+00
  0.00000000E+00  0.00000000E+00  0.00000000E+00
  0.00000000E+00  0.00000000E+00  0.00000000E+00
  0.00000000E+00  0.00000000E+00  0.00000000E+00
  0.00000000E+00  0.00000000E+00  0.00000000E+00
  0.00000000E+00  0.00000000E+00  0.00000000E+00
  0.00000000E+00  0.00000000E+00  0.00000000E+00
  0.00000000E+00  0.00000000E+00  0.00000000E+00
  0.00000000E+00  0.00000000E+00  0.00000000E+00
  0.00000000E+00  0.00000000E+00  0.00000000E+00
  0.00000000E+00  0.00000000E+00  0.00000000E+00
  0.00000000E+00  0.00000000E+00  0.00000000E+00
  0.00000000E+00  0.00000000E+00  0.00000000E+00
  0.00000000E+00  0.00000000E+00  0.00000000E+00
  0.00000000E+00  0.00000000E+00  0.00000000E+00
  0.00000000E+00  0.00000000E+00  0.00000000E+00
  0.00000000E+00  0.00000000E+00  0.00000000E+00
  0.00000000E+00  0.00000000E+00  0.00000000E+00
  0.00000000E+00  0.00000000E+00  0.00000000E+00
  0.00000000E+00  0.00000000E+00  0.00000000E+00
  0.00000000E+00  0.00000000E+00  0.00000000E+00
  0.00000000E+00  0.00000000E+00  0.00000000E+00
  0.00000000E+00  0.00000000E+00  0.00000000E+00
  0.00000000E+00  0.00000000E+00  0.00000000E+00
  0.00000000E+00  0.00000000E+00  0.00000000E+00
  0.00000000E+00  0.00000000E+00  0.00000000E+00
  0.00000000E+00  0.00000000E+00  0.00000000E+00
  0.00000000E+00  0.00000000E+00  0.00000000E+00
  0.00000000E+00  0.00000000E+00  0.00000000E+00
  0.00000000E+00  0.00000000E+00  0.00000000E+00
  0.00000000E+00  0.00000000E+00  0.00000000E+00
  0.00000000E+00  0.00000000E+00  0.00000000E+00
  0.00000000E+00  0.00000000E+00  0.00000000E+00
  0.00000000E+00  0.00000000E+00  0.00000000E+00
  0.00000000E+00  0.00000000E+00  0.00000000E+00
  0.00000000E+00  0.00000000E+00  0.00000000E+00
  0.00000000E+00  0.00000000E+00  0.00000000E+00
  0.00000000E+00  0.00000000E+00  0.00000000E+00
  0.00000000E+00  0.00000000E+00  0.00000000E+00
  0.00000000E+00  0.00000000E+00  0.00000000E+00
  0.00000000E+00  0.00000000E+00  0.00000000E+00
  0.00000000E+00  0.00000000E+00  0.00000000E+00
  0.00000000E+00  0.00000000E+00  0.00000000E+00
  0.00000000E+00  0.00000000E+00  0.00000000E+00
  0.00000000E+00  0.00000000E+00  0.00000000E+00
  0.00000000E+00  0.00000000E+00  0.00000000E+00
  0.00000000E+00  0.00000000E+00  0.00000000E+00
  0.00000000E+00  0.00000000E+00  0.00000000E+00
  0.00000000E+00  0.00000000E+00  0.00000000E+00
  0.00000000E+00  0.00000000E+00  0.00000000E+00
  0.00000000E+00  0.00000000E+00  0.00000000E+00
  0.00000000E+00  0.00000000E+00  0.00000000E+00
  0.00000000E+00  0.00000000E+00  0.00000000E+00
  0.00000000E+00  0.00000000E+00  0.00000000E+00
  0.00000000E+00  0.00000000E+00  0.00000000E+00
  0.00000000E+00  0.00000000E+00  0.00000000E+00
  0.00000000E+00  0.00000000E+00  0.00000000E+00
  0.00000000E+00  0.00000000E+00  0.00000000E+00
  0.00000000E+00  0.00000000E+00  0.00000000E+00
  0.00000000E+00  0.00000000E+00  0.00000000E+00
  0.00000000E+00  0.00000000E+00  0.00000000E+00
  0.00000000E+00  0.00000000E+00  0.00000000E+00
  0.00000000E+00  0.00000000E+00  0.00000000E+00
  0.00000000E+00  0.00000000E+00  0.00000000E+00
  0.00000000E+00  0.00000000E+00  0.00000000E+00
  0.00000000E+00  0.00000000E+00  0.00000000E+00
  0.00000000E+00  0.00000000E+00  0.00000000E+00
  0.00000000E+00  0.00000000E+00  0.00000000E+00
  0.00000000E+00  0.00000000E+00  0.00000000E+00
  0.00000000E+00  0.00000000E+00  0.00000000E+00
  0.00000000E+00  0.00000000E+00  0.00000000E+00
  0.00000000E+00  0.00000000E+00  0.00000000E+00
  0.00000000E+00  0.00000000E+00  0.00000000E+00
  0.00000000E+00  0.00000000E+00  0.00000000E+00
  0.00000000E+00  0.00000000E+00  0.00000000E+00
  0.00000000E+00  0.00000000E+00  0.00000000E+00
  0.00000000E+00  0.00000000E+00  0.00000000E+00
  0.00000000E+00  0.00000000E+00  0.00000000E+00
  0.00000000E+00  0.00000000E+00  0.00000000E+00
  0.00000000E+00  0.00000000E+00  0.00000000E+00
