Cu	N	Ru	Ta                              
   1.00000000000000     
    18.1096308199999996    0.0000000000000000    0.0000000000000000
     0.0000000000000000   23.3551997799999995    0.0000000000000000
     0.0000000000000000    0.0000000000000000   30.4818171199999988
   Cu   N    Ru   Ta
     1   240    36   204
Selective dynamics
Direct
  0.5771073229750786  0.4376942718431109  0.6090349276521897   T   T   T
  0.9999844991841713  0.8742209279462694  0.4735054000509794   T   T   T
  0.0001365853434890  0.3741660288293351  0.4734909469357185   T   T   T
  0.0007546365873381  0.7508357331636546  0.3024712727493721   F   F   F
  0.0007546365873381  0.2508357331636546  0.3024712727493721   F   F   F
  0.0007971388342227  0.6259226757939587  0.3025555019798603   F   F   F
  0.0007971388342227  0.1259226757939587  0.3025555019798603   F   F   F
  0.0009289261701255  0.8759179472966139  0.3027706837052264   F   F   F
  0.0009289261701255  0.3759179472966139  0.3027706837052264   F   F   F
  0.0009959888293309  0.0008861705399639  0.3028813086718003   F   F   F
  0.0009959888293309  0.5008861705399639  0.3028813086718003   F   F   F
  0.0021785591755277  0.0002953174456781  0.4725939927248341   T   T   T
  0.0022424600210647  0.5002611515974102  0.4725243297903474   T   T   T
  0.5623015060237694  0.7610916009288341  0.5810764596763563   T   T   T
  0.5631280171199490  0.2610757570843003  0.5805589443749635   T   T   T
  0.5944407181460178  0.8759335502460033  0.2316533513143781   F   F   F
  0.5944407181460178  0.3759335502460033  0.2316533513143781   F   F   F
  0.5944879250719026  0.6260651198762730  0.2317376786361365   F   F   F
  0.5944879250719026  0.1260651198762730  0.2317376786361365   F   F   F
  0.5945319922319641  0.7509793277392376  0.2318466107902424   F   F   F
  0.5945319922319641  0.2509793277392376  0.2318466107902424   F   F   F
  0.5946973191803622  0.0011281697544092  0.2317203788144795   F   F   F
  0.5946973191803622  0.5011281697544092  0.2317203788144795   F   F   F
  0.5992242888694836  0.7515518317589679  0.4023056856974493   T   T   T
  0.5993107396627271  0.2514516943979995  0.4022474726895048   T   T   T
  0.5998794950379724  0.6264815448832391  0.4016556128783887   T   T   T
  0.5999202606976863  0.1263593986608436  0.4014876594597102   T   T   T
  0.6002518929593808  0.8759739565832022  0.4012104559823023   T   T   T
  0.6003024914997851  0.3759021467825324  0.4014669744459398   T   T   T
  0.6007213362926817  0.5012530289649529  0.4012211957697768   T   T   T
  0.6007516461817384  0.0013041338439654  0.4008892285626032   T   T   T
  0.6045893994280546  0.9977105234391377  0.5689276159840522   T   T   T
  0.6050763121404885  0.4992012811405656  0.5716162383151430   T   T   T
  0.6051618880610018  0.8761658312662447  0.5689441475940867   T   T   T
  0.6066493077354883  0.3759934644943994  0.5714070724730763   T   T   T
  0.6136376034586276  0.1409157076394544  0.5676089320956474   T   T   T
  0.6138433290440247  0.6420530300351210  0.5672622813069746   T   T   T
  0.6481062658987599  0.7511398355139063  0.4874077325734513   T   T   T
  0.6482936172539023  0.2502768827976856  0.4872987743472142   T   T   T
  0.6522919623389134  0.1257328099690881  0.4853410074776754   T   T   T
  0.6523302241184396  0.6263723235308363  0.4853659268017832   T   T   T
  0.6534286954104952  0.3787323445356087  0.4855603539180888   T   T   T
  0.6536854485509720  0.8793805099812451  0.4846350610239716   T   T   T
  0.6549923804575926  0.7511371041673840  0.3152775575080256   F   F   F
  0.6549923804575926  0.2511371041673840  0.3152775575080256   F   F   F
  0.6551942240115084  0.4989951735779665  0.4864071119389256   T   T   T
  0.6552059756456146  0.6260466862938543  0.3150601846403305   F   F   F
  0.6552059756456146  0.1260466862938543  0.3150601846403305   F   F   F
  0.6552570788408829  0.8758846061131820  0.3149041322638837   F   F   F
  0.6552570788408829  0.3758846061131820  0.3149041322638837   F   F   F
  0.6552962724672725  0.9989028727214414  0.4858538935207602   T   T   T
  0.6554052259801963  0.0012023099894023  0.3149218625060755   F   F   F
  0.6554052259801963  0.5012023099894023  0.3149218625060755   F   F   F
  0.0699564778291322  0.1308178092722549  0.5734049709282160   T   T   T
  0.0700167752347182  0.6306980814697575  0.5734349649719731   T   T   T
  0.7278569920220539  0.7619746048746946  0.5567067566156561   T   T   T
  0.7288452917200752  0.2621501034144972  0.5562618331261118   T   T   T
  0.7502208076526230  0.7508721459893180  0.3870469908456785   T   T   T
  0.7503006878196312  0.2508640930156767  0.3870633086149797   T   T   T
  0.7503837756312706  0.8759246053428527  0.1980143607002915   F   F   F
  0.7503837756312706  0.3759246053428527  0.1980143607002915   F   F   F
  0.7504065850415813  0.0010474442621131  0.1995662990185920   F   F   F
  0.7504065850415813  0.5010474442621131  0.1995662990185920   F   F   F
  0.7504116177228610  0.6259067547141299  0.1982016356247982   F   F   F
  0.7504116177228610  0.1259067547141299  0.1982016356247982   F   F   F
  0.7504539896523426  0.7509563452768688  0.1993173260006742   F   F   F
  0.7504539896523426  0.2509563452768688  0.1993173260006742   F   F   F
  0.7506133550114837  0.6259253756711181  0.3868194727557410   T   T   T
  0.7507039492758185  0.1259505204507522  0.3868631189160830   T   T   T
  0.7508711830311505  0.8761730535912240  0.3859467155604243   T   T   T
  0.7508584075633792  0.3761616444445923  0.3860959357601826   T   T   T
  0.7511958968400181  0.5008940593297940  0.3868107993459815   T   T   T
  0.7512523846482432  0.0008626229660236  0.3867096033854493   T   T   T
  0.7576699200742580  0.8823545639218879  0.5561845682635776   T   T   T
  0.7587336190866119  0.3825072361105428  0.5560927531449397   T   T   T
  0.7658316604648294  0.9973374924713494  0.5565426452694852   T   T   T
  0.7660685504726097  0.4973882267281896  0.5563739550981228   T   T   T
  0.7722355838446217  0.1383670186553967  0.5570082774963664   T   T   T
  0.7727806119182618  0.6386136168106382  0.5573862813266496   T   T   T
  0.0802677512734072  0.7417260907845291  0.5722215274566190   T   T   T
  0.0806075896413616  0.2417086840584255  0.5718528546978382   T   T   T
  0.8457971856104365  0.7508865770875488  0.3147238720130474   F   F   F
  0.8457971856104365  0.2508865770875488  0.3147238720130474   F   F   F
  0.8459094352758285  0.6257770200071491  0.3148105564777453   F   F   F
  0.8459094352758285  0.1257770200071491  0.3148105564777453   F   F   F
  0.8459894799777032  0.8758569369000710  0.3146601051453359   F   F   F
  0.8459894799777032  0.3758569369000710  0.3146601051453359   F   F   F
  0.8462370857983075  0.0009253177109869  0.3148622358114821   F   F   F
  0.8462370857983075  0.5009253177109869  0.3148622358114821   F   F   F
  0.8464522278024870  0.7541300447713024  0.4850817688537720   T   T   T
  0.8467472157359082  0.2541587283594929  0.4849089715908181   T   T   T
  0.8496043680127384  0.8728351220420484  0.4852253830349385   T   T   T
  0.8496370521911580  0.6247762069203754  0.4846839600778543   T   T   T
  0.8496055912480979  0.3729203993504945  0.4851938240231046   T   T   T
  0.8498583264738633  0.1248971839673237  0.4847941229967255   T   T   T
  0.8520402340737949  0.0009717366772704  0.4860180837517543   T   T   T
  0.8521008078449511  0.5009785803494133  0.4859631679538451   T   T   T
  0.0879440546386620  0.8615687086206557  0.5740099127203551   T   T   T
  0.0888163225586687  0.3615612724528213  0.5740421439014646   T   T   T
  0.8962024305241085  0.8699302848014805  0.5715809850896879   T   T   T
  0.8970079149505364  0.3695638084728755  0.5715351286362728   T   T   T
  0.8978542684947185  0.2481332574715029  0.5671256136761970   T   T   T
  0.8979088690408975  0.7486178047246579  0.5673317864337991   T   T   T
  0.9006064373327559  0.7504409901619925  0.4006061927912774   T   T   T
  0.9006956520185433  0.2504915932714903  0.4005544400783982   T   T   T
  0.9011139760041256  0.6256873366740995  0.4011511360290383   T   T   T
  0.9011795107624365  0.1256723406215257  0.4012056189027117   T   T   T
  0.9018802314503259  0.8758603972779895  0.4008888678236430   T   T   T
  0.9019671602842149  0.3759067386848773  0.4008467175290374   T   T   T
  0.9022029996338343  0.5005080561731629  0.4012436645638958   T   T   T
  0.9021985359805273  0.0005212267565656  0.4012818855855873   T   T   T
  0.9029461735010235  0.1059442656917865  0.5675054875837898   T   T   T
  0.9029790000442016  0.6064308766996702  0.5673361293202004   T   T   T
  0.9063370116785165  0.7509661375287990  0.2314450664875594   F   F   F
  0.9063370116785165  0.2509661375287990  0.2314450664875594   F   F   F
  0.9065036119825223  0.6258452416457985  0.2314281613274076   F   F   F
  0.9065036119825223  0.1258452416457985  0.2314281613274076   F   F   F
  0.9065431196901699  0.0009511492176983  0.2315080614196674   F   F   F
  0.9065431196901699  0.5009511492176983  0.2315080614196674   F   F   F
  0.9067333030259945  0.8759844438376305  0.2313964578368939   F   F   F
  0.9067333030259945  0.3759844438376305  0.2313964578368939   F   F   F
  0.9242440011003462  0.4833649355202094  0.5702197076702747   T   T   T
  0.9243907013257429  0.9831744714668977  0.5699725208335699   T   T   T
  0.0952407101582224  0.7510020395980561  0.2320892091881959   F   F   F
  0.0952407101582224  0.2510020395980561  0.2320892091881959   F   F   F
  0.0953260277450525  0.0008979764762245  0.2323666739458474   F   F   F
  0.0953260277450525  0.5008979764762245  0.2323666739458474   F   F   F
  0.0953735919394063  0.6258547564434522  0.2322437075234305   F   F   F
  0.0953735919394063  0.1258547564434522  0.2322437075234305   F   F   F
  0.0955543013107132  0.8759987254538473  0.2323923499085652   F   F   F
  0.0955543013107132  0.3759987254538473  0.2323923499085652   F   F   F
  0.0993955712120581  0.6251631630442842  0.4016362746915223   T   T   T
  0.0994561983286072  0.7508643151191799  0.4017648040124899   T   T   T
  0.0993962840512641  0.1252007391578959  0.4016063018649155   T   T   T
  0.0995473069285240  0.2508552592810040  0.4017140329985045   T   T   T
  0.9984505834036287  0.7503933809104748  0.4723127212235995   T   T   T
  0.9984331544710021  0.6243021308097465  0.4720213417133464   T   T   T
  0.9985715463368852  0.1243879458970237  0.4720464455901752   T   T   T
  0.9985911838254530  0.2503828378366935  0.4722769896548729   T   T   T
  0.1002738428033811  0.8755471439590303  0.4028700964033621   T   T   T
  0.1004147581529669  0.3755574223401860  0.4028406451438136   T   T   T
  0.1007479620668964  0.0011501218262448  0.4028309920631743   T   T   T
  0.1008392203919600  0.5011260009231884  0.4028159200376711   T   T   T
  0.1046135690980452  0.5004841419026897  0.5668879711295585   T   T   T
  0.1049356168609795  0.0003127790162591  0.5670336989010692   T   T   T
  0.1481507603724929  0.6282222017220687  0.4859762956901829   T   T   T
  0.1482930430687851  0.1282428986749066  0.4858819023145476   T   T   T
  0.1484083708398215  0.7458843978453368  0.4872023217867065   T   T   T
  0.1486342660606577  0.2458907291583813  0.4870644396489113   T   T   T
  0.1534585812478632  0.8762995734612899  0.4878999107003016   T   T   T
  0.1534969110591918  0.3762225633252894  0.4878302358659813   T   T   T
  0.1550416188863568  0.0013698109346408  0.4870828641725166   T   T   T
  0.1550308884383254  0.5012980852662939  0.4870710134308037   T   T   T
  0.1554278840897965  0.7509669489112838  0.3157714680232928   F   F   F
  0.1554278840897965  0.2509669489112767  0.3157714680232928   F   F   F
  0.1555300833018336  0.8760083006234964  0.3161854069282626   F   F   F
  0.1555300833018336  0.3760083006234964  0.3161854069282626   F   F   F
  0.1556347359045702  0.6258770940815310  0.3158690852351640   F   F   F
  0.1556347359045702  0.1258770940815310  0.3158690852351640   F   F   F
  0.1557688557010550  0.0008265358541948  0.3160543218953578   F   F   F
  0.1557688557010550  0.5008265358541948  0.3160543218953578   F   F   F
  0.2102390814858364  0.1119958829826886  0.5659155110774445   T   T   T
  0.2105795366787180  0.6125267667567612  0.5659449726658647   T   T   T
  0.2218061160884358  0.7498651173381656  0.5629512242945018   T   T   T
  0.2225003234674768  0.2493120751186080  0.5625716562576575   T   T   T
  0.2501363168727084  0.7512388626033186  0.3876836235060718   T   T   T
  0.2502171307185670  0.2512383303853415  0.3876832518726914   T   T   T
  0.2504873288028224  0.6255057257805373  0.3886972392055238   T   T   T
  0.2504918077922914  0.1254858236880914  0.3886958915250113   T   T   T
  0.2506886730670530  0.7509740783728773  0.1986783637654739   F   F   F
  0.2506886730670530  0.2509740783728773  0.1986783637654739   F   F   F
  0.2507303928573421  0.8760426103278647  0.2004520155719618   F   F   F
  0.2507303928573421  0.3760426103278647  0.2004520155719618   F   F   F
  0.2507787477911734  0.6260460958471867  0.2004465916827201   F   F   F
  0.2507787477911734  0.1260460958471867  0.2004465916827201   F   F   F
  0.2507842901460080  0.0010521164550710  0.1987081864626035   F   F   F
  0.2507842901460080  0.5010521164550710  0.1987081864626035   F   F   F
  0.2508917077250111  0.8755733655955856  0.3887480841473498   T   T   T
  0.2509881933833977  0.3755744784329642  0.3887089048935459   T   T   T
  0.2511246895910935  0.0013511628263513  0.3880215008703277   T   T   T
  0.2512178619645860  0.5013518108786947  0.3880565028364378   T   T   T
  0.2805410275277306  0.4999126751783006  0.5644830265799896   T   T   T
  0.2816975672165878  0.9997485013409876  0.5647892799057986   T   T   T
  0.2881987215611584  0.3649287126134845  0.5648794266728885   T   T   T
  0.2891026045196127  0.8648752618114856  0.5649811652206577   T   T   T
  0.3450479504257125  0.7520379416792455  0.4857973250758422   T   T   T
  0.3453334343901355  0.2519404611220351  0.4857582475659293   T   T   T
  0.3457709857389588  0.7509801434034244  0.3160634932646005   F   F   F
  0.3457709857389588  0.2509801434034244  0.3160634932646005   F   F   F
  0.3458124879654534  0.8762438730036024  0.3160546332285037   F   F   F
  0.3458124879654534  0.3762438730036024  0.3160546332285037   F   F   F
  0.3458692307014104  0.0011300682609701  0.3160825482309733   F   F   F
  0.3458692307014104  0.5011300682609701  0.3160825482309733   F   F   F
  0.3458914509224655  0.6260993829100983  0.3163092197569100   F   F   F
  0.3458914509224655  0.1260993829100983  0.3163092197569100   F   F   F
  0.3476706377927042  0.6269218840235271  0.4877537674128170   T   T   T
  0.3477142675950840  0.1266970880087400  0.4879611664713746   T   T   T
  0.3523447296300269  0.4970636816525667  0.4877277106489388   T   T   T
  0.3523851391700633  0.9969605817866694  0.4877538748397854   T   T   T
  0.3530243806666875  0.3784385163129983  0.4866222551765497   T   T   T
  0.3530574705498440  0.8785526600232468  0.4867223253711170   T   T   T
  0.3882518814519619  0.7528586838558513  0.5654288216840734   T   T   T
  0.3886389791207407  0.2528921615411193  0.5655605574630329   T   T   T
  0.4007976234128653  0.7516980967477181  0.4025552522789377   T   T   T
  0.4008722639919666  0.2516835236733127  0.4025579457008983   T   T   T
  0.4014065139929044  0.6260356797456900  0.4029713942031081   T   T   T
  0.4013256627975176  0.1259686215784130  0.4029568394878942   T   T   T
  0.4018706594161953  0.0016052121521115  0.4022240356419071   T   T   T
  0.4020570163268383  0.5016212614612225  0.4022743344120286   T   T   T
  0.4020497097752408  0.8757783713848247  0.4020982394710018   T   T   T
  0.4022217314012928  0.3757712808467805  0.4020994164129992   T   T   T
  0.4059113337573805  0.8760558925948985  0.2324750129594619   F   F   F
  0.4059113337573805  0.3760558925948985  0.2324750129594619   F   F   F
  0.4059234726022964  0.6261621252550071  0.2326545521246786   F   F   F
  0.4059234726022964  0.1261621252550071  0.2326545521246786   F   F   F
  0.4060644417929637  0.7510364413590125  0.2325227387887452   F   F   F
  0.4060644417929637  0.2510364413590125  0.2325227387887452   F   F   F
  0.4061374416245584  0.0011248655651599  0.2324172293308493   F   F   F
  0.4061374416245584  0.5011248655651599  0.2324172293308493   F   F   F
  0.4163524814925978  0.6132538905258222  0.5727657491633649   T   T   T
  0.4167710605729208  0.1131556822591352  0.5726845882500887   T   T   T
  0.4234243396224762  0.4945342953554678  0.5721037675408618   T   T   T
  0.4253572212055872  0.9944453632683261  0.5721712428382316   T   T   T
  0.4337671023514961  0.3863881641305007  0.5749352962996538   T   T   T
  0.4359258049713987  0.8879260832818408  0.5749710115522320   T   T   T
  0.4983480909982553  0.7519205169202854  0.4735497107861650   T   T   T
  0.4985007721787307  0.2516521697455437  0.4734652688713158   T   T   T
  0.5004630585837617  0.7510598909550410  0.3031888444713573   F   F   F
  0.5004630585837617  0.2510598909550410  0.3031888444713573   F   F   F
  0.5004977600090044  0.6261199205207575  0.3031516629609641   F   F   F
  0.5004977600090044  0.1261199205207575  0.3031516629609641   F   F   F
  0.5005209432535551  0.8761149809355189  0.3028206587442455   F   F   F
  0.5005209432535551  0.3761149809355189  0.3028206587442455   F   F   F
  0.5006083602757840  0.0011215981985515  0.3028334437431965   F   F   F
  0.5006083602757840  0.5011215981985515  0.3028334437431965   F   F   F
  0.5015019523138158  0.6272903657866463  0.4741618267456932   T   T   T
  0.5015840392831928  0.1270760083661707  0.4739762496537795   T   T   T
  0.5024962405043665  0.8769774026751719  0.4728270262672436   T   T   T
  0.5025201871913240  0.3767577626887641  0.4731344140279256   T   T   T
  0.5029345062996542  0.5016887942333770  0.4729534944986944   T   T   T
  0.5029383703186212  0.0016846879692642  0.4725727312878507   T   T   T
  0.0041920439520986  0.4971336894764047  0.5405565781703010   T   T   T
  0.0043659432879132  0.9972584163121884  0.5406132841999050   T   T   T
  0.6259198876964734  0.2993769464228362  0.5457872499599183   T   T   T
  0.6261564225472831  0.7992215089830769  0.5467896703988487   T   T   T
  0.6265813137163536  0.0676679673497944  0.5395661856737521   T   T   T
  0.6273303629067973  0.5686957764549454  0.5391087931032084   T   T   T
  0.6994984954446768  0.1881362660608711  0.5381737973615632   T   T   T
  0.6997411545242058  0.6875932800836966  0.5382266898287743   T   T   T
  0.8071119134522399  0.0659972592979482  0.5374358565562316   T   T   T
  0.8074039625878913  0.5663713137843617  0.5373524907860898   T   T   T
  0.8462032491618786  0.9367947516646110  0.5366394002548800   T   T   T
  0.8475322793638582  0.4366187051364809  0.5367506214896370   T   T   T
  0.8739502364869624  0.1765568696704067  0.5420666297400931   T   T   T
  0.8744069794567162  0.6772088381565403  0.5419951887921606   T   T   T
  0.9962318419057610  0.7537889618584727  0.5393878788420428   T   T   T
  0.9963933471971866  0.2537561194350331  0.5393570352312782   T   T   T
  0.9965550491776642  0.1155858472669843  0.5395642809475780   T   T   T
  0.9966225981523271  0.6158220217788466  0.5395199764182111   T   T   T
  0.1207868787209316  0.9283997224140983  0.5430404495449221   T   T   T
  0.1210322361631798  0.4284823896807093  0.5429303488685240   T   T   T
  0.1407617899875005  0.8025461058194130  0.5413248985243095   T   T   T
  0.1413476983151722  0.3023379213675381  0.5412207894159463   T   T   T
  0.2017105192404389  0.5414497921089902  0.5428875419270106   T   T   T
  0.2025557075983278  0.0406360890202676  0.5427818889300493   T   T   T
  0.2983139386948098  0.7944084043999866  0.5410837863382573   T   T   T
  0.2986530644413247  0.2944968410479092  0.5409599911499998   T   T   T
  0.3618197593537724  0.5540589215700460  0.5416025230039549   T   T   T
  0.3623986125251216  0.0538845263877908  0.5416129389175917   T   T   T
  0.3763140666166885  0.6785356971036915  0.5418813109946149   T   T   T
  0.3766347786697229  0.1784923773189709  0.5418727622700775   T   T   T
  0.4871883690355733  0.7518127412716304  0.5417485718106045   T   T   T
  0.4874516822232575  0.2519542510326429  0.5416797183201709   T   T   T
  0.5083344097100372  0.4984798236017096  0.5402601333951615   T   T   T
  0.5092575574758247  0.9978543829426371  0.5398359696279071   T   T   T
  0.5104571629599848  0.3819909025563042  0.5406680764541739   T   T   T
  0.5119428528118584  0.8824132179569126  0.5403114068699630   T   T   T
  0.0003738531300043  0.6255540554886727  0.3691410613991791   T   T   T
  0.0004019766491607  0.7508669513122113  0.3690092568375534   T   T   T
  0.0003811065113457  0.1255622882625875  0.3691349106715422   T   T   T
  0.0004709367919104  0.2508762777178715  0.3690017052616401   T   T   T
  0.0010343750342656  0.7509675273691911  0.1970340395507222   F   F   F
  0.0010343750342656  0.2509675273691911  0.1970340395507222   F   F   F
  0.0013074606674977  0.0009931951008113  0.1970949867046485   F   F   F
  0.0013074606674977  0.5009931951008113  0.1970949867046485   F   F   F
  0.0014056432322107  0.6258753569951239  0.1970772590869743   F   F   F
  0.0014056432322107  0.1258753569951239  0.1970772590869743   F   F   F
  0.0016461689436360  0.8757754887114335  0.3694301925963240   T   T   T
  0.0016300205284878  0.8760244032474702  0.1970602374639512   F   F   F
  0.0016300205284878  0.3760244032474702  0.1970602374639512   F   F   F
  0.0017690345848892  0.3758091389863263  0.3694216314789887   T   T   T
  0.0019128131431501  0.5005984921166131  0.3696060182557922   T   T   T
  0.0018661997375267  0.0006057143941208  0.3696061593702890   T   T   T
  0.5828489970288615  0.8134981673875430  0.2835797008416634   F   F   F
  0.5828489970288615  0.3134981673875430  0.2835797008416634   F   F   F
  0.5829043521053947  0.6885407361734863  0.2836251512160501   F   F   F
  0.5829043521053947  0.1885407361734863  0.2836251512160501   F   F   F
  0.5829602019462925  0.4385545752758304  0.2833243807611936   F   F   F
  0.5829602019462925  0.9385545752758304  0.2833243807611936   F   F   F
  0.5830265959005345  0.5635893986773652  0.2835447360626375   F   F   F
  0.5830265959005345  0.0635893986773652  0.2835447360626375   F   F   F
  0.5843336184339203  0.6893700855640128  0.4537721593745168   T   T   T
  0.5843495618626735  0.1889537165283070  0.4535612927428592   T   T   T
  0.5844464968513271  0.8145966945015736  0.4552713508242569   T   T   T
  0.5844576303592174  0.3142397343980973  0.4553133103170539   T   T   T
  0.5857004515895329  0.9390629145702329  0.4525136344342810   T   T   T
  0.5857327754151485  0.4388949009620661  0.4530233444926234   T   T   T
  0.5866538764331534  0.5634168299721017  0.4537463964767631   T   T   T
  0.5865583023669808  0.0632227494138766  0.4533689128849439   T   T   T
  0.6662453414939336  0.5635923628994988  0.2021068355520654   F   F   F
  0.6662453414939336  0.0635923628994988  0.2021068355520654   F   F   F
  0.6663404610475681  0.8134949072998268  0.2022484366903115   F   F   F
  0.6663404610475681  0.3134949072998268  0.2022484366903115   F   F   F
  0.6663750951053373  0.6883939277525641  0.2022233082671292   F   F   F
  0.6663750951053373  0.1883939277525641  0.2022233082671292   F   F   F
  0.6663864277493872  0.4383644600106251  0.2021335334354930   F   F   F
  0.6663864277493872  0.9383644600106251  0.2021335334354930   F   F   F
  0.6681230460489629  0.8135460396490638  0.3678908349686794   T   T   T
  0.6681338810164116  0.6887041658127261  0.3677304041477139   T   T   T
  0.6681729330874517  0.3135696867326834  0.3679270859389578   T   T   T
  0.6682942600291336  0.1886781415492223  0.3676855577007226   T   T   T
  0.6686703342434014  0.5636777561121069  0.3676203674925712   T   T   T
  0.6686840279468728  0.4385554375021312  0.3671740059915775   T   T   T
  0.6687649932376716  0.9385702982999246  0.3669494736216898   T   T   T
  0.6688612145795256  0.0636985456709028  0.3674983043427523   T   T   T
  0.6758864687598332  0.9356488992552326  0.5401065613632948   T   T   T
  0.6788979745415664  0.4362814807830799  0.5398192139292737   T   T   T
  0.7475262463561752  0.7521432286832951  0.4552958059240400   T   T   T
  0.7477085725161284  0.2520570059850106  0.4552800337585173   T   T   T
  0.7501730562611186  0.7507079098083409  0.2774330469442816   F   F   F
  0.7501730562611186  0.2507079098083409  0.2774330469442816   F   F   F
  0.7503171828984319  0.6260944062155489  0.4548159656588170   T   T   T
  0.7503603084729552  0.1257960832879431  0.4549395470822943   T   T   T
  0.7504750055418299  0.6259680682551618  0.2773981497465243   F   F   F
  0.7504750055418299  0.1259680682551618  0.2773981497465243   F   F   F
  0.7505173338481086  0.8759365097582545  0.2770578193141517   F   F   F
  0.7505173338481086  0.3759365097582545  0.2770578193141517   F   F   F
  0.7507337004896470  0.0010587017123740  0.2774432067716575   F   F   F
  0.7507337004896470  0.5010587017123740  0.2774432067716575   F   F   F
  0.7512440254065050  0.3755310098646846  0.4537394454349891   T   T   T
  0.7514726017751632  0.8755107128010292  0.4535593530929259   T   T   T
  0.7536322877429498  0.5003812795899365  0.4547700868340583   T   T   T
  0.7538696120313491  0.0006561262772034  0.4546427795928932   T   T   T
  0.0811914835099517  0.6875864459574871  0.4526940731944493   T   T   T
  0.0813869277536507  0.1876167436140421  0.4526595681557743   T   T   T
  0.8263932286857087  0.8146425706009726  0.5406222098683939   T   T   T
  0.8272890581967342  0.3141331545581347  0.5404823216883047   T   T   T
  0.8323143796635503  0.8133208118067462  0.3669866043956858   T   T   T
  0.8323366162975258  0.6882453390345210  0.3671117267174515   T   T   T
  0.8323501008965893  0.3133349026390554  0.3669702175675282   T   T   T
  0.8324045542096777  0.1882643089008842  0.3671198396820188   T   T   T
  0.8329100491743455  0.5633130980399077  0.3673226998632702   T   T   T
  0.8329024348436153  0.0633093858433587  0.3673670567576696   T   T   T
  0.8333033932699788  0.4383245093290906  0.3671975981020174   T   T   T
  0.8333313364894941  0.9383226845891145  0.3671523554689933   T   T   T
  0.8344344719226058  0.6883603527882158  0.2020465356692611   F   F   F
  0.8344344719226058  0.1883603527882158  0.2020465356692611   F   F   F
  0.8344691253071090  0.4383027932291981  0.2021423465583752   F   F   F
  0.8344691253071090  0.9383027932291981  0.2021423465583752   F   F   F
  0.8345236995836203  0.8136019065986346  0.2020593032807980   F   F   F
  0.8345236995836203  0.3136019065986346  0.2020593032807980   F   F   F
  0.8345432068835521  0.5635442939465207  0.2020614199525141   F   F   F
  0.8345432068835521  0.0635442939465207  0.2020614199525141   F   F   F
  0.0835181835032017  0.8134609632527869  0.2839000862688721   F   F   F
  0.0835181835032017  0.3134609632527869  0.2839000862688721   F   F   F
  0.0836480050342630  0.5633752300961916  0.2839758639034855   F   F   F
  0.0836480050342630  0.0633752300961916  0.2839758639034855   F   F   F
  0.0836768758602418  0.6884091217994310  0.2837888281379435   F   F   F
  0.0836768758602418  0.1884091217994310  0.2837888281379435   F   F   F
  0.0836920180794749  0.4383888699923588  0.2841732146708722   F   F   F
  0.0836920180794749  0.9383888699923588  0.2841732146708722   F   F   F
  0.0847735069489973  0.8125054799586460  0.4547143701654168   T   T   T
  0.0848749881208277  0.3124783311641671  0.4546828688310041   T   T   T
  0.0855433060609741  0.5634411318016588  0.4552676813735079   T   T   T
  0.0855774540241415  0.0635109015789854  0.4552900495318790   T   T   T
  0.0861574492602141  0.9380491861736698  0.4551099954323550   T   T   T
  0.0861732903229534  0.4380244800720760  0.4550927471681042   T   T   T
  0.9145447059563788  0.6886268133266445  0.4537646794813265   T   T   T
  0.9147025563141494  0.1886721798874161  0.4537332006554452   T   T   T
  0.9167002306226599  0.8124170652982839  0.4518855882650696   T   T   T
  0.9167595102359553  0.3124838360091288  0.4518067948081569   T   T   T
  0.9173374011314019  0.5626677338801942  0.4529383775552341   T   T   T
  0.9175314821036503  0.0626920261935405  0.4529780952962658   T   T   T
  0.9178914907892128  0.9375589410244889  0.4534900300299361   T   T   T
  0.9179856306044949  0.4375404650387841  0.4535101854423135   T   T   T
  0.9181839152478091  0.6884040565462470  0.2831378587445599   F   F   F
  0.9181839152478091  0.1884040565462470  0.2831378587445599   F   F   F
  0.9183594213103916  0.8134327656776748  0.2832265145484243   F   F   F
  0.9183594213103916  0.3134327656776748  0.2832265145484243   F   F   F
  0.9184058656586132  0.5633566590711467  0.2833389507587185   F   F   F
  0.9184058656586132  0.0633566590711467  0.2833389507587185   F   F   F
  0.9185001265531056  0.4384185648785746  0.2832681567508857   F   F   F
  0.9185001265531056  0.9384185648785746  0.2832681567508857   F   F   F
  0.9912260153020619  0.8662700426663467  0.5418115857711545   T   T   T
  0.9921030725237610  0.3660940938030747  0.5418282650745191   T   T   T
  0.1526370241940628  0.6801913115152813  0.5438031069417470   T   T   T
  0.1532991858400460  0.1795550212694566  0.5438469966058636   T   T   T
  0.1667765378554549  0.5633392265506032  0.2026421323795375   F   F   F
  0.1667765378554549  0.0633392265506032  0.2026421323795375   F   F   F
  0.1668059973185052  0.6886073834303943  0.2025943133799615   F   F   F
  0.1668059973185052  0.1886073834303943  0.2025943133799615   F   F   F
  0.1668155121452699  0.8133424731509606  0.2025799106952988   F   F   F
  0.1668155121452699  0.3133424731509606  0.2025799106952988   F   F   F
  0.1668272738427916  0.4386259927766716  0.2026791524822329   F   F   F
  0.1668272738427916  0.9386259927766716  0.2026791524822329   F   F   F
  0.1683507713980814  0.0633849911135491  0.3683469352379614   T   T   T