Mo  S Ru                                
   1.00000000000000     
    15.9215000000000000    0.0000000000000000    0.0000000000000000
    -7.9622500000000000   13.7910219999999999    0.0000000000000000
     0.0000000000000000    0.0000000000000000   13.5822000000000003
   Mo   S    Ru
    25    50     3
Direct
  0.1317641759851327  0.0659219220102329  0.6795275066734732
  0.1324523148988490  0.2653421631914270  0.6792997657703310
  0.1326362160681001  0.4659909976535488  0.6783631283726805
  0.1328361307050656  0.6659846186284213  0.6783616051372121
  0.1326794016315276  0.8659947296403061  0.6794602028718444
  0.3326668202662333  0.0655279195904868  0.6805135116559029
  0.3327679030617645  0.2659095112820609  0.6784282265648471
  0.3318194690265202  0.4663510342451360  0.6804208747132492
  0.3324527795811818  0.6662124199450474  0.6782063990742628
  0.3326513912246725  0.8658286234858821  0.6784286698791036
  0.5326566249664495  0.0651783894977385  0.6780782058723105
  0.5353554906691684  0.2644013397961729  0.6773211192686546
  0.5322469707983615  0.4663763051634291  0.6762076219964683
  0.5323482250563671  0.6668827151908019  0.6803115064075342
  0.5326459126285314  0.8660390028699467  0.6783268022221165
  0.7328206979087568  0.0656051265828808  0.6777757639088620
  0.7336403613783844  0.2650369517510569  0.6771755970864035
  0.7342649440976956  0.4633415151380902  0.6772364002344489
  0.7327381751674267  0.6659067283630620  0.6782231295067902
  0.7333397676754387  0.8662544667324283  0.6791452689164359
  0.9326687254417010  0.0660109632765469  0.6789717350411308
  0.9330583126726140  0.2658124415242824  0.6777917772264175
  0.9334833752823073  0.4659773327807528  0.6779792368702573
  0.9331598770894303  0.6659922419062312  0.6803271462805256
  0.9327680144678183  0.8669271285062763  0.6794033717409889
  0.0661064993405915  0.1324108273144660  0.5639067822941755
  0.0654848434575399  0.1325170962035500  0.7946903774456047
  0.0668450667010418  0.3324325953824783  0.5632765031896128
  0.0654951106803949  0.3325528228217891  0.7935779823197961
  0.0665879059417307  0.5328204921380362  0.5629377495335959
  0.0662340885062491  0.5326018802906987  0.7934520939024168
  0.0658625381269857  0.7329619171576809  0.5641261417577823
  0.0669410056028923  0.7326217738807586  0.7943619323694051
  0.0660086926932308  0.9327851865535379  0.5644118209176696
  0.0660177933738524  0.9325956013680710  0.7945682304195216
  0.2658526256808855  0.1325974654497699  0.5656946819319515
  0.2658437658974364  0.1330006617620398  0.7978921813752109
  0.2669734078082513  0.3330384049784385  0.5657649202555817
  0.2631400473985934  0.3366059229891150  0.8026987343362393
  0.2658668923287024  0.5323088081650482  0.5632046279515706
  0.2648716159801268  0.5339215666949144  0.7940523530528267
  0.2659520963858455  0.7327566250741313  0.5630255264566344
  0.2659761409248063  0.7326442382341725  0.7934675127732120
  0.2657645625980010  0.9329111585604863  0.5642261964502566
  0.2659850356894040  0.9316765291071363  0.7944646634995678
  0.4645734712450178  0.1304739876853631  0.5629609595712779
  0.4669749919829371  0.1320102707373110  0.7937063629431975
  0.4661400725792504  0.3317145952637759  0.5642784922031581
  0.4730047912747253  0.3312842118126298  0.7935628731588054
  0.4651429022770301  0.5334898871980158  0.5649552123198163
  0.4623668666212168  0.5364182633668264  0.8000771401286286
  0.4663295455539185  0.7328244592286595  0.5631464723332655
  0.4647939345008183  0.7338053814111873  0.7939923959865425
  0.4657868580586282  0.9321237079783558  0.5629857471679429
  0.4660455535618908  0.9323934923535901  0.7935068559476122
  0.6658196888049019  0.1315269519772855  0.5624482325029661
  0.6664294592565980  0.1320544733179432  0.7927807567315952
  0.6673515564950208  0.3313089157878579  0.5605762239509318
  0.6680277956750800  0.3307587168658159  0.7930423036782202
  0.6668622010530996  0.5324754591572827  0.5641841660598104
  0.6673540323185847  0.5256901370217051  0.7935005210520885
  0.6656496944795975  0.7317551829071220  0.5655838671921458
  0.6621339292332067  0.7355871294361336  0.8025158971059980
  0.6661901321732913  0.9318766725410725  0.5631956263326643
  0.6661120875271394  0.9331494577623189  0.7935018616556562
  0.8664120020201338  0.1322434582797527  0.5629035485484835
  0.8658525433618678  0.1327712530700396  0.7931985911442965
  0.8671405804687495  0.3327752200852530  0.5624104121230644
  0.8666409886726996  0.3322635264222527  0.7927498108077700
  0.8681922884077622  0.5340544590876419  0.5628206638178241
  0.8666952196284612  0.5317429663539883  0.7935584355656218
  0.8661200477246283  0.7328611828982261  0.5655158365934341
  0.8656585435394177  0.7328016889648765  0.7976532576502535
  0.8663345991650360  0.9326560272610749  0.5638077857712602
  0.8661255788722073  0.9331381228622888  0.7945830752076688
  0.3454766597948691  0.2794593332781545  0.8833057325849580
  0.5317730603141086  0.4668490374420884  0.8840809808166341
  0.7192757502679257  0.6532545687039075  0.8831256515751562
 
  0.00000000E+00  0.00000000E+00  0.00000000E+00
  0.00000000E+00  0.00000000E+00  0.00000000E+00
  0.00000000E+00  0.00000000E+00  0.00000000E+00
  0.00000000E+00  0.00000000E+00  0.00000000E+00
  0.00000000E+00  0.00000000E+00  0.00000000E+00
  0.00000000E+00  0.00000000E+00  0.00000000E+00
  0.00000000E+00  0.00000000E+00  0.00000000E+00
  0.00000000E+00  0.00000000E+00  0.00000000E+00
  0.00000000E+00  0.00000000E+00  0.00000000E+00
  0.00000000E+00  0.00000000E+00  0.00000000E+00
  0.00000000E+00  0.00000000E+00  0.00000000E+00
  0.00000000E+00  0.00000000E+00  0.00000000E+00
  0.00000000E+00  0.00000000E+00  0.00000000E+00
  0.00000000E+00  0.00000000E+00  0.00000000E+00
  0.00000000E+00  0.00000000E+00  0.00000000E+00
  0.00000000E+00  0.00000000E+00  0.00000000E+00
  0.00000000E+00  0.00000000E+00  0.00000000E+00
  0.00000000E+00  0.00000000E+00  0.00000000E+00
  0.00000000E+00  0.00000000E+00  0.00000000E+00
  0.00000000E+00  0.00000000E+00  0.00000000E+00
  0.00000000E+00  0.00000000E+00  0.00000000E+00
  0.00000000E+00  0.00000000E+00  0.00000000E+00
  0.00000000E+00  0.00000000E+00  0.00000000E+00
  0.00000000E+00  0.00000000E+00  0.00000000E+00
  0.00000000E+00  0.00000000E+00  0.00000000E+00
  0.00000000E+00  0.00000000E+00  0.00000000E+00
  0.00000000E+00  0.00000000E+00  0.00000000E+00
  0.00000000E+00  0.00000000E+00  0.00000000E+00
  0.00000000E+00  0.00000000E+00  0.00000000E+00
  0.00000000E+00  0.00000000E+00  0.00000000E+00
  0.00000000E+00  0.00000000E+00  0.00000000E+00
  0.00000000E+00  0.00000000E+00  0.00000000E+00
  0.00000000E+00  0.00000000E+00  0.00000000E+00
  0.00000000E+00  0.00000000E+00  0.00000000E+00
  0.00000000E+00  0.00000000E+00  0.00000000E+00
  0.00000000E+00  0.00000000E+00  0.00000000E+00
  0.00000000E+00  0.00000000E+00  0.00000000E+00
  0.00000000E+00  0.00000000E+00  0.00000000E+00
  0.00000000E+00  0.00000000E+00  0.00000000E+00
  0.00000000E+00  0.00000000E+00  0.00000000E+00
  0.00000000E+00  0.00000000E+00  0.00000000E+00
  0.00000000E+00  0.00000000E+00  0.00000000E+00
  0.00000000E+00  0.00000000E+00  0.00000000E+00
  0.00000000E+00  0.00000000E+00  0.00000000E+00
  0.00000000E+00  0.00000000E+00  0.00000000E+00
  0.00000000E+00  0.00000000E+00  0.00000000E+00
  0.00000000E+00  0.00000000E+00  0.00000000E+00
  0.00000000E+00  0.00000000E+00  0.00000000E+00
  0.00000000E+00  0.00000000E+00  0.00000000E+00
  0.00000000E+00  0.00000000E+00  0.00000000E+00
  0.00000000E+00  0.00000000E+00  0.00000000E+00
  0.00000000E+00  0.00000000E+00  0.00000000E+00
  0.00000000E+00  0.00000000E+00  0.00000000E+00
  0.00000000E+00  0.00000000E+00  0.00000000E+00
  0.00000000E+00  0.00000000E+00  0.00000000E+00
  0.00000000E+00  0.00000000E+00  0.00000000E+00
  0.00000000E+00  0.00000000E+00  0.00000000E+00
  0.00000000E+00  0.00000000E+00  0.00000000E+00
  0.00000000E+00  0.00000000E+00  0.00000000E+00
  0.00000000E+00  0.00000000E+00  0.00000000E+00
  0.00000000E+00  0.00000000E+00  0.00000000E+00
  0.00000000E+00  0.00000000E+00  0.00000000E+00
  0.00000000E+00  0.00000000E+00  0.00000000E+00
  0.00000000E+00  0.00000000E+00  0.00000000E+00
  0.00000000E+00  0.00000000E+00  0.00000000E+00
  0.00000000E+00  0.00000000E+00  0.00000000E+00
  0.00000000E+00  0.00000000E+00  0.00000000E+00
  0.00000000E+00  0.00000000E+00  0.00000000E+00
  0.00000000E+00  0.00000000E+00  0.00000000E+00
  0.00000000E+00  0.00000000E+00  0.00000000E+00
  0.00000000E+00  0.00000000E+00  0.00000000E+00
  0.00000000E+00  0.00000000E+00  0.00000000E+00
  0.00000000E+00  0.00000000E+00  0.00000000E+00
  0.00000000E+00  0.00000000E+00  0.00000000E+00
  0.00000000E+00  0.00000000E+00  0.00000000E+00
  0.00000000E+00  0.00000000E+00  0.00000000E+00
  0.00000000E+00  0.00000000E+00  0.00000000E+00
  0.00000000E+00  0.00000000E+00  0.00000000E+00
