Ta  N Ru                                
   1.00000000000000     
    18.1096308199999996    0.0000000000000000    0.0000000000000000
     0.0000000000000000   23.3551997799999995    0.0000000000000000
     0.0000000000000000    0.0000000000000000   30.4818171199999988
   Ta   N    Ru
   216   240    24
Direct
  0.0003026360119240  0.0000204307239192  0.1960640124436274
  0.3339571452094341  0.0625725930924044  0.2020646702705947
  0.1662895812079131  0.0624756878943870  0.2019915625708489
  0.2502168166907054  0.1251663839377612  0.2772555056770601
  0.0827174778856921  0.0625502717058406  0.2829957036245526
  0.4177476943463231  0.0625343706752067  0.2830933422569038
  0.0004637942186393  0.1251784135080119  0.3685611813280743
  0.3326344704056117  0.0624962664776403  0.3671906373488833
  0.1678582610432699  0.0625648267131776  0.3670350376939261
  0.2514916862461026  0.1238580140320996  0.4535321033266056
  0.0849045403510581  0.0627836709931011  0.4525053122959299
  0.4179689988293828  0.0629099779915447  0.4536423018860914
  0.0001805892159497  0.1251346401503975  0.1958744683683555
  0.3339999814450889  0.1874539822833497  0.2021034993579158
  0.1664290101345983  0.1874083160070149  0.2018734504774440
  0.2501465423273283  0.2501371928493555  0.2774596750095273
  0.0827776613861908  0.1876247010437977  0.2827979934814481
  0.4176360016656246  0.1875077704842072  0.2832366885005786
  0.0008560447642572  0.2506805334124314  0.3683050958699486
  0.3325698787407366  0.1875596651105533  0.3675529206658994
  0.1678017783182374  0.1877982571120632  0.3672524714816580
  0.2495433422836811  0.2511542765414852  0.4546788366648807
  0.0849885056878185  0.1876257351991668  0.4539218301052734
  0.4140497863889212  0.1874567497983312  0.4550589305289434
  0.0004166183267154  0.2499593162711584  0.1956548534493069
  0.3339438899116469  0.3125034287063174  0.2020866372855604
  0.1664961495968542  0.3126994757644834  0.2018630748696055
  0.2501317362884459  0.3751042494344005  0.2774618437502329
  0.0827074459492957  0.3126348559023472  0.2827645441139284
  0.4174694637631899  0.3124248078184510  0.2833137985324335
  0.0000358944753318  0.3752402418380865  0.3681629371995414
  0.3322020450579802  0.3124412274608573  0.3677814282166579
  0.1675339741446283  0.3128293761736107  0.3674656863336223
  0.2499210343019254  0.3760888939436628  0.4553973351505662
  0.0843562808651260  0.3138324925869124  0.4538249632556545
  0.4157778080284086  0.3116719619377980  0.4537131068947651
  0.9991621782597541  0.3643606394656390  0.5437104728424492
  0.0003976446975722  0.3751759018469140  0.1955042686973477
  0.3339029632165081  0.4373116442125993  0.2019069738090173
  0.1663165194354303  0.4375816234959857  0.2018123089730856
  0.2500427443159714  0.0000196525125235  0.2772319667941679
  0.0825477304884221  0.4377015408118594  0.2827312874362343
  0.4173280189529587  0.4373563567364677  0.2830983797641285
  0.0000567463951284  0.0003316216700504  0.3691233105712995
  0.3318134528575014  0.4372143328214902  0.3675605404264937
  0.1676708979868187  0.4376880174447438  0.3669347223470258
  0.2508851347912012  0.9995223713821039  0.4540858915353951
  0.0818003409456648  0.4385537307320911  0.4521802865263267
  0.4151882005359012  0.4372853252421717  0.4543195781407895
  0.1702700413946277  0.4446018587119803  0.5420682999181775
  0.0004590510979479  0.5000419312267755  0.1956249640299060
  0.3336034523105319  0.5625016519573004  0.2017984046611837
  0.1660742938672388  0.5627574299604703  0.2019451661565897
  0.2495659622155870  0.6250215604527137  0.2770388042455825
  0.0824115584419381  0.5627660448649850  0.2830107086534051
  0.4174528016781274  0.5623372624744568  0.2826720723710106
  0.9998795003194733  0.6254572797530230  0.3691929637701345
  0.3318943064978305  0.5622369163022116  0.3668071151930241
  0.1673535069435685  0.5627246695430236  0.3673694567698160
  0.2499127123622555  0.6244150190968405  0.4536363666936203
  0.0846730402929784  0.5630972406333671  0.4538647611983364
  0.4165210637645636  0.5612716567359317  0.4524758478263697
  0.0014817852678756  0.6222212299232428  0.5420614301844564
  0.0002253401288309  0.6251185040469842  0.1959303030764617
  0.3334056365072998  0.6874539517332666  0.2017359313453323
  0.1659598252354887  0.6876968111899152  0.2020896781543140
  0.2496159014715257  0.7502006375955307  0.2773101806331451
  0.0824343200171977  0.6877561466588938  0.2832862777747639
  0.4173887700662016  0.6874567252221285  0.2824146379962164
  0.0004128614312810  0.7505268960563838  0.3695494474365396
  0.3324039656396085  0.6872551693268043  0.3664299307139914
  0.1675545336705273  0.6878040761489066  0.3674466841666557
  0.2515859785154122  0.7489446217228845  0.4541838689089082
  0.0835591481361316  0.6890050158583882  0.4535303606416290
  0.4156526364955080  0.6860254719694567  0.4515593121905455
  0.1715004539259757  0.6893248547919609  0.5423463090239279
  0.0003399646840898  0.7502057956597704  0.1961761418666060
  0.3336562587439187  0.8127406108942445  0.2016926080060512
  0.1658104408916286  0.8127280054529145  0.2021422741518119
  0.2497485561614064  0.8750156879692973  0.2773473719807315
  0.0825532526683588  0.8126713780910122  0.2835282306831857
  0.4174244509523615  0.8125183067710559  0.2825141713256921
  0.0006284488642009  0.8751761016537866  0.3695314230542723
  0.3322074012783651  0.8125084241166238  0.3670431897300781
  0.1677054484897145  0.8128605737472935  0.3683075244450340
  0.2516368801859257  0.8757507728819648  0.4561747002370730
  0.0866053394303816  0.8131342242519338  0.4566618307714687
  0.4157252135014092  0.8118684214672285  0.4528438146520485
  0.9908108025511473  0.8764829513963203  0.5427834583495872
  0.0003002908469417  0.8751024966626183  0.1962121585996681
  0.3338207400168438  0.9375939315425882  0.2019205412254787
  0.1659222078173554  0.9374634171864615  0.2020984776573334
  0.2499300933179688  0.4998663132432550  0.2772511656060030
  0.0826672623324178  0.9375537666735182  0.2833609000209375
  0.4175896244174178  0.9375176308034965  0.2827330307510430
  0.9998811554637075  0.5006576076775426  0.3683455686883885
  0.3329656778266204  0.9373981808429798  0.3669487408177683
  0.1678392070103066  0.9375468762932400  0.3678334901092357
  0.2505093794346800  0.5005235214134139  0.4544629304891954
  0.0831335904935422  0.9383520771767833  0.4542011970718589
  0.4169654259608787  0.9374443767986853  0.4513947060774024
  0.1676680831957633  0.9414696746636886  0.5443511449758633
  0.5001293671983223  0.0001673329360425  0.1958683073620770
  0.8338216052691030  0.0624411018411141  0.2021202746890294
  0.6662353962199501  0.0625372728099065  0.2021773355091084
  0.7499526681070894  0.1251115053916413  0.2774544173245039
  0.5825495757425827  0.0625565201380840  0.2831884690487256
  0.9178332202376178  0.0626007624662894  0.2830410482215391
  0.5002824227304407  0.1250372784481448  0.3694238618706320
  0.8325353173423735  0.0629252156771148  0.3672460303211658
  0.6679870970118299  0.0626483767412838  0.3676005610027532
  0.7515848625861955  0.1280981498687541  0.4555862728449525
  0.5866443432111541  0.0622914471188357  0.4551771561103772
  0.9148872139912132  0.0638543147916041  0.4545888332573639
  0.4989328119594817  0.1237870431356252  0.5412102770575895
  0.5000855830768661  0.1251593023524694  0.1960573648926713
  0.8338605974587487  0.1875098442471703  0.2019602365653885
  0.6659623256312114  0.1874991131755645  0.2021571097237498
  0.7498276112245759  0.2500690165860167  0.2772011078649148
  0.5823923881635287  0.1874782845523975  0.2833012846342148
  0.9177920527796937  0.1876118660360268  0.2827717698457716
  0.4996819035394066  0.2498910026385235  0.3692608667486308
  0.8320690097002749  0.1877460420562644  0.3667589961166294
  0.6680530903461562  0.1874764503101542  0.3675511590585448
  0.7507725544921553  0.2498903106550146  0.4536069527543554
  0.5843560996192291  0.1879318120152300  0.4535208250700180
  0.9188507684659651  0.1886282215670927  0.4510742178049695
  0.8366965256140707  0.1972832004196709  0.5409969374252230
  0.6698884384942931  0.1857545536782823  0.5421275978721122
  0.4998004041210558  0.2499838766956892  0.1960323556122168
  0.8335404282997830  0.3125414935690936  0.2017393290252872
  0.6660237605860307  0.3123433616530932  0.2019620295130980
  0.7497517622669186  0.3751022705545148  0.2770442267589269
  0.5821438650037543  0.3124178900790509  0.2829986567325035
  0.9177984972065893  0.3126404709477780  0.2824219162013596
  0.4996031056629388  0.3747933204559998  0.3690823901598991
  0.8325777539346981  0.3127731430109453  0.3665300729320248
  0.6675459347115412  0.3125328747056071  0.3669384651301498
  0.7489135054612506  0.3758079679480347  0.4530172175650087
  0.5833970725919602  0.3115952540459733  0.4535924925827086
  0.9150999319430104  0.3135283908318157  0.4529205290127130
  0.5015686368631254  0.3691400504591513  0.5425888001640738
  0.4997051921263759  0.3749229405853897  0.1958840818785466
  0.8335477767610272  0.4376365536391998  0.2016250988148044
  0.6661125662050723  0.4373644941774252  0.2018057451629470
  0.7501589040836869  0.0001143601221045  0.2773743356345802
  0.5820878372350785  0.4374032466265501  0.2827331184195186
  0.9178821541138424  0.4377010570315777  0.2823215344193719
  0.5010784392743167  0.0001816175214334  0.3687482275041352
  0.8322181359201649  0.4377713919287348  0.3661573830698288
  0.6674701282529811  0.4373555740116502  0.3668432645776010
  0.7499895679121048  0.9977914518148101  0.4536870265159454
  0.5844571041307489  0.4370584352194653  0.4532745893432709
  0.9160948350179792  0.4387397838865029  0.4520663562177882
  0.8252700072989060  0.4420188336930075  0.5414284290459332
  0.4995617879815111  0.4998308745074216  0.1956406077917177
  0.8337865084341783  0.5627179242328632  0.2017771653004726
  0.6661831851788873  0.5624487950263349  0.2016786803398505
  0.7502154587417725  0.6249211300158293  0.2771868371117754
  0.5822567014645618  0.5623845326329724  0.2824856266401137
  0.9177512374479080  0.5627395793253451  0.2825704473882086
  0.5002125920202308  0.6245475560754696  0.3680060680859581
  0.8326112711564965  0.5627230379902114  0.3665365895191878
  0.6675696739707526  0.5624193491814419  0.3666272478642933
  0.7495682159761348  0.6256485687258914  0.4538299141635234
  0.5827604194519554  0.5621125725309123  0.4528220842000236
  0.9139803560774487  0.5624492611081436  0.4532148153877228
  0.5017476786691887  0.6191509886869870  0.5419993047978117
  0.4998476388071493  0.6249398012393942  0.1954461648427170
  0.8340150377764535  0.6878180918670022  0.2020490850228847
  0.6663835395242769  0.6876005566692391  0.2016982428573769
  0.7502531678331101  0.7500019626996580  0.2771075691588034
  0.5823592288744860  0.6874330246834861  0.2824566265186388
  0.9177545259359094  0.6877232246400633  0.2831439852346568
  0.5003833141641555  0.7496889586452691  0.3679125678380160
  0.8326256610070243  0.6876713084602089  0.3675826346697565
  0.6679397837111914  0.6873592814326029  0.3667999860165951
  0.7502779151633978  0.7493521707521784  0.4540878608920096
  0.5834036448381720  0.6864267440552676  0.4527720482945691
  0.9146634322745110  0.6887842470806542  0.4555032916754161
  0.6746795667740791  0.6887925737310077  0.5417146169225827
  0.4998522005246575  0.7500167978902635  0.1954590801075920
  0.8341127511673770  0.8126202889525967  0.2021158305504183
  0.6664277245385590  0.8125085469853767  0.2017896408788997
  0.7502143404377261  0.8751017099633029  0.2771800064805290
  0.5826173982227901  0.8124665283774992  0.2825431326805428
  0.9179087112415920  0.8126318312298227  0.2832183609765121
  0.5008573967948423  0.8746583744604404  0.3681039359401931
  0.8325810496161025  0.8125346978812428  0.3669415498122096
  0.6676868583407264  0.8122121954635628  0.3668080437956598
  0.7491238271693937  0.8743280955955499  0.4533161618944737
  0.5846531750861288  0.8114108173111985  0.4529041459144258
  0.9167319691721001  0.8130805612219951  0.4532272781111611
  0.4885303119662852  0.8670381078644175  0.5408756698861473
  0.5001675117695553  0.8750755494449054  0.1956231606841334
  0.8340553803403641  0.9375950789367019  0.2021344657466339
  0.6663449416693635  0.9377260836708199  0.2019073843229703
  0.7497479680694338  0.5000458062939677  0.2769948008040131
  0.5826414594357745  0.9375442471846924  0.2828222767268379
  0.9177884426728505  0.9376158543882157  0.2831699174781582
  0.4996862188738716  0.4995023539011154  0.3686290306409802
  0.8328018481074746  0.9376726016846868  0.3673088723578696
  0.6680629612212668  0.9374269542022853  0.3670884846365693
  0.7484623868089987  0.4995456837396271  0.4527377755094772
  0.5840552887028351  0.9371584948414673  0.4526959459434770
  0.9145000173296056  0.9376898620351273  0.4536028392865653
  0.6666122473181736  0.9339078241734428  0.5434642741347004
  0.3305501343919344  0.0551530626669243  0.5442246818020419
  0.3245786486546769  0.3174011968178294  0.5432236555211339
  0.0030928794702323  0.0076511014415029  0.5411802604514422
  0.3255541436280204  0.5678026118670969  0.5420336422310713
  0.6703893955334335  0.3153047629724569  0.5417907158505065
  0.4965499065485818  0.9973943515097311  0.5405091826057811
  0.6675289291752062  0.5623064878360143  0.5420354871585515
  0.4953533432193822  0.7472813582763522  0.5398981861292432
  0.8205364620114037  0.8167774933392428  0.5425092712299666
  0.4064493820368704  0.0001365160323567  0.2310763100184516
  0.2499948788004911  0.0000173619901031  0.1984484557271180
  0.0938888178693253 -0.0000186474758318  0.2313978607889155
  0.1548454901578997  0.1251767189096572  0.3146770725510677
  0.0003041798453554  0.1251297072012231  0.3019504316781066
  0.3456001977949265  0.1250438333853266  0.3149356536532064
  0.4007830976561643  0.1251117735916656  0.4018649196524227
  0.2503836439676468  0.1249350068293294  0.3860311469941453
  0.0997085932342513  0.1255630709799251  0.4007866792734984
  0.1545488742389368  0.1238568896623955  0.4836810441634682
  0.0011674496932992  0.1251255206324314  0.4715023748684511
  0.3467895344418527  0.1228603235489577  0.4883432289019319
  0.4022483507169608  0.1172196417955572  0.5719038929225811
  0.2400059536849675  0.1012839270384532  0.5662001681842697
  0.1001573538972009  0.1340727890418495  0.5645553412683377
  0.4064617825949092  0.1250411514768991  0.2313313158900555
  0.2501387906395829  0.1249993898282921  0.1982248357793803
  0.0938944531880975  0.1250418337390170  0.2310726865119088
  0.1546048661418580  0.2502989075879331  0.3148418074520012
  0.0002900930495888  0.2501118773833594  0.3016813649309458
  0.3454271203473290  0.2500306214780830  0.3151614245512602
  0.4003433180654643  0.2495901780648375  0.4020790175453449
  0.2499616152242763  0.2502600568349788  0.3868482088034259
  0.0993148072994878  0.2504949494681997  0.4013828459735728
  0.1508524382238857  0.2503640378561808  0.4842700695061649
  0.0003215409968426  0.2510191725226302  0.4717800747339009
  0.3451948951063853  0.2523235367452673  0.4883956122890566
  0.4072771033414199  0.2587003417457131  0.5684709027623975
  0.2325740235276733  0.2657840281754950  0.5603807851929252
  0.0892871953845646  0.2670483619258977  0.5723776928169414
  0.4062825428585305  0.2499937821510546  0.2314593668262918
  0.2501359670356197  0.2499982041826613  0.1987142964602959
  0.0940568131225157  0.2500544981878597  0.2309580660239558
  0.1544248158352347  0.3751319277416840  0.3148086262718715
  0.0000861415818481  0.3751620182577622  0.3015292229983482
  0.3454404172779394  0.3748165691926546  0.3151232731616173
  0.4007163149086560  0.3746616598237452  0.4019899674059731
  0.2495902159262464  0.3750403015585940  0.3872426094730950
  0.0983120136759293  0.3755640287514475  0.4013415106082663
  0.1505207164594561  0.3800912981994179  0.4854671306241199
  0.9988297996011318  0.3758833350843511  0.4757607176187599
  0.3488324415121092  0.3729726687947411  0.4873010246764420
  0.4031870318882181  0.3721325750804084  0.5719740536567517
  0.2465338195454042  0.3801837871120228  0.5565358366672204
  0.0942097319449911  0.3885862748729518  0.5674555096677897
  0.4061975541692311  0.3748562130329049  0.2313574914942956
  0.2501155995883239  0.3750113906384746  0.1981529884982964
  0.0939669697876938  0.3751009732044415  0.2309504842920453
  0.1547797630702390 -0.0000838419542076  0.3149966424421631
  0.0001878097006735  0.0000810935474087  0.3024053522181483
  0.3455507718174216  0.0000166376987951  0.3146049440213297
  0.4017506393021888  0.0007358074589795  0.4005635507162941
  0.2503836012505020  0.9998369429522662  0.3864241297875664
  0.0993595657998292  0.9998359029374656  0.4014172190397105
  0.1527785996374853  0.0001657555128556  0.4861528771165912
  0.9998341591063205  0.0017577937756852  0.4736402408824195
  0.3488305636346733  0.0024229503573794  0.4851270016981225
  0.4030732370251935  0.9983614647455787  0.5716181935524461
  0.2625458312149674  0.9825729264342907  0.5602334179987648
  0.1032251403155763  0.0079157362447517  0.5681610612847725
  0.4060159075705712  0.4998409874991344  0.2310751220633513
  0.2499658233126834  0.5000147014006820  0.1985909171765081
  0.0939839193556139  0.5002446257466793  0.2310777114701201
  0.1543999136276140  0.6252364877822705  0.3149850709121755
 -0.0000128919347846  0.6252930018699018  0.3023601769013959
  0.3451876983096813  0.6247499658624383  0.3142769211550129
  0.4010182141692309  0.6239603539255691  0.4002206553890523
  0.2498899182978171  0.6250878540204439  0.3860376492110129
  0.0987716483432931  0.6255114635343743  0.4018759100690520
  0.1524482088153413  0.6283685806431780  0.4864893611440926
 -0.0000575740929731  0.6258867676379860  0.4740610697178627
  0.3479953936238189  0.6228329127289015  0.4849037333016323
  0.4015362148129371  0.6297776280523432  0.5668691399541791
  0.2453140655120971  0.6246645542515337  0.5602717733559148
  0.0992093952475259  0.6309454187289170  0.5693030318776598
  0.4061859203942609  0.6248928133970205  0.2307260358251263
  0.2498087351565129  0.6250987274249380  0.1979209177815427
  0.0937274406237953  0.6252822023787353  0.2313669935856393
  0.1545389818459041  0.7503920034676410  0.3153479151914689
  0.0001378413358655  0.7502044158715517  0.3027141870763640
  0.3452682771485133  0.7501165355243702  0.3142851083076094
  0.4013458090010860  0.7494264284139439  0.3998543892396619
  0.2502513381073264  0.7500205060537479  0.3864778976786478
  0.0996890825543271  0.7510355030586464  0.4023459367430754
  0.1547946333757449  0.7477230644831714  0.4874437514003777
  0.0004952219196638  0.7510096113009472  0.4734018815992877
  0.3499820918484180  0.7473870889533261  0.4825125328288578
  0.3983758101738619  0.7617731220181351  0.5661099658343856
  0.2647748531783945  0.7423833646527475  0.5598369923677221
  0.0939816686453433  0.7497413504936493  0.5697552552138224
  0.4061109579232939  0.7500814867864632  0.2306430181484619
  0.2498383099675619  0.7502189594126621  0.1986337699693809
  0.0937980403377840  0.7502732211445933  0.2316450686799228
  0.1546948316923765  0.8750338001755975  0.3155081261175887
  0.0002138121657906  0.8751742709834992  0.3027333820375733
  0.3453617064757213  0.8749147055202972  0.3145221674270980
  0.4017994599940669  0.8744750722217635  0.3999695512958958
  0.2503637940693479  0.8752975272332958  0.3877506048844016
  0.0994631436930839  0.8751244695022754  0.4028986636033793
  0.1520173662240570  0.8790836093259127  0.4889959273941919
  0.9986587181879293  0.8756869994972423  0.4744220305059070
  0.3525495667117101  0.8758320795787757  0.4830983805163748
  0.3863279102927180  0.8743552159376491  0.5718235603072136
  0.2164928120353600  0.8565995731696404  0.5662170788891393
  0.0835051977574537  0.8923670143904567  0.5739714830848104
  0.4063723689512997  0.8750527686533847  0.2307983567699530
  0.2498864216627107  0.8750955541791465  0.1983834635765693
  0.0938161799021159  0.8750621534401448  0.2316894693153377
  0.1544079667278953  0.5002400924301917  0.3147482891366585
  0.0000655289243939  0.5002801755235888  0.3017142118262410
  0.3454008365183843  0.4997755126165135  0.3147504102945100
  0.4004066853018917  0.4994313070620044  0.4012949756328217
  0.2497867913650138  0.5001082284885786  0.3865615845589096
  0.0985233055024853  0.5008507249416809  0.4010056826316778
  0.1513862984032354  0.4975014985827161  0.4839201916246063
  0.9989853088949522  0.5017372744320834  0.4735332459875261
  0.3483117791179194  0.5017246667969671  0.4880499269829126
  0.4108714482115948  0.5112885637825096  0.5687489992249841
  0.2413118933916133  0.5101062155358964  0.5596746864786950
  0.0924069956837972  0.5087557905037069  0.5662743702076457
  0.9065465014266235  0.0000769700845241  0.2312434952943456
  0.7501170685538281  0.0000618171620604  0.1980967464694649
  0.5937866991174480  0.0001054511717701  0.2311847227236911
  0.6545296065119618  0.1250013528041875  0.3151948912424112
  0.5000875805779701  0.1250221279761057  0.3026242135278902
  0.8456556712325083  0.1251467015939921  0.3147212522284334
  0.9011164158184054  0.1253144643725678  0.4009422058945766
  0.7503959161871425  0.1251494439890913  0.3873097402599593
  0.5996948808281567  0.1249971819033328  0.4020115577382290
  0.6536373915026648  0.1269710494105517  0.4878824690678388
  0.5007903346600084  0.1257248754975996  0.4728276634810095
  0.8509206842961267  0.1311645717540108  0.4864133342223725
  0.9169750824242178  0.1405288675488599  0.5684440134819405
  0.7625573893653024  0.1387897821731531  0.5591790610564271
  0.5961686835260304  0.1328536438996256  0.5712151643574042
  0.9064169227696421  0.1250095777864023  0.2310577574710784
  0.7500223707822191  0.1250529458416485  0.1987041392456219
  0.5937082279316978  0.1250698207276659  0.2314202681751184
  0.6543806393011586  0.2499159434516450  0.3148334376324302
  0.4999402312034555  0.2499079372967594  0.3024996999781664
  0.8457160822701562  0.2501318981754125  0.3143100457958564
  0.9014981578586357  0.2510210559557260  0.4000989597580191
  0.7500848026400714  0.2504167860540070  0.3858374112172636
  0.5992479670087122  0.2499216665245218  0.4013562566666498
  0.6535255088796270  0.2506299623202859  0.4868300289929065
  0.4997900268375184  0.2497942149830271  0.4730683942803914
  0.8505397194750128  0.2498056776151693  0.4831230107666384
  0.9047712733614126  0.2648731056417281  0.5649186112321445
  0.7530793715578575  0.2555720940508313  0.5575068892348367
  0.6009604030678906  0.2542609662062449  0.5676464560733003
  0.9065009112001853  0.2500286727922600  0.2307343779691848
  0.7499180133314701  0.2499184548358638  0.1982127924542997
  0.5934909323248763  0.2498828240480275  0.2312952820880294
  0.6541398778516224  0.3749311391686894  0.3145473269693860
  0.4998210483438304  0.3748889451678794  0.3023182069236408
  0.8457274749673388  0.3752530528254780  0.3140738168412689
  0.9012698979166869  0.3756647608779785  0.4007831645467272
  0.7501078404483076  0.3750371123203603  0.3854115370302713
  0.5988730065846944  0.3747743971278124  0.4014702599212281
  0.6522471902860796  0.3727511690571972  0.4856285584540379
  0.5005869173142494  0.3745852093156928  0.4738941128349549
  0.8459806314032067  0.3797786795588433  0.4849957049401211
  0.9034916434084341  0.3881622560262968  0.5656215149389577
  0.7557727032378667  0.3739702443167037  0.5605861684132114
  0.6000813590586184  0.3799343408038337  0.5689685427001548
  0.9064691798454371  0.3751307980815158  0.2304936555453218
  0.7498455899061011  0.3749560113786057  0.1980774246958552
  0.5934709217404207  0.3748643437563122  0.2310477416658611
  0.6546451373808578  0.0001026568194439  0.3149324321925868
  0.5002208444008878 -0.0000258346726449  0.3021060086635476
  0.8456684409022592  0.0002443572291951  0.3148257611716572
  0.9009036847202782  0.0009201400257610  0.4015482193212766
  0.7502899785404444  0.0001829244128191  0.3861389686279814
  0.6001941294569937  0.0001468257542363  0.4017598311650876
  0.6545064760040470  0.9971477107260730  0.4883220629864869
  0.5009042145280911  0.9985545542731408  0.4722606337804018
  0.8466451680447887  0.9993754183622934  0.4843085928558049
  0.9011874809418924  0.0121511045222680  0.5689934966073935
  0.7578508917086312  0.9749366140967943  0.5678183106999846
  0.5941748692447921  0.9906236624796345  0.5712476196927160
  0.9064653272680244  0.5001525442941136  0.2305823512946863
  0.7499168037573829  0.5000773947135380  0.1980972510068320
  0.5934181782428259  0.4998592974223414  0.2307348293696027
  0.6543186988969658  0.6250185578374995  0.3143506092772599
  0.4999163177009601  0.6249176849704354  0.3014475662220177
  0.8457619170795789  0.6253302150479148  0.3146542227507472
  0.9009449423560374  0.6256118499869155  0.4017068754184634
  0.7499719251148611  0.6248071201803015  0.3858898308742549
  0.5989337297279050  0.6246408435330794  0.4009040282350497
  0.6515090519115802  0.6246496489706944  0.4861410452269460
  0.4996786728339902  0.6235873198228621  0.4733759441555853
  0.8470236673172565  0.6237937785884815  0.4841433440532597
  0.8996426187711867  0.6314392600525308  0.5687385948111537
  0.7481421211862885  0.6198246832518064  0.5564164805574822
  0.6006629278748676  0.6272666074407295  0.5693368256133257
  0.9064493869032235  0.6253333670868971  0.2310397351011691
  0.7500591508755605  0.6251319587672005  0.1984162128243541
  0.5936559463517911  0.6249561427880441  0.2306203966148460
  0.6545028821078140  0.7497730825976898  0.3144190709291139
  0.4999755724445318  0.7499671155044941  0.3013701825118590
  0.8456787251783530  0.7500365004781203  0.3148975422777406
  0.9009129871895617  0.7502212249846455  0.4018796188348251
  0.7501063633600565  0.7500045304609966  0.3861774038946331
  0.5991107066295752  0.7493355451025681  0.4007816639575529
  0.6524613692790481  0.7467931727912347  0.4854834815496630
  0.4995610449928442  0.7482579721939095  0.4717382425032973
  0.8480028935478494  0.7540983566138384  0.4869501175983260
  0.9067309733786506  0.7641899993979914  0.5700463865646573
  0.7614633532940892  0.7424052187004244  0.5589717600383186
  0.5962732211925912  0.7508602967710061  0.5666491780547094
  0.9065984664478979  0.7501978080301729  0.2313447133792446
  0.7501653963603089  0.7501286098364678  0.1978907222144496
  0.5937029427280907  0.7500088471055300  0.2306632618772060
  0.6545656214070967  0.8749622281718905  0.3145165699768311
  0.5001712897324289  0.8749688971339576  0.3015654652107333
  0.8456826114842644  0.8751289904030805  0.3148185722175811
  0.9009473762917136  0.8750768199622473  0.4013152666206797
  0.7501760446046031  0.8747375193930926  0.3857926056559431
  0.5994992114007637  0.8744847816152854  0.4009694612200830
  0.6516500290047773  0.8762526463656753  0.4853476863312243
  0.5000334468100996  0.8733763850474311  0.4724923534304760
  0.8458341926079024  0.8738271989480363  0.4855646672109651
  0.8900682475484153  0.8816034413148481  0.5690632947145557
  0.7274760768530542  0.8598884085745456  0.5610901074479507
  0.5843011460793387  0.8757438131557586  0.5671899048889008
  0.9065661795626772  0.8751021300538834  0.2313890677125712
  0.7501263180592960  0.8751428059703524  0.1984141617392120
  0.5938693282755763  0.8751307318102868  0.2308638986676949
  0.6540687582419632  0.4999030968446657  0.3143329219876310
  0.4997973998027871  0.4998723409064683  0.3019220860259502
  0.8456795610341974  0.5001900362007214  0.3141188996775648
  0.9006728068175360  0.5003635315589295  0.4005036063260796
  0.7499492931143474  0.5002502679651147  0.3853374264597731
  0.5990616991501579  0.4996028078224065  0.4008534059703403
  0.6518116903342602  0.5019661045342843  0.4856875934540471
  0.5001009109433120  0.4997133550393778  0.4716900277001188
  0.8456427524428971  0.4972192035607581  0.4838030267388273
  0.8992921265145034  0.5106200261487260  0.5637775920723107
  0.7373402075552870  0.4941664653087561  0.5602215471075762
  0.5937885093176056  0.5022534993796223  0.5701147556587512
  0.0039932024459929  0.1236152226162519  0.5380736365020120
  0.3829214085102863  0.1891831640247744  0.5417903330338949
  0.1363731904241980  0.2056146770659537  0.5441140502883370
  0.3845823109169771  0.4434886315353983  0.5415931416322991
  0.3414290507261294  0.6929954091377244  0.5355207308448434
  0.3462193673199792  0.9346137437261565  0.5330691374337168
  0.6536425641137068  0.4408427446416351  0.5381729839282957
  0.8610711797807349  0.6981633095555374  0.5442640819362544
  0.8412403608313345  0.9486480386702729  0.5405254077640556
  0.1616012026180160  0.0698919675285064  0.5378995205434036
  0.9994407564262389  0.2588262745684208  0.5395034266212219
  0.1650307714253570  0.3240220959150695  0.5406457681475193
  0.1601179984298543  0.5677420524115068  0.5388145200711696
  0.9967787995624952  0.7530776726741529  0.5407803952170421
  0.3069218288916361  0.8228379652606886  0.5660655149900139
  0.1216138078082845  0.8195497394709188  0.5462309856333951
  0.9981441374059288  0.5166694442455790  0.5399746734647336
  0.8583040355706361  0.0786233070667819  0.5432733077791115
  0.6218617546459475  0.0610992405488828  0.5405341095102111
  0.5049229947944451  0.2596550405456983  0.5398060511470012
  0.8335069756510113  0.3205400124421058  0.5357097626762818
  0.8360275137214798  0.5701340764140401  0.5374477249109296
  0.6482287863403388  0.8117689899327700  0.5366886431184364
  0.5065565028688956  0.5063891524219069  0.5389308044621490
 
  0.00000000E+00  0.00000000E+00  0.00000000E+00
  0.00000000E+00  0.00000000E+00  0.00000000E+00
  0.00000000E+00  0.00000000E+00  0.00000000E+00
  0.00000000E+00  0.00000000E+00  0.00000000E+00
  0.00000000E+00  0.00000000E+00  0.00000000E+00
  0.00000000E+00  0.00000000E+00  0.00000000E+00
  0.00000000E+00  0.00000000E+00  0.00000000E+00
  0.00000000E+00  0.00000000E+00  0.00000000E+00