Ru Ta  N  Cu                            
   1.00000000000000     
    18.1096308199999996    0.0000000000000000    0.0000000000000000
     0.0000000000000000   23.3551997799999995    0.0000000000000000
     0.0000000000000000    0.0000000000000000   30.4818170799999990
   Ru   Ta   N    Cu
    64   240   240     2
Selective dynamics
Direct
  0.0693662789495866  0.0122200590644133  0.5332933339628743   T   T   T
  0.2861887003565122  0.5018697019290406  0.5249839824474447   T   T   T
  0.4420954995168835  0.0626626854851765  0.5195799692458302   T   T   T
  0.0696688103311512  0.2626593651473951  0.5333216355465472   T   T   T
  0.2852021334681984  0.2491024128748318  0.5249400510406105   T   T   T
  0.4419137613030757  0.3114941647564161  0.5199414052597325   T   T   T
  0.0672571672903818  0.1282381790589422  0.5332225966622093   T   T   T
  0.2858822956223979  0.1312942197880570  0.5251374842579000   T   T   T
  0.4463212139640095  0.1863221748945622  0.5209681917802483   T   T   T
  0.0694287513359187  0.3744140360900783  0.5328924406997843   T   T   T
  0.2831049915585839  0.3823999312184717  0.5257347949432277   T   T   T
  0.4368198062117770  0.4369500702535026  0.5202832974627033   T   T   T
  0.1745267191020705  0.4379713530524511  0.5483943515693867   T   T   T
  0.1870405367125085  0.3101269140388925  0.5511319913951018   T   T   T
  0.1759398960132416  0.1866999998421132  0.5491225405592385   T   T   T
  0.1875240957094223  0.0608832229191205  0.5517831682673247   T   T   T
  0.0673043497379882  0.5110031113181304  0.5332162155910303   T   T   T
  0.2860976821125575 -0.0000105951366667  0.5250662575244897   T   T   T
  0.4434332965324055  0.5621951244769126  0.5198553525629075   T   T   T
  0.0694497072164719  0.7625653521733985  0.5339469606856300   T   T   T
  0.2829869424314696  0.7490834168793372  0.5254766982104279   T   T   T
  0.4408119559546454  0.8121274772492336  0.5193922387014199   T   T   T
  0.0667340012331086  0.6222757787683874  0.5328900693636076   T   T   T
  0.2813633579689302  0.6321040228618001  0.5261686507360375   T   T   T
  0.4451164289675477  0.6883341655361097  0.5207855786790148   T   T   T
  0.0680817095787521  0.8745976160813358  0.5334800816448860   T   T   T
  0.2848664917276500  0.8829403034880022  0.5251116396228481   T   T   T
  0.4450648027587060  0.9368789192802971  0.5212352547819024   T   T   T
  0.1746310725334497  0.9365987384784586  0.5493948312077471   T   T   T
  0.1873102725057111  0.8122193637345397  0.5510303503120341   T   T   T
  0.1701045048823763  0.6854965774157000  0.5489007401304954   T   T   T
  0.1850427696653831  0.5595019246340750  0.5510330908337185   T   T   T
  0.5696402513509103  0.0052886144600293  0.5339800917919252   T   T   T
  0.7856949628426673  0.4961082263396450  0.5247425968445577   T   T   T
  0.9433430722804177  0.0576146053376632  0.5206294088012476   T   T   T
  0.5693831122904870  0.2468220169591336  0.5341646042651349   T   T   T
  0.7875925921914224  0.2470599027303539  0.5243655551023401   T   T   T
  0.9439412635585689  0.3109327963766251  0.5199886928323082   T   T   T
  0.5660493265847354  0.1161911401958706  0.5330689621059843   T   T   T
  0.7892853221606934  0.1237567402671916  0.5239929551694600   T   T   T
  0.9495893366703134  0.1886247833462784  0.5214930812408821   T   T   T
  0.5699006221824473  0.3551194449145092  0.5338783902220097   T   T   T
  0.7911316772386585  0.3771710791811787  0.5236242577627447   T   T   T
  0.9471736196788137  0.4379571587783705  0.5215697749564239   T   T   T
  0.6769602194296408  0.4299245607963384  0.5479843470799988   T   T   T
  0.6905778342489619  0.3154801922676226  0.5521155010527654   T   T   T
  0.6794589162709335  0.1865155133999070  0.5472255629981152   T   T   T
  0.6848311170607259  0.0699967885903314  0.5522827632731084   T   T   T
  0.5719157792972012  0.5206056465264896  0.5357562498262034   T   T   T
  0.7804544349044727 -0.0004981559209392  0.5261885159519114   T   T   T
  0.9406923561834856  0.5613673622527688  0.5195533191279803   T   T   T
  0.5651992227671115  0.7589165182391423  0.5331100977192486   T   T   T
  0.7881701922161081  0.7538774046677944  0.5244436947640769   T   T   T
  0.9415096382627923  0.8106825094851201  0.5191750190175535   T   T   T
  0.5689130304249156  0.6294555762206860  0.5344849262628923   T   T   T
  0.7852423045030592  0.6315781054819820  0.5249352756676887   T   T   T
  0.9468370503903859  0.6871149888621187  0.5212946802825412   T   T   T
  0.5670428240930000  0.8698686254836967  0.5334132775420144   T   T   T
  0.7798176980117910  0.8762552840578308  0.5264025567048152   T   T   T
  0.9474750019505561  0.9372436205115839  0.5208859277199952   T   T   T
  0.6720255284712142  0.9372399379379042  0.5488231707315846   T   T   T
  0.6826601575663400  0.8070665132403347  0.5521004174923548   T   T   T
  0.6782073390422559  0.6903968428902113  0.5478760352399893   T   T   T
  0.6908508549202405  0.5598737637016820  0.5505877688038409   T   T   T
  0.9996246524628063  0.9999635445867767  0.1022212275957983   F   F   F
  0.3339438256838960  0.0624457813299060  0.1075563970202325   F   F   F
  0.1656734882889026  0.0624869619810369  0.1076523577670159   F   F   F
  0.2496380332605455  0.1248777014917124  0.1827535963680589   F   F   F
  0.0820753910794778  0.0624168821917976  0.1887361965005994   F   F   F
  0.4168249566545654  0.0624128089775482  0.1889653308070223   F   F   F
  0.0001782302942292  0.1249143015180481  0.2747689013407397   T   T   T
  0.3320850742166223  0.0624402381731292  0.2731983431323641   T   T   T
  0.1676639233489841  0.0624664493460910  0.2728407918597752   T   T   T
  0.2493707710732888  0.1250774006759854  0.3595724695576781   T   T   T
  0.0837171713829896  0.0625769720940291  0.3592093463078360   T   T   T
  0.4160882455750710  0.0624625138136435  0.3591137959917789   T   T   T
  0.4953537516869107  0.1250380893942881  0.4440106991301581   T   T   T
  0.3319510363752338  0.0625209167852669  0.4452986533134162   T   T   T
  0.1648740115991171  0.0628440925247938  0.4468938814686306   T   T   T
  0.9996175425524214  0.1249358288969233  0.1022184789678420   F   F   F
  0.3339435537114426  0.1874256191358299  0.1075504356733603   F   F   F
  0.1656688965935942  0.1874633245330628  0.1076544484778310   F   F   F
  0.2496428192825420  0.2499248694537357  0.1827745152021549   F   F   F
  0.0820483011947246  0.1874164370395803  0.1887315368489411   F   F   F
  0.4168235962087010  0.1874178821048673  0.1889761876915443   F   F   F
  0.0001751303284178  0.2499104984417845  0.2747929525604782   T   T   T
  0.3321117115227217  0.1874476682540925  0.2732175520852452   T   T   T
  0.1676060183231189  0.1874721659429209  0.2728821143198187   T   T   T
  0.2491823350482077  0.2500931597273304  0.3596192255996921   T   T   T
  0.0835441487800461  0.1875552563855189  0.3594892503792946   T   T   T
  0.4159188452479380  0.1874767183047961  0.3589537551128988   T   T   T
  0.4959195466419199  0.2495453332546783  0.4441833723542271   T   T   T
  0.3324507534605552  0.1874100672420286  0.4444302944666121   T   T   T
  0.1642860419572797  0.1879031835840650  0.4476864522714915   T   T   T
  0.9996247444640574  0.2499647011854407  0.1022230082490267   F   F   F
  0.3339438339619036  0.3124448417397900  0.1075557633545969   F   F   F
  0.1656741876920407  0.3124866150128511  0.1076519504247102   F   F   F
  0.2496342491082189  0.3748782083517597  0.1827543288382500   F   F   F
  0.0820773763724816  0.3124181279228466  0.1887355922833933   F   F   F
  0.4168238893201348  0.3124134579098339  0.1889644027201030   F   F   F
  0.0001557422410463  0.3749312989684658  0.2747700848184047   T   T   T
  0.3320381626868652  0.3124502969529551  0.2731958458010718   T   T   T
  0.1676060518179688  0.3124527813878838  0.2728840610610202   T   T   T
  0.2491463655199003  0.3750150096629424  0.3596088828474913   T   T   T
  0.0836144418503566  0.3125439200971546  0.3593267467075304   T   T   T
  0.4160821760118500  0.3124792850041854  0.3590519232290912   T   T   T
  0.4964856562654184  0.3748339789749522  0.4440838052442498   T   T   T
  0.3320667174286188  0.3123105117987481  0.4451083833432042   T   T   T
  0.1654898634961057  0.3128233727960083  0.4471181651143989   T   T   T
  0.9996196554118555  0.3749345235867736  0.1022175688270863   F   F   F
  0.3339389444248013  0.4374272239936090  0.1075500232538360   F   F   F
  0.1656692123176882  0.4374660331456823  0.1076535614342404   F   F   F
  0.2496367764464793  0.9999279799998888  0.1827742299965678   F   F   F
  0.0820476334098430  0.4374171254006285  0.1887298800136392   F   F   F
  0.4168193524269412  0.4374154383080295  0.1889763507298241   F   F   F
  0.5003019569685410  0.4999128661071444  0.2748170860127608   T   T   T
  0.3320652783534698  0.4374346922651245  0.2732289156478293   T   T   T
  0.1676150091823918  0.4374442141293698  0.2728873074123129   T   T   T
  0.2492129448493416  0.5000371973512985  0.3596836829201006   T   T   T
  0.0835545670310358  0.4375294169986941  0.3594827324811134   T   T   T
  0.4160682214481057  0.4374841390284225  0.3590742506813809   T   T   T
  0.4973069016247954  0.4996556348284430  0.4446066259933647   T   T   T
  0.3326360881799972  0.4372669142401480  0.4445583197861257   T   T   T
  0.1642275226304787  0.4379000863852766  0.4478351631501701   T   T   T
  0.9996246524628063  0.4999635445867767  0.1022212275957983   F   F   F
  0.3339438256838960  0.5624457813299060  0.1075563970202325   F   F   F
  0.1656734882889026  0.5624869619810369  0.1076523577670159   F   F   F
  0.2496380332605455  0.6248777014917124  0.1827535963680589   F   F   F
  0.0820753910794778  0.5624168821917976  0.1887361965005994   F   F   F
  0.4168249566545654  0.5624128089775482  0.1889653308070223   F   F   F
  0.0001856957483700  0.6249041936316763  0.2747762894994032   T   T   T
  0.3320809233765053  0.5624009823948535  0.2732195765323721   T   T   T
  0.1676964049725064  0.5624266169420250  0.2728711827800262   T   T   T
  0.2492489350997856  0.6249831292545056  0.3596936651939061   T   T   T
  0.0836999684954643  0.5625149141743566  0.3592437901057506   T   T   T
  0.4160930263637175  0.5624111841139030  0.3591812387355908   T   T   T
  0.4965005041238095  0.6249786372584567  0.4441270394591537   T   T   T
  0.3324291825220956  0.5624333329349243  0.4453905162326822   T   T   T
  0.1654109456670728  0.5626277768968674  0.4472560219271784   T   T   T
  0.9996175425524214  0.6249358288969233  0.1022184789678420   F   F   F
  0.3339435537114426  0.6874256191358228  0.1075504356733603   F   F   F
  0.1656688965935942  0.6874633245330557  0.1076544484778310   F   F   F
  0.2496428192825420  0.7499248694537357  0.1827745152021549   F   F   F
  0.0820483011947246  0.6874164370395732  0.1887315368489411   F   F   F
  0.4168235962087010  0.6874178821048602  0.1889761876915443   F   F   F
  0.0002204670712515  0.7499240191592591  0.2747761394027201   T   T   T
  0.3320991797953917  0.6874002313019151  0.2732411219012729   T   T   T
  0.1676954389506341  0.6874074145280007  0.2728654301098674   T   T   T
  0.2492418117641464  0.7500204769274177  0.3597234775965092   T   T   T
  0.0836668573566440  0.6874840277350051  0.3594206014095974   T   T   T
  0.4159127914242824  0.6874218224902510  0.3589822334654710   T   T   T
  0.4957593992967716  0.7497731274694359  0.4438965180129567   T   T   T
  0.3326952491555217  0.6871050512558325  0.4447690075651332   T   T   T
  0.1640955861925541  0.6877182265394818  0.4480190158642988   T   T   T
  0.9996247444640574  0.7499647011854407  0.1022230082490267   F   F   F
  0.3339438339619036  0.8124448417397900  0.1075557633545969   F   F   F
  0.1656741876920407  0.8124866150128511  0.1076519504247102   F   F   F
  0.2496342491082189  0.8748782083517597  0.1827543288382500   F   F   F
  0.0820773763724816  0.8124181279228466  0.1887355922833933   F   F   F
  0.4168238893201348  0.8124134579098339  0.1889644027201030   F   F   F
  0.0002254200106298  0.8749266505042916  0.2747675773272654   T   T   T
  0.3320569888213081  0.8124069867849795  0.2732112708702265   T   T   T
  0.1677006426935592  0.8124089471122394  0.2728445521293177   T   T   T
  0.2493357158188500  0.8749785177192233  0.3596875639383092   T   T   T
  0.0838863103539524  0.8125031088695818  0.3592210831064951   T   T   T
  0.4160117787910622  0.8124218583672723  0.3590907333789693   T   T   T
  0.4958569647909570  0.8751251479951151  0.4441311371360830   T   T   T
  0.3321443004167110  0.8122983849794266  0.4453536254849251   T   T   T
  0.1656467858906381  0.8127047801472422  0.4473757182242339   T   T   T
  0.9996196554118555  0.8749345235867736  0.1022175688270863   F   F   F
  0.3339389444248013  0.9374272239936019  0.1075500232538360   F   F   F
  0.1656692123176882  0.9374660331456752  0.1076535614342404   F   F   F
  0.2496367764464793  0.4999279799998888  0.1827742299965678   F   F   F
  0.0820476334098430  0.9374171254006214  0.1887298800136392   F   F   F
  0.4168193524269412  0.9374154383080224  0.1889763507298241   F   F   F
  0.5001707346125485  0.9999122394103656  0.2747603070669544   T   T   T
  0.3321368908874899  0.9374213926990409  0.2732515923582665   T   T   T
  0.1677322122651044  0.9374366199252281  0.2728334978209043   T   T   T
  0.2494276080306399  0.0000959572404979  0.3596154602856437   T   T   T
  0.0838057346201778  0.9375178656283534  0.3592654377467831   T   T   T
  0.4160011065804691  0.9374767272351777  0.3590035524315564   T   T   T
  0.4955010081754223  0.9997237124511944  0.4445232909073740   T   T   T
  0.3323481380963332  0.9373644995241667  0.4443940969694307   T   T   T
  0.1644660011366575  0.9377931974055674  0.4477334852594981   T   T   T
  0.4996261485864011  0.9999638794554073  0.1022212895025945   F   F   F
  0.8339437371848675  0.0624482785398897  0.1075580759875550   F   F   F
  0.6656689243728380  0.0624780056916450  0.1076592327669417   F   F   F
  0.7496377014008289  0.1248750966894079  0.1827574333080477   F   F   F
  0.5820735458319604  0.0624174442172745  0.1887352315057669   F   F   F
  0.9168252921289621  0.0624138005358219  0.1889639379559043   F   F   F
  0.5001880959799003  0.1248954440505765  0.2747556744245420   T   T   T
  0.8321319353288524  0.0623923955617712  0.2732317431696679   T   T   T
  0.6677452728630303  0.0623772785547666  0.2728426119209300   T   T   T
  0.7495014560679014  0.1246346705298295  0.3597115941629691   T   T   T
  0.5836699410077772  0.0623373968506435  0.3591210169103030   T   T   T
  0.9162011631760727  0.0622920493324103  0.3591618807171283   T   T   T
  0.9942125970131653  0.1244695129190524  0.4449694261157679   T   T   T
  0.8325444226797887  0.0620361026923104  0.4453699717723055   T   T   T
  0.6653553316936621  0.0622050503930467  0.4469271772667134   T   T   T
  0.4996213536236240  0.1249348955726433  0.1022183024833154   F   F   F
  0.8339388961320680  0.1874236234033546  0.1075519903559652   F   F   F
  0.6656669566206190  0.1874574838225769  0.1076541056651124   F   F   F
  0.7496375557706187  0.2499211919418656  0.1827775726101990   F   F   F
  0.5820467926301731  0.1874136002736648  0.1887331258771638   F   F   F
  0.9168211714113710  0.1874148173649246  0.1889752459503455   F   F   F
  0.5002136607773172  0.2499350928717919  0.2747614333934254   T   T   T
  0.8322451412387980  0.1873832607614445  0.2733068131929465   T   T   T
  0.6677117691678858  0.1873932253077123  0.2728620440346033   T   T   T
  0.7493929095498999  0.2497686808931643  0.3597121213318939   T   T   T
  0.5836212174053197  0.1873417290618610  0.3593045783983113   T   T   T
  0.9161929434843782  0.1873060141370674  0.3592240997516982   T   T   T
  0.9940696434838220  0.2495146379979435  0.4449397310598598   T   T   T
  0.8321187970279283  0.1868709853783699  0.4445739984665036   T   T   T
  0.6644088160180494  0.1868729923803694  0.4477795454147205   T   T   T
  0.4996265847195431  0.2499624135589542  0.1022211658925301   F   F   F
  0.8339432913754052  0.3124470264806618  0.1075580597257542   F   F   F
  0.6656786166489255  0.3124812578813660  0.1076589101753385   F   F   F
  0.7496359798815462  0.3748756411498491  0.1827578042801292   F   F   F
  0.5820751330297256  0.3124154754956550  0.1887345581865603   F   F   F
  0.9168256971425777  0.3124110138011744  0.1889624020058491   F   F   F
  0.5002775191193739  0.3749574526969662  0.2747955247175685   T   T   T
  0.8321333811433232  0.3123838838550356  0.2732741634511122   T   T   T
  0.6677218606485555  0.3124057528781909  0.2728866916503124   T   T   T
  0.7490358862364523  0.3747973209686858  0.3597531106591472   T   T   T
  0.5837564008245762  0.3123635032825887  0.3593120118499821   T   T   T
  0.9162567615908590  0.3123121863704142  0.3592435719202008   T   T   T
  0.9935472551813538  0.3748081706596627  0.4450914644893960   T   T   T
  0.8315747958261117  0.3122422926355766  0.4449442897596406   T   T   T
  0.6648995357194066  0.3120194809981409  0.4472362641625858   T   T   T
  0.4996231203952064  0.3749337364865255  0.1022171720136171   F   F   F
  0.8339311317052278  0.4374224703005467  0.1075522038351053   F   F   F
  0.6656706818776428  0.4374574332997483  0.1076540871022118   F   F   F
  0.7496383104150084  0.9999213865668750  0.1827756388646549   F   F   F
  0.5820474546648100  0.4374150382907018  0.1887310280212660   F   F   F
  0.9168210958579976  0.4374163027642837  0.1889749839040178   F   F   F
  0.0001381255974820  0.4999299398210242  0.2747737116909597   T   T   T
  0.8321681546095708  0.4373923089243152  0.2733349708412535   T   T   T
  0.6676811511461795  0.4374147379744279  0.2729686252522216   T   T   T
  0.7488485573452818  0.4999395008501238  0.3598807227184011   T   T   T
  0.5836698169700564  0.4374439499259373  0.3597257548935301   T   T   T
  0.9161249825975039  0.4374018850506923  0.3590853301172725   T   T   T
  0.9944486964940393  0.4994130610843862  0.4445101705961075   T   T   T
  0.8315462817059888  0.4373423618277927  0.4438607497087240   T   T   T
  0.6630650779330340  0.4371519144892319  0.4489344229460978   T   T   T
  0.4996261485864011  0.4999638794554073  0.1022212895025945   F   F   F
  0.8339437371848675  0.5624482785398897  0.1075580759875550   F   F   F
  0.6656689243728380  0.5624780056916450  0.1076592327669417   F   F   F
  0.7496377014008289  0.6248750966894079  0.1827574333080477   F   F   F
  0.5820735458319604  0.5624174442172745  0.1887352315057669   F   F   F
  0.9168252921289621  0.5624138005358219  0.1889639379559043   F   F   F
  0.5002292111009338  0.6248821833078873  0.2748034899788444   T   T   T
  0.8320267511908240  0.5623906893571676  0.2732500736592847   T   T   T
  0.6676724773521859  0.5624031507778253  0.2729274595655005   T   T   T
  0.7491864124640497  0.6249119291831169  0.3597915316906874   T   T   T
  0.5837481528987823  0.5624306898678068  0.3595534805763129   T   T   T
  0.9160561841655909  0.5624210408977711  0.3591479832524678   T   T   T
  0.9944159603402615  0.6247631316727761  0.4443368940553691   T   T   T
  0.8315369642197553  0.5622000752522154  0.4454201523127926   T   T   T
  0.6648661298389719  0.5624082918718788  0.4480050324656097   T   T   T
  0.4996213536236240  0.6249348955726433  0.1022183024833154   F   F   F
  0.8339388961320680  0.6874236234033475  0.1075519903559652   F   F   F
  0.6656669566206190  0.6874574838225698  0.1076541056651124   F   F   F
  0.7496375557706187  0.7499211919418656  0.1827775726101990   F   F   F
  0.5820467926301731  0.6874136002736577  0.1887331258771638   F   F   F
  0.9168211714113710  0.6874148173649175  0.1889752459503455   F   F   F
  0.5001873065219851  0.7498855677934827  0.2747739628790479   T   T   T
  0.8321522759409917  0.6873868206915577  0.2732573653013398   T   T   T
  0.6676878506764192  0.6873889581634841  0.2728751669795056   T   T   T
  0.7493798120607832  0.7500627980494320  0.3597072869967908   T   T   T
  0.5836686052477505  0.6874400083205601  0.3593947368114454   T   T   T
  0.9160439204134192  0.6874265588129881  0.3590389706345378   T   T   T
  0.9962994387636218  0.7493307915219218  0.4441362452727573   T   T   T
  0.8319065451632838  0.6873260034322858  0.4444740386052171   T   T   T
  0.6645170928258434  0.6879082511847010  0.4479692953509830   T   T   T
  0.4996265847195431  0.7499624135589542  0.1022211658925301   F   F   F
  0.8339432913754052  0.8124470264806618  0.1075580597257542   F   F   F
  0.6656786166489255  0.8124812578813660  0.1076589101753385   F   F   F
  0.7496359798815462  0.8748756411498491  0.1827578042801292   F   F   F
  0.5820751330297256  0.8124154754956550  0.1887345581865603   F   F   F
  0.9168256971425777  0.8124110138011744  0.1889624020058491   F   F   F
  0.5001573178688778  0.8749082168265120  0.2747608867251078   T   T   T
  0.8321050560134823  0.8123907629966973  0.2732139025161198   T   T   T
  0.6677434501904513  0.8123994061172067  0.2728476373750560   T   T   T
  0.7494263972882316  0.8748360944527797  0.3597293586025813   T   T   T
  0.5837313721188692  0.8124602402728346  0.3591096841043522   T   T   T
  0.9161434694589281  0.8124848063657777  0.3591191638488374   T   T   T
  0.9961476273376653  0.8746679467762816  0.4439904605909282   T   T   T
  0.8329760781564037  0.8124230636448212  0.4454522247106208   T   T   T
  0.6654823727298314  0.8125674602178051  0.4470447160434725   T   T   T
  0.4996231203952064  0.8749337364865255  0.1022171720136171   F   F   F
  0.8339311317052278  0.9374224703005396  0.1075522038351053   F   F   F
  0.6656706818776428  0.9374574332997412  0.1076540871022118   F   F   F
  0.7496383104150084  0.4999213865668750  0.1827756388646549   F   F   F
  0.5820474546648100  0.9374150382906947  0.1887310280212660   F   F   F
  0.9168210958579976  0.9374163027642766  0.1889749839040178   F   F   F
  0.0002038011917416  0.9999111998331398  0.2747683606574258   T   T   T
  0.8321467335873518  0.9373903452284356  0.2732178716659803   T   T   T
  0.6677194515322455  0.9373866805916095  0.2728298743096511   T   T   T
  0.7494508988981008 -0.0001465177267878  0.3597219372470717   T   T   T
  0.5835800572532552  0.9374204086921758  0.3593167873742812   T   T   T
  0.9160181892485930  0.9373810772575977  0.3590000446085354   T   T   T
  0.9960624865727838  0.9992268183084808  0.4438617161078203   T   T   T
  0.8323100055863786  0.9371976941528610  0.4452885956843322   T   T   T
  0.6643959516384232  0.9374296719250473  0.4479715722216288   T   T   T
  0.4054220745019208  0.9999222115495812  0.1371706404740110   F   F   F
  0.2498130538845231  0.9999469596221715  0.1043552466225179   F   F   F
  0.0938777968594522  0.9999465964224399  0.1371098030237761   F   F   F
  0.1543635830516692  0.1248899271375592  0.2204647086472562   F   F   F
  0.9995670073461937  0.1248966516782701  0.2080976692853085   F   F   F
  0.3446973568903360  0.1248674306196307  0.2206598414842134   F   F   F
  0.4004860941966911  0.1249233619035203  0.3068109057370704   T   T   T
  0.2496238255376297  0.1249766485128485  0.2919529984297839   T   T   T
  0.0994148793976088  0.1250579086939516  0.3071385029083547   T   T   T
  0.1519509973812819  0.1252617357853843  0.3934260211812339   T   T   T
  0.4996384112575940  0.1249218771539674  0.3761784418875877   T   T   T
  0.3478194144745721  0.1247998152642180  0.3924200984039335   T   T   T
  0.3987448548937403  0.1261825809353971  0.4791916573889344   T   T   T
  0.2503370510014889  0.1254020469170748  0.4634939331074523   T   T   T
  0.0947234508147409  0.1250039869489418  0.4721468219534596   T   T   T
  0.4054214644049878  0.1249282036816339  0.1371697875501496   F   F   F
  0.2498118312390858  0.1249501818115135  0.1042602234590362   F   F   F
  0.0938664600244081  0.1249385922007349  0.1371069089706722   F   F   F
  0.1543560911150905  0.2498790211591952  0.2204709660202369   F   F   F
  0.9995706735895027  0.2499094862395950  0.2080999580462830   F   F   F
  0.3447055266517580  0.2498932390428195  0.2206623926809286   F   F   F
  0.4005161954992408  0.2499797602138113  0.3068216261999139   T   T   T
  0.2496030836939740  0.2499698500080244  0.2919854000798558   T   T   T
  0.0993839020560549  0.2499911885130518  0.3072046914028251   T   T   T
  0.1517750994846221  0.2501898347233441  0.3936656900557581   T   T   T
  0.4996557294517952  0.2498279299247357  0.3763488147991595   T   T   T
  0.3477086258468430  0.2503884956808629  0.3924810632859513   T   T   T
  0.3994732589742080  0.2489137930294899  0.4793791167642674   T   T   T
  0.2504333906664132  0.2499511802460944  0.4632638322874633   T   T   T
  0.0943300268679921  0.2514918793518693  0.4728069455282214   T   T   T
  0.4054229972694188  0.2499207711709062  0.1371716336629376   F   F   F
  0.2498138581555835  0.2499451823925298  0.1043557657097551   F   F   F
  0.0938776901322669  0.2499459403779412  0.1371098843944125   F   F   F
  0.1543617400249389  0.3748920346981564  0.2204674382050342   F   F   F
  0.9995672189247742  0.3748993922795947  0.2080981530608312   F   F   F
  0.3446956533108718  0.3748674624887514  0.2206599019871973   F   F   F
  0.4005500083923726  0.3749806135479731  0.3068381148964653   T   T   T
  0.2496026907849211  0.3749608436962404  0.2919742669672547   T   T   T
  0.0993454515086583  0.3749727275763214  0.3072080497682088   T   T   T
  0.1518195554923095  0.3751987645565127  0.3935876097798311   T   T   T
  0.4996689374314082  0.3749102209076762  0.3762589551238008   T   T   T
  0.3475982701020389  0.3748884695137433  0.3924420779888386   T   T   T
  0.4002450299386771  0.3742916081909187  0.4783574247305324   T   T   T
  0.2506570277970130  0.3755924088135418  0.4635805675834188   T   T   T
  0.0943300616063890  0.3747945529312093  0.4720843018709606   T   T   T
  0.4054204481464510  0.3749288137657416  0.1371674470345781   F   F   F
  0.2498106243523637  0.3749504007233213  0.1042578114000037   F   F   F
  0.0938682935435935  0.3749385903486697  0.1371059653233644   F   F   F
  0.1543531827738107  0.9998787448957458  0.2204712064644667   F   F   F
  0.9995677263797802  0.9999081653989563  0.2081008624749074   F   F   F
  0.3447067510723798  0.9998918897834912  0.2206650007889195   F   F   F
  0.4005928007133162  0.4999192862398313  0.3069039240229324   T   T   T
  0.2496362067529173  0.4999352224048686  0.2920332152210339   T   T   T
  0.0994359491566077  0.4999489244193857  0.3071603425083485   T   T   T
  0.1517986374431466  0.5001217429006630  0.3936853465535426   T   T   T
  0.4997219833138655  0.4999129121409674  0.3766102301874958   T   T   T
  0.3478177242194856  0.0003636263641090  0.3925606235688464   T   T   T
  0.4005341428162068  0.4998318241906975  0.4786782037864469   T   T   T
  0.2507604514983878  0.4999562378112080  0.4634129946198453   T   T   T
  0.0951197022220063  0.0011027198829800  0.4726612523512747   T   T   T
  0.4054220745019208  0.4999222115495883  0.1371706404740110   F   F   F
  0.2498130538845231  0.4999469596221715  0.1043552466225179   F   F   F
  0.0938777968594522  0.4999465964224399  0.1371098030237761   F   F   F
  0.1543635830516692  0.6248899271375592  0.2204647086472562   F   F   F
  0.9995670073461937  0.6248966516782701  0.2080976692853085   F   F   F
  0.3446973568903360  0.6248674306196307  0.2206598414842134   F   F   F
  0.4005206295035584  0.6248577653504537  0.3068634813563323   T   T   T
  0.2496488174109560  0.6249197494899890  0.2920421580712972   T   T   T
  0.0994875849324986  0.6249536264653778  0.3071336989426716   T   T   T
  0.1518089561662209  0.6251508259986801  0.3936756649440919   T   T   T
  0.4996475361386339  0.6249950181158166  0.3762966261113848   T   T   T
  0.3477348202293529  0.6247985835024696  0.3925579310934291   T   T   T
  0.4005380551621099  0.6257922105268380  0.4790010962654047   T   T   T
  0.2505932830240197  0.6254458869641177  0.4638146535584031   T   T   T
  0.0942878681772916  0.6244785240044700  0.4724472543499162   T   T   T
  0.4054214644049878  0.6249282036816339  0.1371697875501496   F   F   F
  0.2498118312390858  0.6249501818115135  0.1042602234590362   F   F   F
  0.0938664600244081  0.6249385922007349  0.1371069089706722   F   F   F
  0.1543560911150905  0.7498790211591952  0.2204709660202369   F   F   F
  0.9995706735895027  0.7499094862395950  0.2080999580462830   F   F   F
  0.3447055266517580  0.7498932390428195  0.2206623926809286   F   F   F
  0.4004706625788397  0.7499332272898637  0.3068285122875680   T   T   T
  0.2496315112286484  0.7499224671514900  0.2920513603404082   T   T   T
  0.0995399145273244  0.7499265588570080  0.3071164708809497   T   T   T
  0.1517573570174021  0.7500661131725120  0.3937521214864634   T   T   T
  0.4996526371572786  0.7499307231340999  0.3761379659297378   T   T   T
  0.3476739265507059  0.7501545418010506  0.3926051606718252   T   T   T
  0.3992659452324127  0.7487682394335040  0.4788763943046997   T   T   T
  0.2504406357484104  0.7497556189060600  0.4633785575592826   T   T   T
  0.0949323317449121  0.7514013782570659  0.4734841567229142   T   T   T
  0.4054229972694188  0.7499207711709062  0.1371716336629376   F   F   F
  0.2498138581555835  0.7499451823925369  0.1043557657097551   F   F   F
  0.0938776901322669  0.7499459403779412  0.1371098843944125   F   F   F
  0.1543617400249389  0.8748920346981564  0.2204674382050342   F   F   F
  0.9995672189247742  0.8748993922795947  0.2080981530608312   F   F   F
  0.3446956533108718  0.8748674624887514  0.2206599019871973   F   F   F
  0.4004847835679930  0.8749057178807280  0.3068415499594527   T   T   T
  0.2496508933429366  0.8749315420934514  0.2920204634342478   T   T   T
  0.0995699195982189  0.8749622596956268  0.3070535120616066   T   T   T
  0.1518701015291606  0.8751852048125860  0.3936590923498618   T   T   T
  0.4997094727172882  0.8749871325067764  0.3762600908974434   T   T   T
  0.3478665460268205  0.8746855949548658  0.3924972305512175   T   T   T