Ta  N Co Cu 
 1.0000000000000000
    18.1096310000000003    0.0000000000000000    0.0000000000000000
     0.0000000000000000   23.3552000000000000    0.0000000000000000
     0.0000000000000000    0.0000000000000000   30.4818169999999995
 216 240  24  29
Cartesian
  0.0439922778178200  0.0302774477280000  6.0238130177219595
  6.0904816934642501  1.4873285009440000  6.1929419889827999
  3.0479115645638499  1.4906776366239998  6.1926417430853498
  4.5743205680091901  2.9411450925120004  8.5046698830814904
  1.5435821854263301  1.4865923450400000  8.6724131509415106
  7.6077786549756299  1.4812206490400002  8.6721644193147913
  0.0911200571469800  3.0159422224799997 11.2869504632999007
  6.0978169995007994  1.4904833213599999 11.2479358712670887
  3.1419117774250700  1.4613734000800001 11.1942506855303492
  4.5745101758457594  2.9935733125759998 13.8741702760810615
  1.6262892323959501  1.5058713619839998 13.8491425705968698
  7.6129565606711500  1.5097387495520000 13.8639789853852786
  6.3100290963886900  1.4229601684319999 16.5773685254564995
  3.0511707548549198  1.4549946278560000 16.5337929391459788
  0.0441934758182300  2.9528014392799999  6.0409569060572696
  6.0894720815359999  4.4064078340479993  6.2010800244854600
  3.0408479029922999  4.4102212711039996  6.2053803992278196
  4.5653546707974009  5.8610923048479995  8.5231720411823204
  1.5389794416113700  4.4036407099520005  8.6938753982912100
  7.6044913947565105  4.4010200229600001  8.6839422885854187
  0.1246679674781700  5.9253917395199993 11.2746641573217108
  6.0431405826819100  4.3684724497920007 11.2577796692490697
  3.1632490879582003  4.3540064724640004 11.3084892200102711
  4.5921388150463995  5.9025183572959996 13.9309886877872291
  1.5567947911076201  4.4235057088640000 13.8444840345047595
  7.6525998106043200  4.4100671267839999 13.8272322405372687
  6.2639949576756200  4.2149341972320000 16.5770167652883202
  3.2184407237790400  4.4795971920479998 16.4906398308190809
  0.0384233851890100  5.8744075714719992  6.0617893990677505
  6.0970672607774006  7.3197420215040001  6.2025751576093100
  3.0244726313531700  7.3209324360479995  6.2176862135688893
  4.5548786114565196  8.7690552634079992  8.5335559769615408
  1.5347742041968599  7.3207535352160003  8.7189802227724105
  7.5942953103108897  7.3174102383359996  8.6923412484416005
 18.1089301572803016  8.7659135219040003 11.3253368250843387
  6.0497799355991306  7.3363795653280004 11.1865372617385006
  3.1148150609450100  7.3051501596480000 11.2767177173329998
  4.5106632229847801  8.8196412252960013 14.0750887342911994
  1.6147258708098300  7.4031126118400001 13.8201549722662094
  7.5664542879967298  7.2786338333280005 13.8967124942070708
  6.3293066174918797  7.1379472466719998 16.5740542374940887
  0.0402865040262900  8.7710355508160003  6.0714106797856306
  6.0779425849598496 10.2377372062240006  6.2088702624561503
  3.0375963187462500 10.2371659380319997  6.2198376202127497
  4.5778852677752297  0.0256136478400000  8.4926335280027008
  1.5417125471218900 10.2326712297920004  8.7167401140410803
  7.5851164438385394 10.2326929501279995  8.6896786617266510
  0.0921845412571600  0.1088560181280000 11.2299537329642813
  6.0352618066190500 10.2332441328480002 11.2775367637557888
  3.0340888454141703 10.2250490267199989 11.3061469971919895
  4.6015744760863306  0.0433736425760000 13.8273687990774299
  1.5897780431442299 10.3071488606240003 13.8610557791349791
  7.5067173158911995 10.2898328482399997 13.8972840282758199
  6.1733528136907303 10.1718734402560003 16.6621052333529676
  0.0397229323095700 11.6899845619040015  6.0616043744385601
  6.0790454614877500 13.1484649533599995  6.2018893167268105
  3.0381269309345500 13.1450277685760000  6.2031290122242000
  4.5622622702078397 14.6091005626720012  8.5001262634394710
  1.5432790302033901 13.1547311535200002  8.6907488783215197
  7.5867100913665402 13.1551062380319994  8.6807919927984685
 18.1063283465945304 14.5826188020480014 11.2853565690889699
  5.9789870337680995 13.0941325838399987 11.2690582463572397
  3.1046754785481099 13.1488888502399988 11.3434756399265293
  4.4922209180633104 14.6469070262239995 14.0415486765915904
  1.5511123510924401 13.1659192285280007 13.8210206558690096
  7.5105500381960395 13.1790845547680018 13.9872907375134208
  6.3294495024804700 13.1690359799679992 16.7747989493473284
  0.0441367926732000 14.6122820080160007  6.0397166009235397
  6.0949824800566796 16.0742185019680015  6.1859781130709806
  3.0357127360259399 16.0726357200639995  6.1813360371600501
  4.5765297618948804 17.5380867045120006  8.4736653029199402
  1.5446274733276499 16.0754315710560007  8.6693134549707800
  7.5959508927769104 16.0738730785599984  8.6737192967999590
  0.1000203974945500 17.5654704429600024 11.2661899073775409
  5.9474116244454303 16.0693613210240009 11.2549219989053206
  2.9965135342448903 15.9849551611200003 11.3053413627686794
  4.5869427997198802 17.5540770757440008 13.8684006777593005
  1.5722845017908500 16.1009503967840004 13.9352875384387396
  7.6506325613887904 16.0623307051680015 13.8814596977984390
  5.8127290310242605 16.2334425779679989 16.6188128231223793
  0.0415871377247100 17.5225090196639997  6.0182205187569702
  6.0781363580115499 18.9929267209439985  6.1885733349703598
  3.0625970265343700 18.9969844533919989  6.1807294490017499
  4.5774495500533696 20.4657845735200006  8.4788130721748995
  1.5462560724434800 18.9997436367199981  8.6528023691563902
  7.6023207743848502 18.9956419964959977  8.6608517025715805
  0.1348102663197200 20.4824812060000028 11.2794245026825983
  6.1509993717621905 18.9808112109439975 11.3087175288196011
  3.1447319902606998 18.9947935020800003 11.2930867578801699
  4.6562005481310393 20.4281201095840004 13.8522328172043299
  1.5545189537798498 19.0543658442719988 13.8557623067947588
  7.6600312787814806 19.0431039668319997 13.9378800169745904
  6.0967365789153405 18.9555815225920021 16.4806795922961591
  3.0018949921928502 19.1006670611680001 16.3871010237424990
  0.0449209396955000 20.4635497144319984  6.0123756303472193
  6.0947798332857896 21.9217582513600000  6.1809800095374898
  3.0487190730101399 21.9238377983679982  6.1759273435515700
  4.5546158407107100 11.6903883733120004  8.5170394044200908
  1.5444391331652501 21.9234288488160018  8.6574176210683600
  7.6088014869345102 21.9163650685760025  8.6632789696592898
  0.0633661421579300 11.7582730647359988 11.3118245404264091
  6.1633546675119399 21.9005512626559984 11.2785103529907698
  3.1232782348002397 21.8981351672159974 11.2515632074900900
  4.5120815692847005 11.5837527340479998 13.9782937244076990
  1.5986198893836701 22.0311516726400001 13.8798584879514291
  7.6158095519388906 21.9971453336799989 13.8168062398505889
  6.0336299477696400 21.9003036975359997 16.4008797194810114
  2.9841040906984504 21.8942472270720003 16.5136441532908123
  9.0978733208582199  0.0274180705920000  6.0243302941564503
 15.1447318107844300  1.4900526514720001  6.1895569832049500
 12.1081038140077499  1.4859972545440001  6.1874967171939197
 13.6327065628571500  2.9430688603360000  8.4982818086928003
 10.6045774159087713  1.4805580620160002  8.6685151361835491
 16.6565560418076082  1.4866743217920000  8.6689397478943597
  9.2259417337492611  2.9058177834399999 11.3270389297456191
 15.1430688033697010  1.4347673897920001 11.2946806520910989
 12.3071706730416697  1.4454967686719999 11.3085760931887211
 13.6880747675802397  2.9332468309759996 13.9686270257824887
 10.5879321296714295  1.5114179884320000 13.9736589641328486
 16.6909482231360187  1.5532604640960002 13.8573799768229513
 15.3408797594937703  1.4891207789920000 16.5188617259066994
 12.1345768347961691  1.3881971209919999 16.5363064697758020
  9.0973211582090290  2.9502769757120002  6.0339930301454494
 15.1445795087877197  4.4084096082400004  6.2089638416343398
 12.1045523342723413  4.4017860735200003  6.1978462085199295
 13.6374864188632898  5.8630018260000005  8.5208676158171208
 10.6059990219422708  4.3991831364799996  8.6800311666461507
 16.6532570103283390  4.4041743762720005  8.6961962838375886
  9.1347702452502411  5.8658042164479998 11.3045802317981909
 15.1686339883560901  4.3919005180160005 11.2176265813513094
 12.1057399638733205  4.3061974438560000 11.2780168523735398
 13.6196506054840114  5.8942714026240006 13.9618698165899300
 10.5569246383769197  4.3792870751519999 13.9024607552569304
 16.6153218607910880  4.4827015652319995 13.8718527435345500
 15.2456435643167989  4.3265594414240001 16.6070477562148895
 12.1133789684217401  4.3764996320320000 16.5039878184833775
  9.0968818185609699  5.8681607561279998  6.0480466718733004
 15.1612930683339293  7.3228503650720000  6.2164273145267899
 12.0914788105571311  7.3181267758719999  6.2002442130633195
 13.6290339296903493  8.7772627477919993  8.5226477539299186
 10.6062563597987811  7.3205956540640003  8.6886185041313890
 16.6489168561628809  7.3234326102079992  8.7184211862486301
  9.0509161342530806  8.7213475963680001 11.2816825956859592
 14.9892637072867014  7.4289046934079996 11.3551385927470694
 12.1163203346887585  7.2853178580159996 11.2023561054888194
 13.7454842899096494  8.7087528376640009 14.1222438003720310
 10.5895947748935395  7.2879824527840000 13.7636925881826002
 16.6693403547157502  7.3442072941600003 13.8212626814959911
 15.1470655989314000  7.0346243089760003 16.6836863597889682
  9.0893018514096102  8.7660695346399997  6.0532282759451297
 15.1475509370421992 10.2372390398079993  6.2179398222863300
 12.1038386337146289 10.2354138309279996  6.2015945575564198
 13.6312641307480007  0.0215764679680000  8.4867246277772495
 10.5990248219478609 10.2364314169919997  8.6784171544359996
 16.6458867527039622 10.2376353775519995  8.7106983130935092
  9.1866673769995604  0.0373783627360000 11.2839665982337696
 15.1036454043568718 10.2414679658719994 11.2923298943640606
 12.1091155990917194 10.2628793125760005 11.2326324750422408
 13.6514858880115302  0.1232659429760000 14.0011916653380997
 10.6531307853902497 10.2295325244640001 13.7646664822357501
 16.6628940504649918 10.3574241983519997 13.8762637672726203
 15.3360948327909501 10.2663998754239998 16.7124883238540995
  9.0893547315321310 11.6880453796479991  6.0480338695101601
 15.1456535910023291 13.1477766756160008  6.2048481867029999
 12.1017040515086602 13.1494799703520009  6.1944596786512296
 13.6291277375789299 14.6160442971840006  8.4949480123675105
 10.5961692953317801 13.1550926920159998  8.6740201523337497
 16.6485316643115127 13.1586882250560002  8.6941616225528389
  9.0054319850334803 14.7044121996640005 11.2983073786777588
 15.1226297305341717 13.1298538951359980 11.2688482266381111
 12.1386696114021699 13.1530850790240006 11.1628797139284597
 13.6554864865957413 14.6782146718240014 13.8776381924011485
 10.6729649965503803 13.1261696123359997 13.7478898997952896
 16.5932708497002501 13.2624600496960010 13.8990370375714907
 15.4161249141061507 13.3826276918399998 16.6922048083677907
  9.0893625186734592 14.6111392380799998  6.0378370920873197
 15.1539036145006900 16.0678873743519972  6.1826635202903999
 12.0947820072515295 16.0689563418560013  6.1829701673694197
 13.6274759581354203 17.5339458275519995  8.4767396989825610
 10.5913323939879902 16.0740171801440006  8.6655614481162502
 16.6576321160816292 16.0750845127839987  8.6715937997005490
  9.0968289384384491 17.4805586429759998 11.2586011542172191
 15.0313130027945299 16.0895502565599990 11.2370800769607087
 12.0893467636995009 16.0766766367679992 11.3393843704487889
 13.6280972995750300 17.5676849830239981 13.8694190752652702
 10.5741372993534899 16.1803692872800013 13.9208940244513393
 16.5898430587445702 16.1044041637599982 13.8188201734997804
 15.4862792703481187 16.3763205830399983 16.7374593331586716
  9.0965721438708691 17.5184253629440008  6.0201710502268000
 15.1338586072357213 18.9947612719040002  6.1798552304901895
 12.1161086331023711 18.9943586282559984  6.1846021638515998
 13.6279913582336807 20.4625795394239987  8.4748690298732701
 10.5960014190524117 18.9952197344799991  8.6556932646806697
 16.6587188750379411 18.9981610883680005  8.6550016322529402
  9.1269202635006703 20.4093196406880004 11.2605248616880900
 15.1406087910946603 19.0243387642880002 11.1974784051324807
 12.1284030804919603 18.9774036872640011 11.2151313398116894
 13.6383765072269405 20.4448758307199974 13.8954910877998810
 10.6636702284396296 19.0200285621280010 13.8338431370082304
 16.6808499306978000 19.0282309083680019 13.8534054527043189
 15.3509907286736897 19.1154228765279974 16.6526037461758989
 12.2015471557157191 18.7586493084319983 16.6839085722348983
  9.0956389545854393 20.4628798872960012  6.0185905680153500
 15.1480239606039202 21.9200500520319999  6.1734909319187601
 12.1018357085260302 21.9147818195680024  6.1795513267746998
 13.6252319937582111 11.7013711561119997  8.5102489700469999
 10.6009949687043505 21.9147563623999986  8.6601640327800595
 16.6581763104931788 21.9203931399200016  8.6539984756554702
  9.0162336555397395 11.6601908003679995 11.2933354895068909
 15.1087467063132603 21.9176327888320017 11.2229676053260494
 12.2306203573231205 21.9727080872639995 11.2501808570891395
 13.6665185116083201 11.7609441989600008 14.0327958228400398
 10.6604401946544698 21.9747500323999994 13.9369033795579096
 16.7099604381450604 21.9161200725279990 13.8075995118439092
 15.3745995302231506 21.9437352610080012 16.3861838258689687
 12.1199583784603497 21.7979826979199984 16.5312730073345868
  7.3897845151020602  0.0230198193280000  7.0900258259290094
  4.5700720485765904  0.0275628728320000  6.0931533598517307
  1.7544940108084199  0.0293016674720000  7.0883203682678602
  2.8505412157620102  2.9421213398719996  9.6484674504622987
  0.0439187527159600  2.9455678667359999  9.2540059144833400
  6.3007294386775703  2.9371702710239997  9.6473725435956599
  7.3658912112495907  2.9460959278080003 12.3098857973666895
  4.6453032587731000  2.9426881705760004 11.8077097502003188
  1.9101593281877400  2.9429955250080000 12.1736689583752593
  2.8195755577151100  2.9468930407839999 14.7551377667430295
  0.0207715656606900  2.9475276015679999 14.4367350701788109
  6.3609559141090308  2.8964983579840000 14.8266087878811010
  7.6217147404153707  2.8497006095360002 17.2495508105769702
  4.7171802031157908  2.8662954133440000 16.9352896784885409
  1.8870758870335902  3.1324220785440002 17.2948620315474670
  7.3878156360197398  2.9462423649119995  7.1002942356217993
  4.5674615452679408  2.9523756739840001  6.0930338711290899
  1.7525271237855100  2.9515493670080004  7.1066795666469602
  2.8442658664278899  5.8588144721920008  9.6779442819558099
  0.0394219502423500  5.8603465733120004  9.2975366925228702
  6.2900664879447703  5.8570469506559997  9.6610927142455303
  7.3632430399084603  5.9705020747680004 12.2373049332716501
  4.6396583056940903  5.8550902520000001 11.8593520445617209
  1.9582094310237299  5.8681131115200005 12.2733905275089299
  2.7564517224199601  5.8706599960800006 14.7612768046868297
  0.0814736000022100  5.9725566317120000 14.4062843446321498
  6.3397029944563599  5.7461359084800003 14.9212188611220391
  7.5351235397888701  5.6843798550880003 17.2767424202499882
  4.6276874774104702  5.6772780058720000 17.2210829272261599
  1.5635297628765199  5.9311277766399995 17.0521630612299404
  7.3842982023906094  5.8633654664639998  7.1130703843991796
  4.5649046464670500  5.8680033420799997  6.1385474913644700
  1.7467621038529699  5.8685187913440009  7.1307562394407498
  2.8434896876432303  8.7745126729919996  9.6973730872934389
  0.0380497835014800  8.7790599304320001  9.3023863496075698
  6.2817563404714907  8.7759452809600003  9.6647554093762498
  7.3175658420224003  8.6908162776159994 12.3461350789612592
  4.5597294572161795  8.7187911361759998 11.8319933945315388
  1.8967230685636001  8.7695485252319987 12.2655932787203295
  2.8216750072369403  8.8912875052320004 15.2495369879381908
  0.1389879770951100  8.8670142123200009 14.3203783542355598
  6.3350944555594806  8.7717583942560005 14.9724063667738001
  7.7341882256670704  8.7873286054400008 17.3830358691288609
  5.4927970459258599  8.5018404794400002 17.8365793965444084
  0.7801888002523300  8.9440870729760000 17.1454285815230101
  7.3766343876477203  8.7742536638240001  7.1140967071775707
  4.5603287049059702  8.7698990867840010  6.1535478983283394
  1.7480181878591301  8.7762171354880003  7.1426246397078703
  2.8523139675405997  0.0266625298720000  9.6347680074479900
  0.0461674255972300  0.0248690840640000  9.2321022904234802
  6.3021099358487005  0.0197192624640000  9.6388931117426004
  7.3444542977459601  0.1895139019840000 12.1884431902569901
  4.6454908745502603 23.3321624307200004 11.8418015287876290
  1.8888075299498099 23.3380171122560007 12.2344426906553494
  2.8546430471835098  0.0932341919520000 14.7943559773133995
  0.0617585502140600  0.0932316228800000 14.5262406583449302
  6.4390801378577907 23.3285131807199981 14.8942394048953410
  7.3800438878760906 23.2653667922720011 17.3041111292797787
  4.5840572111163400  0.0133972433760000 17.0880148599308299
  1.7958459044264401 23.3295851843999991 17.2332393806639317
  7.3739950900257805 11.6927904556320001  7.1055681995991398
  4.5588151019469905 11.6919281816480005  6.0685505708965195
  1.7489097249932599 11.6899988085760000  7.1250573589344306
  2.8471070864354804 14.6123460012640010  9.6555374030972807
  0.0452858487601500 14.6158509161280001  9.2543110374715098
  6.2789631109860498 14.6131302688800009  9.6494236650615903
  7.2722933943891901 14.5684548074559981 12.3452879892668292
  4.5976138997866300 14.5139631554719983 11.9377134804326399
  1.8129968115613000 14.5779482291520015 12.1838556767984905
  2.6871267872777898 14.6243561793120005 14.9609223422190496
 18.1079120338254818 14.6986897085599999 14.5269780134981605
  6.2888509695120494 14.5954209549280005 15.0795115464393792
  7.9463673630265399 14.0032444872320010 17.7428471996330721
  5.2293622199470899 14.7454454176479999 17.6639495886011204
  1.5653119316632300 14.6628051444159997 17.4343346334126679
  7.3787724106835801 14.6116978944640010  7.1016671366594801
  4.5610688455249404 14.6135193665119996  6.1339322394525002
  1.7520090072426000 14.6122096068960001  7.1063802352040204
  2.8551200548640501 17.5398434826559999  9.6274304244597495
  0.0484823797279600 17.5393221945919997  9.2281006374877208
  6.2914388357819497 17.5400356959519996  9.6350197872564092
  7.4489483173864395 17.5966433290560005 12.3826553439089597
  4.5945414197911694 17.4951082319199998 11.8187210017734010
  1.8505556429663699 17.5711030165439972 12.3296608761454412
  2.8561635318022698 17.7029466238240012 14.9288466310081205
  0.0814131138346700 17.5715322851200000 14.4014480995469292
  6.4690510338738605 17.6262640285599979 14.9091096545006199
  7.3483895205622600 17.3881073173280001 17.4228030572233976
  4.6291673964557898 17.6275751894880024 17.1403161711757690
  1.4929206738001402 17.6345224272800003 17.2631658189581891
  7.3881144449312393 17.5297533355999988  7.0877299354725700
  4.5665835903570597 17.5263687000160004  6.0549697021503404
  1.7527569350029000 17.5337440386240004  7.0823367875907595
  2.8543931342757101 20.4647403625280013  9.6231593122617110
  0.0482398917688700 20.4610175436480013  9.2247613544353690
  6.2995917916581501 20.4591848611040028  9.6318963154684205
  7.3737880969434499 20.4839427744160005 12.2864650932747406
  4.6551719210902407 20.3365394657920007 11.7968560896211301
  1.8832187167268999 20.4335875619039982 12.3093947352948199
  2.7936938163788403 20.5343227434400006 14.7578509532741986
  0.0334341818485100 20.5232983883839992 14.5975425053986498
  6.4329981993827499 20.4665025123679989 14.8026738555363586
  7.5677835349121301 20.4344449312959995 16.9573356526337875
  4.5325311457062103 20.3393542344959997 16.7652060167192616
  1.8454833164195801 20.4239607820159996 17.1848680900848017
  7.3881204211094706 20.4576039476160005  7.0828891181147995
  4.5702183743950702 20.4652985518080008  6.0588229086373095
  1.7530350989350600 20.4622696159200004  7.0758539147511996
  2.8462055890043003 11.6858217310559986  9.6808537713884597
  0.0418236495055700 11.6971574109280017  9.2725022810389408
  6.2747908330999600 11.6877571764799999  9.6570154664036085
  7.2609194595433300 11.7038166791039995 12.3347991960371299
  4.5671306823095694 11.6740677595520008 11.9457634234841699
  1.8175548245876900 11.6439736501439999 12.3110060041414400
  2.7832054424888799 11.7120496206560016 14.9875351021872394
 18.0857637740161685 11.8307293030080007 14.4130577091877186
  6.1952361295985101 11.7292145248959994 15.0219670578522706
  7.5800122443411899 11.5080884255040008 17.2454537495539988
  5.0935055791481902 11.6256811568479996 17.6563370596235387
  1.2507134139906402 11.8797960091359993 17.1527637259658903
 16.4440246721251917  0.0280549668960000  7.0848588531293393
 13.6253230852021403  0.0239834548800000  6.1010426637276698
 10.8087167825857904  0.0223014133760000  7.0856492466441496
 11.9147315284417807  2.9384499024320001  9.6493962314262891
  9.1080040295359304  2.9399894772159998  9.2479500918999484
 15.3493809635741005  2.9450932890719996  9.6572663317575191
 16.3830395842511400  2.9755269830879998 12.1951537622695412
 13.7102025635065203  3.0863534794400000 11.8975600877167089
 11.0642826117024402  2.8854905851199999 12.3386694723416195
 11.9084800838205798  2.9104867214720000 14.9157357918800795
  9.0711958423358112  2.8901534508000002 14.5404125695227400
 15.4888906791383203  2.9498364966400001 14.8713856625995895
 16.6564535412961483  2.9440523478079998 17.3109786826498819
 13.6756044756736408  2.8209681082880000 17.0276815899063898
 10.8680964516716898  2.8962750822720000 17.0689768314871415
 16.4432037625519598  2.9509832369600000  7.1041056820194797
 13.6259705045103896  2.9490260712000000  6.0680744449149797
 10.8088712577382200  2.9417476566720002  7.0961624253274502
 11.9128414262543085  5.8568780925600006  9.6627439142724185
  9.1042850357137688  5.8593301550080001  9.2583907238587901
 15.3475649297774215  5.8605014182880009  9.6897867726784810
 16.3901090409046084  5.8688642147520005 12.3145184239143486
 13.6105575786626005  5.8270478969120001 11.8367482531653696
 10.9238109125395013  5.8561379662719997 12.2213391671633893
 11.8238081418874614  5.7578889457760001 14.7655345048853892
  9.0945456761619710  5.8521470296959999 14.4695127776352503
 15.5552751534950193  5.7901905886879996 14.9998214081654293
 16.7303100494034496  5.6672448455040003 17.2571819334629204
 13.9594298406768598  5.7181832373599999 17.5544607308461416
 10.7668464102322403  5.9730902980320009 17.2787548298083280
 16.4414125389497485  5.8689284415519998  7.1324717561015092
 13.6236673216398092  5.8679552303680005  6.1381356820168005
 10.8102731242739303  5.8626895669760000  7.1113844351009101
 11.9085202872014015  8.7808540768960004  9.6590854865960800
  9.0972880175842992  8.7784734813600007  9.2501969066310199
 15.3367706842198697  8.7774122210719998  9.6884443534578004
 16.3125128939958088  8.7711373794879997 12.4171174765728196
 13.5890004172091299  8.8830118236639990 11.9985893267996797
 10.8855034289888906  8.7788023225760003 12.1551695436379603
 11.7487962393223597  8.6566602318240005 14.6650999660520895
  9.0709334337826206  8.7908818655680001 14.3743372666889613
 15.7222296526471208  8.8380149946880007 14.9904823890729695
 15.4794671515511606  8.6476958054079986 17.6921452693261188
 13.5055977793128008  7.3001738671840002 15.6046187597166810
 10.8539461292972206  8.8076789254080001 17.1187444941030371
 16.4406135420300323  8.7769245644959994  7.1391664775692192
 13.6243554876178088  8.7714998521920009  6.1374659964973102
 10.8095362433885391  8.7752780228959999  7.1070459580872996
 11.9103969882619296  0.0217586385280000  9.6363061199338098
  9.1073953648380197  0.0201767908320000  9.2433528242600094
 15.3528768467423387  0.0273010610400000  9.6333698065022002
 16.4382560302664515  0.0831150844480000 12.2372259853656207
 13.7251763308025598 23.3362892945600002 11.7802724570822797
 10.9257642173391591  0.0095048657440000 12.3066230236750087
 11.7453474411947205  0.0400842962080000 14.8464155677495295
  9.1456142922930415  0.0012997168800000 14.4807962318341410
 15.5334698900968498  0.0375771154880000 14.7854729662032600
 16.6995993749610321 23.3464906123680009 17.2535296021499782
 13.7829623523604603  0.0090097355040000 16.6647217925242472
 10.9018624019601216  0.0492808733120000 17.2556419920680817
 16.4391318120216106 11.6934240822079989  7.1223481350394700
 13.6230659007943000 11.6914190382880001  6.0842307223794894
 10.8063898760986010 11.6942452510399999  7.0969506851150692
 11.9063096445452299 14.6148450076640000  9.6378061301483804
  9.0923393798172416 14.6134584094399997  9.2480631794410204
 15.3439842935360993 14.6161117937119993  9.6507569397371711
 16.2691256589497009 14.6205611928640007 12.3055067795364703
 13.5052826717333989 14.5901464165599997 11.8597638539093904
 10.7725156302167893 14.6958625616000003 12.3020230126715386
 11.9342803318173498 14.6416490700480004 14.7406610373952205
  9.0847474603094209 14.5329523343839995 14.4851593991195191
 15.3700694060284988 14.8335603833119993 14.9927694398024798
 16.5378329228978096 14.8990595746079997 17.5386165871877111
 13.6154305181720794 13.3336378243200002 17.3128182603058285
 10.7286714891805506 14.5630849798719986 17.1261719984514293
 16.4414809933549293 14.6104413847040018  7.1024209519938903
 13.6237544289649204 14.6123041954560016  6.1085399714369899
 10.8044521455815996 14.6113963788319996  7.0947672725633604
 11.9036201832454207 17.5373540518879985  9.6225073061960806
  9.0969091641037796 17.5357850495520005  9.2353312292982892
 15.3500908611092992 17.5408963350720022  9.6269573466599088
 16.3922025142482113 17.5584127350720003 12.2397169594508597
 13.6637660287926312 17.6089716049280014 11.8064121392506305
 10.8474418742272611 17.6538857564959990 12.3195969994447196
 11.8894618926333102 17.4970095787519995 14.9780765943721406
  9.1894602442923805 17.5128654240320003 14.5725297360047890
 15.4300658891462597 17.6507909589440004 14.8977128079424901
 16.7246652774207512 17.7208539898720012 17.3084767351105171
 13.7935774936674189 17.6512064479520028 17.3559853902685504
 10.6482348466494017 17.4194151964800028 17.3272355501104904
 16.4435342633177086 17.5302218409119988  7.0828635133885198
 13.6246667921746987 17.5242739721280003  6.0741491662249096
 10.8035267434374997 17.5297561382240019  7.0837697378079296
 11.9076378048827696 20.4565826247199993  9.6245626951163885
  9.1047549806382211 20.4552207830079986  9.2333425955572093
 15.3540829481669405 20.4618377782720025  9.6206332840869191
 16.3731591506738496 20.3695770310560000 12.2362746478570497
 13.6139426308891203 20.4537346916320004 11.8660577394835514
 10.9186790053067195 20.4409056802719995 12.3263310424563599
 11.8834281257767298 20.3773734639199979 14.9061648061602501
  9.2106528588738197 20.5124706841119995 14.4825343050394792
 15.4602227710727007 20.4702584956319988 14.8593864953375405
 16.6225104788165403 20.4912422086240014 17.3557863440035405
 13.7892641417558401 20.5360949360159992 17.0923548610352896
 11.0692069825639603 20.4013246886240012 17.4216459674500790
 16.4432359976951403 20.4597073169280002  7.0728438353224492
 13.6247658518562709 20.4608239290400000  6.0475775567096699
 10.8059148604774702 20.4568283214239983  7.0783400117457198
 11.9049843817486494 11.7001060049280010  9.6487378241790900
  9.0923851971836704 11.6974647653599995  9.2416744954159888
 15.3374074188458298 11.7021341704959987  9.6672966784595413
 16.3405190761446910 11.8410803276480010 12.3011039858889912
 13.6294806942871212 11.6764175262240002 11.9326019845399109
 10.8245295690860601 11.6538893338560001 12.2314810773156299
 11.8250705642644718 11.6664523294879992 14.7214803540479693
  9.0730249150668101 11.6402921699679993 14.3559698382192700
 15.4708578329737598 11.8249444535200006 14.9468068224026904
 16.2789954078447003 11.8789335016000006 17.5702838420508414
 13.6628641691688308 10.2754967258240004 15.6973164037590376
 10.7146115338647707 11.8139913318239991 17.1132888584963787
  0.1385232839636500  3.0939343438079998 16.4946295958462095
  0.0340276344563800  5.4961911271519996 16.2814943302006405
 17.4191455404615212  8.8252186806079997 15.9929790552049180
  1.7750004514712701  7.6857798967840001 16.4792524336242217
  0.1950698823759100 23.2777912915680005 16.2478771535040210
  1.6401242660947100 10.2710337806559995 16.3389556034273404
  0.0321054782220400 14.5028467809279995 16.5107209470405110
  2.1186375813560501 13.2226959532800006 16.2904504976715820
  0.1040709786603200 17.7559666646560004 16.3027755155573608
  2.1559646094843199 16.1098202346400008 16.5583570161935967
  0.0100604433094300 20.3549106661120014 16.3157208384190930
 17.8506257897638321 11.8227857323840002 16.3470756546579672
  9.1141683668320201  3.0292696338080001 16.3307331332915879
  9.2076756355374201  5.9300120987359994 16.4036925815537700
  9.2545792176348005  8.7903297486399996 16.2540140577206316
 11.4364471189162806  7.3093706778399996 16.1220299238378182
  9.0272736487899596  0.1946655920000000 16.4063667513591795
 11.5436012622543505 10.3655319560319992 16.1707401722219899
  9.1015935823545515 13.9524957395999998 16.3038807862417769
 11.5296975930541006 13.1160159391359983 16.1014720719985078
  9.0607482151156002 17.3398853687839996 16.4780816270332480
 11.4122680450866287 16.0883199046240009 16.3153303663433178
  9.4165015936209304 20.6394802320959982 16.4371869165278781
  9.1604976925303898 11.4505657356640000 16.1736889831985700
  9.2826833728873908  9.0173756905759994 18.7900789803942203
 10.5773642545013793 10.0560117963359996 20.6853246642768092
  8.1384643683774911 10.4534119683839997 20.7415197228253305
 11.2342208536580994 11.7968635623519997 19.0227223041016202
 12.0356906434911508  8.2005303732000012 20.7549484873046808
  6.2842628944982000 11.4397088373920006 19.2076899322938282
 10.5395176610597208 16.4034887529920006 18.9968926220121581