Ta  N Cu                                
   1.00000000000000     
    18.1096308199999996    0.0000000000000000    0.0000000000000000
     0.0000000000000000   23.3551997799999995    0.0000000000000000
     0.0000000000000000    0.0000000000000000   30.4818170799999990
   Ta   N    Cu
   240   240    29
Direct
  0.0020501844410129  0.0040714756075680  0.1950783245225647
  0.3269271800455382  0.0522960294729927  0.1992165720608317
  0.1690176280307440  0.0574938292586101  0.2029700544906742
  0.2510010628054868  0.1284776965026007  0.2787458405766264
  0.0810862344497227  0.0633516472412420  0.2859629084259964
  0.4179165567461269  0.0630547408159842  0.2808616006413456
  0.9984846846779041  0.1251986482445027  0.3695066729683291
  0.3326925418426176  0.0643897153258040  0.3683678343021981
  0.1645124726786875  0.0603793211999211  0.3695973884465036
  0.2485693303296306  0.1235890272355104  0.4542963987243997
  0.0801436675030950  0.0600671219255492  0.4532350916117021
  0.4216977654217586  0.0604275216239730  0.4507183527123048
  0.0026589644473146  0.1161749168930666  0.5399742729461593
  0.3356674524455237  0.0604956225560463  0.5377843951910827
  0.1611505036019190  0.0629869547475056  0.5436417108387462
  0.9983794465126951  0.1233742813275551  0.1945788675743777
  0.3263297144940396  0.1881273470135177  0.1953189667953922
  0.1708909771677976  0.1882479673748393  0.1970106237999323
  0.2455536500318130  0.2476205958029477  0.2793848804940991
  0.0800115623205159  0.1856725839328527  0.2867052557132017
  0.4123467956744969  0.1883823827438993  0.2813874899838965
  0.9944154873843305  0.2442652958349413  0.3710100069150791
  0.3302979415678320  0.1887072306598883  0.3688752016305847
  0.1653252156964757  0.1859922467027245  0.3697129941188681
  0.2487267545730018  0.2484737862533571  0.4554075872905256
  0.0796230509015263  0.1832417523458252  0.4558670127144360
  0.4177017884456058  0.1849724497002561  0.4517754272809223
  0.9992643382446147  0.2483538977948134  0.5413965982933809
  0.3321130587051968  0.1838495961562072  0.5381838725693860
  0.1577999454508728  0.1865081760004788  0.5427715019576472
  0.0011663197237958  0.2442404783235273  0.1974570579602095
  0.3301909934980338  0.3085370781636845  0.1988874611101820
  0.1712801253577942  0.3011811390533178  0.1978617384499681
  0.2493164728292989  0.3728399023885071  0.2789149263753563
  0.0816258174373974  0.3095991785219549  0.2823666383494445
  0.4118897798586748  0.3115532143015188  0.2827458161757498
  0.9968704984850589  0.3704002316687648  0.3674465847796632
  0.3279654670139874  0.3114614172739164  0.3686846871102521
  0.1664949682597769  0.3075718185577531  0.3680706265162990
  0.2510428824732721  0.3766830086174732  0.4529500224351881
  0.0786339191702406  0.3112696141547435  0.4572559527305098
  0.4177328982853613  0.3136996624526965  0.4555834315142256
  0.9975546151445963  0.3730970454703214  0.5416839952310867
  0.3325968367604692  0.3060920048211391  0.5413578655625894
  0.1628924663450548  0.3072419896040370  0.5404919125773301
  0.0002479527264403  0.3709471242064534  0.1952666030133512
  0.3338044841364707  0.4407535216140094  0.2002632793183833
  0.1759519752542251  0.4434772716185895  0.2033450227913488
  0.2464014854080796  0.0006352891151782  0.2820723376792565
  0.0805076034644044  0.4323715582706650  0.2820723480752887
  0.4187913212742830  0.4402584195458870  0.2852963405939890
  0.9946084471136557  0.0020453745453936  0.3676134238865743
  0.3317904847470757  0.4371243578032369  0.3675423298856876
  0.1648259233171157  0.4346199207495275  0.3681682926358807
  0.2478809845121619  0.9974455365977285  0.4540049150389456
  0.0827888014510880  0.4373419841856404  0.4512048806810589
  0.4210650522247122  0.4387361454724506  0.4551813005019050
  0.9953278777498410  0.9988401940955737  0.5392246618480054
  0.3263483338373354  0.4351121332832845  0.5425055139291215
  0.1613585449898260  0.4301890023788197  0.5436372949521858
  0.9958497438522855  0.4959625765911566  0.1944380453823450
  0.3306126570253250  0.5592910885125654  0.2030409491757093
  0.1697848185869695  0.5592784859772698  0.1982326844803357
  0.2476676454285377  0.6280998157645370  0.2777920863271264
  0.0796992107467777  0.5598723600445873  0.2811346120296451
  0.4165042873006671  0.5611833663675371  0.2834808116110172
  0.0023082781289640  0.6245389349721919  0.3671915272211873
  0.3296954036364489  0.5636212721869972  0.3680203332157603
  0.1719680632812864  0.5577248431836809  0.3703266608294407
  0.2517261815526298  0.6251146084723519  0.4518123491737774
  0.0793864194566245  0.5607933247462303  0.4559138785108711
  0.4211975828795108  0.5615712386940559  0.4533232191774729
  0.0011805942378148  0.6213586751574908  0.5387747267644586
  0.3247463196774333  0.5591009612346856  0.5393751383001016
  0.1588447755056876  0.5582737164270621  0.5432258191778049
  0.0031999613859585  0.6260685287148464  0.1918229184379642
  0.3322715997214439  0.6897197169477406  0.2013725933024722
  0.1720222652768602  0.6945372777625441  0.2039011379085499
  0.2481709607840246  0.7552806438236082  0.2798223420475177
  0.0807845280972761  0.6867277756223263  0.2813702807928533
  0.4154036706819543  0.6872324228344485  0.2816575392286185
  0.0043736283380623  0.7473878291604846  0.3678265598578755
  0.3321897194730382  0.6870419278728714  0.3666533032304169
  0.1666245619624707  0.6846803748301308  0.3692035843787969
  0.2499709062948693  0.7507205267935876  0.4548800495098381
  0.0868781111065576  0.6853999095162824  0.4548942047134231
  0.4206060697201825  0.6869320084904510  0.4483579642321693
  0.9982853106998053  0.7531115751834919  0.5373469135471532
  0.3349886933208699  0.6869701723531200  0.5400872719907353
  0.1606450797057516  0.6820791283980608  0.5461691222959543
  0.9984835273943573  0.7586797984156007  0.1928457694264274
  0.3274619018904419  0.8080645932574051  0.2013510416171674
  0.1702987231851712  0.8087468111327381  0.2021980245039605
  0.2476972907249462  0.8803791237429867  0.2785438275848347
  0.0772456601854843  0.8148797707802428  0.2806665753712710
  0.4215140001089320  0.8162962358655204  0.2809193642535996
  0.9961501934481004  0.8740082169643427  0.3703584225087149
  0.3382407961542136  0.8102827793579487  0.3662052568374188
  0.1682939476399229  0.8120856392555628  0.3655924713382334
  0.2422041829384289  0.8734736830070567  0.4568159938946403
  0.0775140831927177  0.8157584734698081  0.4547525153221504
  0.4152216880184782  0.8113215164184819  0.4536450550715607
  0.0034623148667421  0.8747894216002076  0.5405119331273073
  0.3338072849755486  0.8181988065985923  0.5411538757823710
  0.1665298297609948  0.8077139006689551  0.5385741698476533
  0.9990896481384538  0.8787792100748107  0.1951999371932029
  0.3265306756007855  0.9319396958537426  0.1982955965979828
  0.1673368178900372  0.9433662799494559  0.2030947937642563
  0.2492836698590457  0.4943950133144037  0.2794019335108245
  0.0793532578217486  0.9393419897635608  0.2840179503129121
  0.4165315314259759  0.9360466488096363  0.2827487987270673
  0.0059168842096234  0.5067522129598401  0.3644560677277479
  0.3306803069468028  0.9370211604051462  0.3674452289100326
  0.1659891863941790  0.9348616450832937  0.3683795638660342
  0.2516080553095964  0.4991966129525652  0.4544022913536352
  0.0790293212964188  0.9366984103140833  0.4522857589490142
  0.4173574029971718  0.9356103234930707  0.4555919394629105
  0.0028947809687897  0.4985818107928837  0.5423958598818168
  0.3352230259337808  0.9372108297403722  0.5440396277651702
  0.1632110814335257  0.9346794857002733  0.5421088776851679
  0.4974528320604902  0.9913732282582470  0.1956159469661090
  0.8273738942221144  0.0627371955301801  0.2027027067828040
  0.6689816648659804  0.0617418989517205  0.2038267040274502
  0.7403512441601939  0.1253981142249178  0.2795078708450724
  0.5754617069948436  0.0603527514876026  0.2829028550892733
  0.9170521662808886  0.0594075919714036  0.2835642111455574
  0.4999782169368417  0.1248079798270979  0.3675005786918149
  0.8299645770157391  0.0624273467927231  0.3616151005794757
  0.6628230930096559  0.0607991868638303  0.3666870777483616
  0.7489628571017486  0.1226948227917130  0.4529275185377529
  0.5806107220181747  0.0627923546357168  0.4540565724642548
  0.9124270649046764  0.0594853668849450  0.4528975250990388
  0.5010228597829901  0.1212022208738271  0.5422036066108937
  0.8354337731737284  0.0644310606679788  0.5418946034308288
  0.6657252982013830  0.0629830891883347  0.5392339943142316
  0.5003594711630756  0.1245426890988100  0.1916029770891415
  0.8272745417011892  0.1776957114971975  0.2030222635594610
  0.6714071337050822  0.1824336686673995  0.2012369657016608
  0.7444420589745063  0.2519875861292663  0.2797891955624869
  0.5781632364428461  0.1882608970104760  0.2838490873359243
  0.9173665100004934  0.1821267942568750  0.2824240565741724
  0.4980325244531210  0.2456116019976384  0.3698557658621017
  0.8265959395139161  0.1856622207760962  0.3656466052904725
  0.6662798050810379  0.1860960907435367  0.3694277889735814
  0.7475965536709513  0.2467031227684364  0.4511535734040267
  0.5791437207127975  0.1844605852896298  0.4554634780544475
  0.9115570078983593  0.1869309721346364  0.4515921981322759
  0.4978830805657759  0.2468002940342167  0.5393690210812410
  0.8344014116282537  0.1862760893225930  0.5403876034833883
  0.6581019555345488  0.1827703749410403  0.5423994619741630
  0.5068566303662931  0.2558779037723030  0.1959728658228034
  0.8327043691959597  0.3085841491510168  0.1956813511120641
  0.6621751632901370  0.3070814862574198  0.2042705199340206
  0.7440046088080210  0.3770038694044392  0.2831758714319941
  0.5788384879211605  0.3097783416379732  0.2881759265647366
  0.9217330990427530  0.3102863815147588  0.2821173670587998
  0.4959197544565014  0.3712506525785646  0.3723596302683405
  0.8312047131231004  0.3112797370952070  0.3672018200790663
  0.6711501138035016  0.3124157038720494  0.3711859608006656
  0.7499512734923228  0.3724402914095762  0.4575331428547817
  0.5878194666684151  0.3100062943634128  0.4525337716471328
  0.9111700549532293  0.3132428914096806  0.4526935642401185
  0.5018449025520195  0.3709446925930763  0.5426338959198503
  0.8329991674811585  0.3089152363234882  0.5407912085086801
  0.6636404649159204  0.3090491989949716  0.5379892369087469
  0.4977742015241318  0.3761724228676280  0.1969940186876256
  0.8231429775234517  0.4255736995743060  0.2084163011144636
  0.6655280083108014  0.4283849396102893  0.2014232048363099
  0.7454200403964064  0.0025014236562376  0.2757853117176913
  0.5790457572655192  0.4349262902379885  0.2867188071740666
  0.9143101537626420  0.4370602099431049  0.2825239529741064
  0.4966538281020052  0.0021973073237588  0.3700797581417879
  0.8377689582284822  0.4365293005173193  0.3698773616195959
  0.6666867871558680  0.4376424052238502  0.3734290272874490
  0.7501666570483907  0.0021616707855201  0.4516498186949585
  0.5826491924860447  0.4367032022631664  0.4558796797742721
  0.9190692557853191  0.4384850349491404  0.4534811546925221
  0.4970473829246826  0.9987940996643622  0.5384013363332457
  0.8356160826715033  0.4394576081276313  0.5380558374770050
  0.6643167414154180  0.4334625689422119  0.5383401914844882
  0.4998953289049862  0.4943394044366580  0.2014961488224600
  0.8235816778241432  0.5630341173557004  0.2043447159368644
  0.6618885914175708  0.5603572473108336  0.2070789664630910
  0.7445656154152137  0.6227207622214685  0.2794400466167893
  0.5815327125902641  0.5622985094505933  0.2863409092020136
  0.9115229135725259  0.5627500586147359  0.2803310926822992
  0.5017993513212434  0.6311414951619095  0.3672165126800898
  0.8357437509579840  0.5611473526086301  0.3695574171093640
  0.6652358769599666  0.5610013174885290  0.3705276225054432
  0.7596331768993300  0.6246215561568336  0.4574270758421162
  0.5826918962804188  0.5636398553786659  0.4549263200901814
  0.9196490520861377  0.5615003938031560  0.4548836310522485
  0.5029267934937091  0.6239980559976355  0.5395391550828370
  0.8340430057616244  0.5655078885652630  0.5411644699677527
  0.6683557606806717  0.5647503668606948  0.5398574989161099
  0.5006009872245759  0.6241968720093075  0.1978554217296289
  0.8391680335604574  0.6855069430400111  0.2014461918845568
  0.6699796228110700  0.6861293643857879  0.2055948603783234
  0.7469433479497429  0.7405344147192441  0.2785743456151874
  0.5810338350560103  0.6892952134936193  0.2809041919858099
  0.9146615864491029  0.6855962006236367  0.2809842290852132
  0.5007601320522880  0.7470461793218693  0.3694641632529829
  0.8357371974610800  0.6830216072951520  0.3715426075370950
  0.6682507522848827  0.6857614899898268  0.3692916318171921
  0.7507646162379142  0.7501886478783170  0.4542853701759553
  0.5876150592193675  0.6870445644595915  0.4532355271206981
  0.9135385278318636  0.6863581777054355  0.4515073145607529
  0.5067468915868888  0.7461895259701846  0.5352192311696574
  0.8354058596085840  0.6892036491513397  0.5377643873320693
  0.6688020296161371  0.6868285940585330  0.5377387426734094
  0.4973321777588064  0.7439573736675309  0.1970995515833155
  0.8305972887174530  0.8122868583762997  0.1992131657210491
  0.6710430177624100  0.8099569665868050  0.1987922161842386
  0.7472261063057891  0.8715203345176977  0.2797059274397827
  0.5890378416460651  0.8123989771838143  0.2839050378422072
  0.9121873057034422  0.8100492537215079  0.2840236946773749
  0.5013709534216372  0.8771267382663883  0.3662755590558476
  0.8315252402252863  0.8100446173079773  0.3672256482727994
  0.6709859006511290  0.8111432011018236  0.3671146267682703
  0.7513474847950520  0.8787616831145759  0.4557707309198349
  0.5846449171686477  0.8115318821041598  0.4528881432377233
  0.9130235059962840  0.8098054924797023  0.4500228358731199
  0.4972587908021063  0.8740964638362800  0.5421631369742426
  0.8315299106463722  0.8159597604859256  0.5414243504238809
  0.6699748017572884  0.8112581998739059  0.5407033287729042
  0.4975264950731139  0.8699944581240646  0.1985599857152818
  0.8250345223157257  0.9317762162540777  0.2004254323555534
  0.6640612939268624  0.9311237284592760  0.1966459513060832
  0.7425263636702413  0.5002440196578807  0.2826693925896427
  0.5794470578915272  0.9408690422707435  0.2820929295376839
  0.9141357167966765  0.9394399289239691  0.2842156786791811
  0.5031966088937120  0.5016729179440910  0.3735875467676508
  0.8306466129231362  0.9403677065067351  0.3642773066131417
  0.6631507371986164  0.9373154985521237  0.3702882065744448
  0.7565587848036712  0.4998651483810560  0.4566747385222136
  0.5811731213560962  0.9364119053121592  0.4548090005040091
  0.9136332076560535  0.9394579557275903  0.4540695108984528
  0.4961438597926452  0.5010538741260590  0.5437552298760221
  0.8318423612963607  0.9430482421445401  0.5473160164835086
  0.6596560087997546  0.9399786532943681  0.5387424375319395
  0.4020230139463995  0.9987494784152998  0.2322265808722944
  0.2465444375888761  0.9967759056333177  0.1762219960274939
  0.0914192617637899  0.9981303604525722  0.2329836893874890
  0.1538541577050802  0.1236784723981120  0.3151566579738981
  0.9994253515098478  0.1234006864330286  0.3017742969076442
  0.3441265395506383  0.1233290735454266  0.3155254258802313
  0.3970439371774748  0.1252540414439775  0.4008347025781586
  0.2474764902307855  0.1224351889411940  0.3865192991917764
  0.0966077677259481  0.1269345622437018  0.4029299116465896
  0.1449939415680134  0.1203814125539702  0.4862877851457714
  0.9946906688988724  0.1227006138281738  0.4716123598731104
  0.3504529316928162  0.1223060193903222  0.4830298574194713
  0.4022138523302397  0.1215037754544143  0.5699793687337650
  0.2517809634043656  0.1224772348733437  0.5527911118918617
  0.0989277175204007  0.1262698414686770  0.5766610341713785
  0.3999235303469070  0.1207084855926766  0.2273412107698329
  0.2493217061184861  0.1232945180545377  0.2028270212782236
  0.0915491050542508  0.1262812588205405  0.2323597110313376
  0.1522526101175203  0.2467023938696508  0.3190460084810326
  0.9999248683031221  0.2457580919485310  0.3038727135811758
  0.3408061478437304  0.2480477688546727  0.3144488005116538
  0.3994586000383737  0.2483031472718179  0.4043936487417946
  0.2463585805940103  0.2478278792577756  0.3888020729539965
  0.0904472024944766  0.2464229948270449  0.4047104251747137
  0.1439815015660225  0.2500457639204862  0.4876065928079665
  0.9945694157938055  0.2453156429730003  0.4730466797397281
  0.3442250348266467  0.2470365568102130  0.4844752861230009
  0.3998218571929402  0.2464144028202104  0.5725610674524089
  0.2451479033880139  0.2523108428111991  0.5586285772621832
  0.0982321878148738  0.2493294358828030  0.5730609936805002
  0.4022947566616500  0.2490507871471484  0.2264447246073430
  0.2496806197587316  0.2477205012369733  0.1679856385344375
  0.0973512672184682  0.2444499944086771  0.2332863876017635
  0.1508319412906988  0.3698525560677495  0.3166685474783184
  0.9950331762307747  0.3752269494585712  0.3002273437974304
  0.3424486110544538  0.3733989684468246  0.3164431285250099
  0.3952313181144831  0.3774852752938216  0.4025623036089395
  0.2457001519209777  0.3726373066467660  0.3862175486251903
  0.0992441373340236  0.3719737494486646  0.4037008039706353
  0.1513944498613234  0.3712204228682043  0.4847037294507869
  0.0010003032134169  0.3738478802815863  0.4739497438084970
  0.3463811475852007  0.3703169310331219  0.4879656685330808
  0.3971619819165498  0.3677345681271270  0.5743934577144346
  0.2465891028284572  0.3719757318085757  0.5585881934873618
  0.0925107686938805  0.3705002092018653  0.5714684760618329
  0.4024290561710771  0.3770393268195503  0.2332470150509525
  0.2483411724185837  0.3735039259452813  0.2047110157975734
  0.0886112220367231  0.3700221493976851  0.2312146903431672
  0.1535383121347324  0.9952118327764496  0.3166167207913413
  0.9982326321958848  0.0010516251657722  0.3001677203587965
  0.3476806551200980  0.9966242189463876  0.3165809906964033
  0.3991510287376848  0.9989698293809153  0.4008211964689750
  0.2494314870902373  0.9991576763158180  0.3858190579469977
  0.0973954608442687  0.9993252923706133  0.4026285427700269
  0.1500435258486735  0.9956254107551705  0.4855691605683777
  0.9955468404054967  0.0000515134935888  0.4703121008298572
  0.3479016066590940  0.0001957629697519  0.4843469989453473
  0.4060444281658984  0.0057023388485771  0.5723083349708441
  0.2491100895422294  0.9992646092804524  0.5548090024316874
  0.0912771348841476  0.9983994852567918  0.5673915265237662
  0.3985513327690697  0.4977348846442450  0.2367557851237918
  0.2531337038626035  0.5000592815737320  0.1737370747228120
  0.0908697799135885  0.4989945846134312  0.2302022756632344
  0.1527671716044990  0.6242478642057636  0.3146983866238735
  0.9991463040465449  0.6226264617121492  0.2995983130515661
  0.3445794996650196  0.6243407415519816  0.3142117050915857
  0.4038291689849151  0.6217355338536609  0.3974341068865835
  0.2523048799082233  0.6225320487733933  0.3854749877665142
  0.0993773143214976  0.6240262456844201  0.3982418740550247
  0.1545444524264060  0.6254526972761135  0.4880175537652071
  0.9978308932577189  0.6249759561164137  0.4721974049147953
  0.3468532266715239  0.6227897541052433  0.4858914863501803
  0.4009129462152467  0.6302330347804660  0.5692735253341111
  0.2502321748134697  0.6233139793928678  0.5610566093542608
  0.0949543891439690  0.6207533021019125  0.5748796083624768
  0.4059657301490530  0.6246954390674281  0.2290727261021412
  0.2454446301472910  0.6250854401582538  0.2101259797234478
  0.0976474976373502  0.6233529088266324  0.2293889468700391
  0.1505536369661949  0.7482964264221280  0.3150795255009413
  0.9963795410695727  0.7483073059266869  0.3003081828496381
  0.3461421830091069  0.7513789679506289  0.3152479946547664
  0.4010979525578572  0.7499367490296952  0.4003196850547125
  0.2500355967136524  0.7444376487825178  0.3849925520919460
  0.0977093070937159  0.7495707114908048  0.4014303375741403
  0.1485553890774641  0.7515230864008230  0.4860414044515259
  0.0021265408985164  0.7507417072990186  0.4711298752843699
  0.3438236982267397  0.7468005441019036  0.4843956550673478
  0.4032704327895764  0.7513658140043338  0.5647489785588473
  0.2453057165080181  0.7475529951296732  0.5537271250644326
  0.0932903259273945  0.7537602351882157  0.5681211791798533
  0.4053673518438710  0.7500556572885853  0.2311731877667603
  0.2529488625940744  0.7499648917060554  0.1761836404245265
  0.0920303187986481  0.7525987759190091  0.2293903470780080
  0.1496166020751695  0.8767416880277218  0.3134822987938282
  0.9994304681203378  0.8770360578965245  0.3041212532506075
  0.3442078654988595  0.8767014120364494  0.3148034339536956
  0.4023367993170324  0.8739911821755467  0.4006257344501049
  0.2537371070095563  0.8724542095521280  0.3863807665776645
  0.0967740169483840  0.8736537636732213  0.4026706868364261
  0.1424096704395583  0.8769236379969817  0.4859960742799159
  0.9924649126258239  0.8750955383762488  0.4719515064768884
  0.3474373629259871  0.8767278317013947  0.4879662649005315
  0.3999145766529815  0.8742175389797735  0.5735289036938813
  0.2474824473969639  0.8719372138364602  0.5573071682185785
  0.1001897359978886  0.8733835484611335  0.5707570350485860
  0.3994148247826586  0.8731307155731646  0.2322189281771918
  0.2483484010571434  0.8736796210980903  0.2092115087755543
  0.0885812716136147  0.8760982751532441  0.2312960196447867
  0.1565940255189383  0.4993082348684006  0.3173580756159197
  0.9979721438024268  0.4974436868122514  0.2978944308315307
  0.3393618231149087  0.4991181369652321  0.3167248468183479
  0.3986876343585606  0.4971913357659669  0.4034995431721881
  0.2529535239334377  0.4975229522056745  0.3862013139699867
  0.0999779502273832  0.5011872075527218  0.4022919174638116
  0.1492859571333649  0.4958679538404883  0.4884487413333266
  0.9998378152241961  0.4975102824230316  0.4702368781044315
  0.3490590707533899  0.4993523465364399  0.4860311975664113
  0.3959143148720601  0.4982393984899304  0.5722246815646199
  0.2418194245388893  0.4978117544811773  0.5576840100042103
  0.0967160615169697  0.4962698102550186  0.5750997838088235
  0.9032788210731243  0.9990863513667132  0.2276323088137633
  0.7463525763344652  0.9969802510607445  0.2066139042614973
  0.5879394916982952  0.0014128786481293  0.2309167842419844
  0.6471317631254765  0.1228483998284599  0.3164104010575490
  0.4912956055819537  0.1255623819257984  0.3006207691853098
  0.8480705044663469  0.1262919958719542  0.3137272400017080
  0.8983800466616899  0.1246199405599616  0.3992717094195415
  0.7427498163830173  0.1205009826909266  0.3847216932097487
  0.5990155569954083  0.1272150320427208  0.4012761267607118
  0.6516125499082651  0.1205901695297069  0.4870433399664771
  0.4952254049681704  0.1241756295791219  0.4745288703046553
  0.8479871743675088  0.1235199931976353  0.4836556151670133
  0.9020547344925205  0.1277613747065570  0.5678574665180273
  0.7486672898469063  0.1268123577903868  0.5568108790715658
  0.5976104495707142  0.1243171400817018  0.5748364977628790
  0.9067763052324143  0.1209825268841958  0.2325853444317391
  0.7451795825248115  0.1236532503232572  0.1774781367764861
  0.5897956358679575  0.1249016101758003  0.2316210400831624
  0.6470526422878792  0.2475732148242500  0.3156098884848631
  0.4962676423911263  0.2496119517129424  0.3040682729451561
  0.8477796327826820  0.2483464492951692  0.3130733729388112
  0.8936101100085551  0.2494898453316915  0.3998449455616620
  0.7486856067868467  0.2488156667548498  0.3851058585423341
  0.6003887115067912  0.2474431072016668  0.4029630017189983
  0.6485446066052897  0.2434234094382429  0.4888419283592257
  0.4934638935956875  0.2477407687252400  0.4741427349927894
  0.8445306556762400  0.2481771773424038  0.4879383227895767
  0.9037758462327889  0.2494228162340317  0.5716722396452791
  0.7451502403395811  0.2454813918990351  0.5611602330259688
  0.5961410247436700  0.2466043093881027  0.5700436321797453
  0.9062974261651993  0.2454174521193671  0.2318536392312117
  0.7504377144268976  0.2460924215061714  0.2064796563995807
  0.5917327558615633  0.2459481631243397  0.2342572620119001
  0.6530990946844456  0.3757250659745111  0.3224011561392127
  0.4923152577831469  0.3729417756416491  0.3060818138444898
  0.8422436565284220  0.3758813115011551  0.3153728489816505
  0.9067090578111903  0.3752667268604380  0.4015029143580919
  0.7548225828307807  0.3744457790137674  0.3888023464383232
  0.5945481683261126  0.3789016387309397  0.4038261802695485
  0.6499235726658276  0.3717053224864302  0.4870844007064996
  0.5012095236550695  0.3777274348133832  0.4754324521510646
  0.8492832519628903  0.3726919737356541  0.4893882324107078
  0.9013951544818128  0.3755028381822433  0.5704949685263505
  0.7462270603399779  0.3741079424223352  0.5498760048449395
  0.5981595763127014  0.3694136229015874  0.5713252228894375
  0.9049752976434320  0.3666737212882170  0.2318361128481055
  0.7439632927039195  0.3690112570415558  0.1799113134580970
  0.5942487166177161  0.3735650058235806  0.2368189813300166
  0.6466992849986472  0.9999286651584941  0.3146824993261946
  0.4935448754670147  0.0015966953846370  0.3021610240069265
  0.8405406935556458  0.9998073882761506  0.3132284827647058
  0.8907468573803835  0.0039939156176629  0.4003655909741003
  0.7459687196561730  0.0010501190566566  0.3842135869429369
  0.5968322987028315  0.9998247831028806  0.4017794453586520
  0.6506142479875209  0.0029246947384495  0.4860158083534852
  0.5001295764619805  0.9968347125328388  0.4710339745670727
  0.8465072391349155  0.9966265417808708  0.4899451791229323
  0.9039869873947494  0.0043360395980386  0.5749358395863461
  0.7469509614375334  0.0013081976160674  0.5591862803979608
  0.5943045032683228  0.9987526853795117  0.5651854740357133
  0.9015527676440670  0.5004391904838517  0.2301787134210991
  0.7452459465277067  0.4931355718228160  0.2027177057254696
  0.5942727143528361  0.4966975619337367  0.2345068169556964
  0.6514191108224012  0.6230343446380465  0.3182038743330217
  0.4970900200313341  0.6248149015490678  0.2968170586920638
  0.8440790210753704  0.6223250565710108  0.3190503916152620
  0.9056560512044556  0.6221547567473811  0.4025314387808724
  0.7499297318184033  0.6227245956002579  0.3889295062884572
  0.5990535386086148  0.6247014567770964  0.4018143379268651
  0.6556957191105149  0.6233535644205118  0.4862612473926606
  0.5027107406654354  0.6255230096024721  0.4717050180908753
  0.8518666821959665  0.6290456823140437  0.4872007081401229
  0.9008388235956313  0.6316946825484627  0.5680667530793867
  0.7514109751901532  0.6269436532436726  0.5577716899646968
  0.6026367477769347  0.6264838002145983  0.5710714875210701
  0.9114974280484114  0.6233818633289212  0.2272498196647064
  0.7482884519222495  0.6225038016994763  0.1960114094206663
  0.5939973223287367  0.6230526862933259  0.2339261089444278
  0.6542930742420684  0.7501775452297876  0.3137691720434119
  0.5004054350063725  0.7514791965453176  0.3019553515481180
  0.8461247298607667  0.7434416717131116  0.3145086005227287
  0.9006704477039100  0.7461217396975222  0.3998068794020893
  0.7486262936113750  0.7461787230502840  0.3866103864771565
  0.5994957757759496  0.7481089298686261  0.4017061849689390
  0.6514490163328502  0.7472670512529153  0.4849191736294926
  0.5014864811555245  0.7498890751112254  0.4675575079471798
  0.8483279733123993  0.7517049399910009  0.4852623298095350
  0.8991884206372819  0.7533499688239733  0.5640027311384156
  0.7499303819318734  0.7519291479052910  0.5508891176284053
  0.6010067916858972  0.7495068936014523  0.5688966274291115
  0.9089858752511475  0.7524816880418216  0.2293020212874736
  0.7517504822539661  0.7487545078824734  0.2067777813370292
  0.5915187706229137  0.7520352667289155  0.2301302366612128
  0.6507382772565918  0.8756386194592376  0.3190128633305803
  0.5015539523408742  0.8751954891004199  0.2981438260029700
  0.8437389177229199  0.8741472374759713  0.3136454973371396
  0.8953839622392242  0.8765437383604746  0.4034136347654693
  0.7499070797702752  0.8770765096369361  0.3856052537457881
  0.5977970433975205  0.8701776170580530  0.4021326375779034
  0.6475534577578261  0.8767130979930967  0.4885318708250481
  0.4968668295810173  0.8721120980771350  0.4735578389096689
  0.8426762636191311  0.8767164744340781  0.4891879480794571
  0.9077884085124407  0.8752231745645732  0.5689566392542751
  0.7484825960247291  0.8781005173894794  0.5592753484094813
  0.5976177143199529  0.8774999474582652  0.5675400736466433
  0.9048157886475611  0.8755844065271242  0.2346522624072153
  0.7421008393778561  0.8735409181714922  0.1732258961929259
  0.5962044010980841  0.8721342915919308  0.2330671642520057
  0.6482699713573864  0.4973716931549026  0.3193069458779115
  0.4988546679361871  0.4984464214171985  0.3069456582868467
  0.8475318272602466  0.4998822978122959  0.3135558585765663
  0.9085749073273592  0.5011003341540411  0.3995145633823063
  0.7505265921569605  0.4990533745404555  0.3893215322803965
  0.6013392647724849  0.5002190902637713  0.4052115917437583
  0.6498355128415774  0.5000256625548344  0.4867842975689756
  0.5036435101514647  0.4996295578385883  0.4733099586643809
  0.8497755203912655  0.5044257376510278  0.4889906367642998
  0.9021138328547164  0.5083147629729079  0.5738747820983144
  0.7476632321843718  0.4988711061962172  0.5642019429423633
  0.5962543128644584  0.5009390975946140  0.5702579534420614
  0.4262533702507253  0.4951158580285281  0.6341813526820889
  0.4993552540471735  0.4472647200580413  0.7002492818652211
  0.5145579808420052  0.5573195578977728  0.6921104222489084
  0.5622460079538524  0.3343791720940862  0.6856581157118544
  0.6501398740396549  0.3639615244734256  0.6309833802382127
  0.3445629818207092  0.5467420004038887  0.6880738758815254