Ta  N Ru Cu                             
   1.00000000000000     
    18.1096308199999996    0.0000000000000000    0.0000000000000000
     0.0000000000000000   23.3551997799999995    0.0000000000000000
     0.0000000000000000    0.0000000000000000   30.4818171199999988
   Ta   N    Ru   Cu
   192   240    48    29
Selective dynamics
Direct
  0.0000000000000000  0.0000000000000000  0.1972002480802644   F   F   F
  0.3342894068167936  0.0625000001605613  0.2025710526885689   F   F   F
  0.1657105639170098  0.0625000001605613  0.2025710526885689   F   F   F
  0.2499999997239044  0.1249999998929567  0.2777865629601095   F   F   F
  0.0825346300841332  0.0625000001605613  0.2838671249264877   F   F   F
  0.4174653699158668  0.0625000001605613  0.2838671249264877   F   F   F
  0.0040739134635041  0.1278592796097812  0.3697641141746121   T   T   T
  0.3319560121181516  0.0633858918746434  0.3695382105178296   T   T   T
  0.1664144352298126  0.0644239824575529  0.3684824482632061   T   T   T
  0.2476821410277918  0.1209921807060143  0.4577168320635930   T   T   T
  0.0794600288923531  0.0629048709791592  0.4538124903671377   T   T   T
  0.4084927894482639  0.0614215664566305  0.4544452875484039   T   T   T
  0.0000000000000000  0.1249999998929567  0.1972002480802644   F   F   F
  0.3342894068167936  0.1875000000535181  0.2025710526885689   F   F   F
  0.1657105639170098  0.1875000000535181  0.2025710526885689   F   F   F
  0.2499999997239044  0.2500000002140865  0.2777865629601095   F   F   F
  0.0825346300841332  0.1875000000535181  0.2838671249264877   F   F   F
  0.4174653699158668  0.1875000000535181  0.2838671249264877   F   F   F
  0.9957158814958474  0.2533649725412180  0.3713464644057104   T   T   T
  0.3281951733851261  0.1856549601649780  0.3674522337414071   T   T   T
  0.1673357607900371  0.1903877850892849  0.3717710377765315   T   T   T
  0.2514322571733680  0.2453710207159364  0.4552261065711151   T   T   T
  0.0790550777128169  0.1867089214939123  0.4531340734251583   T   T   T
  0.4176464475652233  0.1843214974313336  0.4524517411605589   T   T   T
  0.0000000000000000  0.2500000002140865  0.1972002480802644   F   F   F
  0.3342894068167936  0.3124999999464819  0.2025710526885689   F   F   F
  0.1657105639170098  0.3124999999464819  0.2025710526885689   F   F   F
  0.2499999997239044  0.3750000001070433  0.2777865629601095   F   F   F
  0.0825346300841332  0.3124999999464819  0.2838671249264877   F   F   F
  0.4174653699158668  0.3124999999464819  0.2838671249264877   F   F   F
  0.9997696662937865  0.3763391485513235  0.3708118268370434   T   T   T
  0.3330526053017174  0.3117301454203819  0.3688434146606734   T   T   T
  0.1676189446917183  0.3151170122851705  0.3689811651011478   T   T   T
  0.2451580358298281  0.3775960775679001  0.4566543630561931   T   T   T
  0.0767942316686139  0.3135243590191513  0.4566316219798870   T   T   T
  0.4154902108274048  0.3097506448177379  0.4519201057660582   T   T   T
  0.0000000000000000  0.3750000001070433  0.1972002480802644   F   F   F
  0.3342894068167936  0.4375000002676046  0.2025710526885689   F   F   F
  0.1657105639170098  0.4375000002676046  0.2025710526885689   F   F   F
  0.2499999997239044  0.0000000000000000  0.2777865629601095   F   F   F
  0.0825346300841332  0.4375000002676046  0.2838671249264877   F   F   F
  0.4174653699158668  0.4375000002676046  0.2838671249264877   F   F   F
  0.9999463720472438  0.0010183632968073  0.3704483805432748   T   T   T
  0.3308876902498628  0.4381084952021119  0.3685803211121431   T   T   T
  0.1640189094138104  0.4347882948939444  0.3684483224092817   T   T   T
  0.2429549102893111  0.9980880767504577  0.4567546265735594   T   T   T
  0.0810999548772775  0.4412274433185533  0.4557376750295576   T   T   T
  0.4192982596253680  0.4318852036580990  0.4568305905979709   T   T   T
  0.0000000000000000  0.5000000000000000  0.1972002480802644   F   F   F
  0.3342894068167936  0.5625000001605613  0.2025710526885689   F   F   F
  0.1657105639170098  0.5625000001605613  0.2025710526885689   F   F   F
  0.2499999997239044  0.6249999998929567  0.2777865629601095   F   F   F
  0.0825346300841332  0.5625000001605613  0.2838671249264877   F   F   F
  0.4174653699158668  0.5625000001605613  0.2838671249264877   F   F   F
  0.0009834486126408  0.6217773550275923  0.3697924892050747   T   T   T
  0.3297637805613924  0.5616074265028191  0.3689042332751362   T   T   T
  0.1638223199928992  0.5618382239192941  0.3705983256625563   T   T   T
  0.2447247253187035  0.6269607207771065  0.4565069536530953   T   T   T
  0.0893893252753609  0.5640750528895362  0.4551669993835933   T   T   T
  0.4169343570142497  0.5618091151726848  0.4557757879123574   T   T   T
  0.0000000000000000  0.6249999998929567  0.1972002480802644   F   F   F
  0.3342894068167936  0.6875000000535181  0.2025710526885689   F   F   F
  0.1657105639170098  0.6875000000535181  0.2025710526885689   F   F   F
  0.2499999997239044  0.7500000002140865  0.2777865629601095   F   F   F
  0.0825346300841332  0.6875000000535181  0.2838671249264877   F   F   F
  0.4174653699158668  0.6875000000535181  0.2838671249264877   F   F   F
  0.9989947389938317  0.7481215246680725  0.3708551851086183   T   T   T
  0.3276515080045525  0.6894717543068202  0.3670916306258860   T   T   T
  0.1649621297814904  0.6849700370815287  0.3694356210741457   T   T   T
  0.2542344292875134  0.7486837482263244  0.4545151946053505   T   T   T
  0.0873675527491928  0.6859110050944265  0.4535871570228860   T   T   T
  0.4068428244551127  0.6863220361024258  0.4519418441524119   T   T   T
  0.0000000000000000  0.7500000002140865  0.1972002480802644   F   F   F
  0.3342894068167936  0.8124999999464819  0.2025710526885689   F   F   F
  0.1657105639170098  0.8124999999464819  0.2025710526885689   F   F   F
  0.2499999997239044  0.8750000001070433  0.2777865629601095   F   F   F
  0.0825346300841332  0.8124999999464819  0.2838671249264877   F   F   F
  0.4174653699158668  0.8124999999464819  0.2838671249264877   F   F   F
  0.0000295349657959  0.8716572651367764  0.3709119394419011   T   T   T
  0.3286953232792884  0.8109850333272833  0.3669497674583201   T   T   T
  0.1678993216137496  0.8144078258161284  0.3649481210696400   T   T   T
  0.2548034464674815  0.8707755100890883  0.4548885119054853   T   T   T
  0.0834085892820782  0.8108907792506207  0.4482269087569270   T   T   T
  0.4156856633049721  0.8101403426609864  0.4539253156801786   T   T   T
  0.0000000000000000  0.8750000001070433  0.1972002480802644   F   F   F
  0.3342894068167936  0.9375000002676046  0.2025710526885689   F   F   F
  0.1657105639170098  0.9375000002676046  0.2025710526885689   F   F   F
  0.2499999997239044  0.5000000000000000  0.2777865629601095   F   F   F
  0.0825346300841332  0.9375000002676046  0.2838671249264877   F   F   F
  0.4174653699158668  0.9375000002676046  0.2838671249264877   F   F   F
  0.9998929927880591  0.5008352762758806  0.3731807455546641   T   T   T
  0.3350215363668897  0.9385152472943896  0.3697627356221302   T   T   T
  0.1678190957031569  0.9404620594704682  0.3657958462814684   T   T   T
  0.2462524793131304  0.4975730229919289  0.4574596366451598   T   T   T
  0.0845359127372991  0.9367865594737796  0.4536065154449285   T   T   T
  0.4160511440334039  0.9362920646456662  0.4563652308388901   T   T   T
  0.5000000000000000  0.0000000000000000  0.1972002480802644   F   F   F
  0.8342894062646025  0.0625000001605613  0.2025710526885689   F   F   F
  0.6657105639170098  0.0625000001605613  0.2025710526885689   F   F   F
  0.7499999997239044  0.1249999998929567  0.2777865629601095   F   F   F
  0.5825346300841332  0.0625000001605613  0.2838671249264877   F   F   F
  0.9174653699158668  0.0625000001605613  0.2838671249264877   F   F   F
  0.5003744130575563  0.1263332667529400  0.3689800685832929   T   T   T
  0.8374879619202311  0.0613867328173281  0.3690468645437159   T   T   T
  0.6700815584119632  0.0620702197107360  0.3703918505731806   T   T   T
  0.7522228575391406  0.1247546678512280  0.4542020185653680   T   T   T
  0.5822144517044475  0.0672261208741663  0.4594924610398233   T   T   T
  0.9134648512863478  0.0628026787031011  0.4555236085072418   T   T   T
  0.5000000000000000  0.1249999998929567  0.1972002480802644   F   F   F
  0.8342894062646025  0.1875000000535181  0.2025710526885689   F   F   F
  0.6657105639170098  0.1875000000535181  0.2025710526885689   F   F   F
  0.7499999997239044  0.2500000002140865  0.2777865629601095   F   F   F
  0.5825346300841332  0.1875000000535181  0.2838671249264877   F   F   F
  0.9174653699158668  0.1875000000535181  0.2838671249264877   F   F   F
  0.5017516044596018  0.2491620073212228  0.3695548800033285   T   T   T
  0.8320448583037191  0.1888861775021002  0.3691794931880403   T   T   T
  0.6686353153620762  0.1850748766475538  0.3684733808891926   T   T   T
  0.7437215657754581  0.2538388114911396  0.4557856916224245   T   T   T
  0.5902830230647346  0.1862822696388689  0.4546119335753198   T   T   T
  0.9142408528567635  0.1849259665285929  0.4542306385768621   T   T   T
  0.5000000000000000  0.2500000002140865  0.1972002480802644   F   F   F
  0.8342894062646025  0.3124999999464819  0.2025710526885689   F   F   F
  0.6657105639170098  0.3124999999464819  0.2025710526885689   F   F   F
  0.7499999997239044  0.3750000001070433  0.2777865629601095   F   F   F
  0.5825346300841332  0.3124999999464819  0.2838671249264877   F   F   F
  0.9174653699158668  0.3124999999464819  0.2838671249264877   F   F   F
  0.5028227036034368  0.3753981463438230  0.3695493038110356   T   T   T
  0.8319648614609424  0.3135749827355521  0.3682552818740808   T   T   T
  0.6684018553597596  0.3112334417227961  0.3688399484349238   T   T   T
  0.7406631581937958  0.3752561387745542  0.4550615450167615   T   T   T
  0.5813704292439246  0.3123724741150350  0.4529967179420668   T   T   T
  0.9130604723329118  0.3121366006108676  0.4511505305892289   T   T   T
  0.5000000000000000  0.3750000001070433  0.1972002480802644   F   F   F
  0.8342894062646025  0.4375000002676046  0.2025710526885689   F   F   F
  0.6657105639170098  0.4375000002676046  0.2025710526885689   F   F   F
  0.7499999997239044  0.0000000000000000  0.2777865629601095   F   F   F
  0.5825346300841332  0.4375000002676046  0.2838671249264877   F   F   F
  0.9174653699158668  0.4375000002676046  0.2838671249264877   F   F   F
  0.5034489006356631  0.9999780937979172  0.3714843239326774   T   T   T
  0.8331566300636861  0.4416152029595998  0.3692859396483787   T   T   T
  0.6718060512689669  0.4381076664337637  0.3678439132604232   T   T   T
  0.7511990737719415  0.0040682979173681  0.4558068178871855   T   T   T
  0.5879845788250098  0.4400976648282510  0.4525250702878429   T   T   T
  0.9077056082162082  0.4356348605440805  0.4534994226677601   T   T   T
  0.5000000000000000  0.5000000000000000  0.1972002480802644   F   F   F
  0.8342894062646025  0.5625000001605613  0.2025710526885689   F   F   F
  0.6657105639170098  0.5625000001605613  0.2025710526885689   F   F   F
  0.7499999997239044  0.6249999998929567  0.2777865629601095   F   F   F
  0.5825346300841332  0.5625000001605613  0.2838671249264877   F   F   F
  0.9174653699158668  0.5625000001605613  0.2838671249264877   F   F   F
  0.5021931440679676  0.6234432758204462  0.3692055819700240   T   T   T
  0.8302590626413054  0.5655358394827056  0.3703302985712110   T   T   T
  0.6664131817771176  0.5610670690053050  0.3690728653279460   T   T   T
  0.7528254269423029  0.6264716136245293  0.4594239103148977   T   T   T
  0.5876741410675718  0.5661478229233383  0.4579339416042358   T   T   T
  0.9157229194926848  0.5637243717416017  0.4588940469277769   T   T   T
  0.5000000000000000  0.6249999998929567  0.1972002480802644   F   F   F
  0.8342894062646025  0.6875000000535181  0.2025710526885689   F   F   F
  0.6657105639170098  0.6875000000535181  0.2025710526885689   F   F   F
  0.7499999997239044  0.7500000002140865  0.2777865629601095   F   F   F
  0.5825346300841332  0.6875000000535181  0.2838671249264877   F   F   F
  0.9174653699158668  0.6875000000535181  0.2838671249264877   F   F   F
  0.4993126469002626  0.7485645386225596  0.3722881183209346   T   T   T
  0.8344791548951936  0.6895945877319449  0.3679107372208840   T   T   T
  0.6682341874563589  0.6903353133260396  0.3702479243907110   T   T   T
  0.7479057333448793  0.7522655659654192  0.4575878906074553   T   T   T
  0.5816987284665821  0.6858961407826691  0.4560624429428952   T   T   T
  0.9135849057799811  0.6894987536150431  0.4568513336409128   T   T   T
  0.5000000000000000  0.7500000002140865  0.1972002480802644   F   F   F
  0.8342894062646025  0.8124999999464819  0.2025710526885689   F   F   F
  0.6657105639170098  0.8124999999464819  0.2025710526885689   F   F   F
  0.7499999997239044  0.8750000001070433  0.2777865629601095   F   F   F
  0.5825346300841332  0.8124999999464819  0.2838671249264877   F   F   F
  0.9174653699158668  0.8124999999464819  0.2838671249264877   F   F   F
  0.5036436041142374  0.8739128742132187  0.3704906765727985   T   T   T
  0.8364999330050819  0.8146154860953133  0.3701431581967447   T   T   T
  0.6696786372298267  0.8116187613546337  0.3696246798806990   T   T   T
  0.7507832427587759  0.8737199120860221  0.4628150991556534   T   T   T
  0.5802321278326744  0.8142351469705508  0.4532182731001974   T   T   T
  0.9205356689819560  0.8107874991256420  0.4555829057489869   T   T   T
  0.5000000000000000  0.8750000001070433  0.1972002480802644   F   F   F
  0.8342894062646025  0.9375000002676046  0.2025710526885689   F   F   F
  0.6657105639170098  0.9375000002676046  0.2025710526885689   F   F   F
  0.7499999997239044  0.5000000000000000  0.2777865629601095   F   F   F
  0.5825346300841332  0.9375000002676046  0.2838671249264877   F   F   F
  0.9174653699158668  0.9375000002676046  0.2838671249264877   F   F   F
  0.4971897218779279  0.4980630335891547  0.3707487468874628   T   T   T
  0.8321690065710622  0.9384711646039930  0.3683436446080184   T   T   T
  0.6677621143508420  0.9379715623108277  0.3700070624390622   T   T   T
  0.7514804830888273  0.5009010656867473  0.4601775962111901   T   T   T
  0.5859911799549923  0.9429207180551956  0.4563019617686843   T   T   T
  0.9184417265062940  0.9390260646085452  0.4563201165646707   T   T   T
  0.4058866008042799  0.0000000000000000  0.2322132027086568   F   F   F
  0.2499999997239044  0.0000000000000000  0.1996562655205665   F   F   F
  0.0941133991957201  0.0000000000000000  0.2322132027086568   F   F   F
  0.1545990962481767  0.1249999998929567  0.3156671842807413   F   F   F
  0.0000000000000000  0.1249999998929567  0.3032267790298775   F   F   F
  0.3454009037518233  0.1249999998929567  0.3156671842807413   F   F   F
  0.4006799956978750  0.1258292519245327  0.4000037140689928   T   T   T
  0.2486671935327007  0.1247864167413741  0.3899021479280713   T   T   T
  0.0992063583415574  0.1278575681254126  0.4024510852103609   T   T   T
  0.1521858029043245  0.1267629622689347  0.4858861000470726   T   T   T
  0.9974893157587902  0.1248577130550052  0.4735443508037433   T   T   T
  0.3544450606146936  0.1190020733560783  0.4872860285915981   T   T   T
  0.3844452241229750  0.2110701355211085  0.5817770410536975   T   T   T
  0.2518192660171376  0.1073799867680832  0.5552204409946755   T   T   T
  0.1173109280270165  0.1326556439207938  0.5718814098343721   T   T   T
  0.4058866008042799  0.1249999998929567  0.2322132027086568   F   F   F
  0.2499999997239044  0.1249999998929567  0.1996562655205665   F   F   F
  0.0941133991957201  0.1249999998929567  0.2322132027086568   F   F   F
  0.1545990962481767  0.2500000002140865  0.3156671842807413   F   F   F
  0.0000000000000000  0.2500000002140865  0.3032267790298775   F   F   F
  0.3454009037518233  0.2500000002140865  0.3156671842807413   F   F   F
  0.4043453982409535  0.2493553968897363  0.4004171797571275   T   T   T
  0.2498167107056267  0.2516668863117584  0.3855724587125993   T   T   T
  0.0961378124016665  0.2526306495715923  0.4020539189133833   T   T   T
  0.1494798806630535  0.2474890551769669  0.4904051999766845   T   T   T
  0.0029933390775282  0.2541065120970871  0.4759222765588685   T   T   T
  0.3518788261688982  0.2482458202820599  0.4848346296551505   T   T   T
  0.5321735431129797  0.2564333036555500  0.5655795042882822   T   T   T
  0.2494981984880709  0.2642224139921633  0.5559712469492193   T   T   T
  0.0766979317278722  0.2641757690786535  0.5752809542649282   T   T   T
  0.4058866008042799  0.2500000002140865  0.2322132027086568   F   F   F
  0.2499999997239044  0.2500000002140865  0.1996562655205665   F   F   F
  0.0941133991957201  0.2500000002140865  0.2322132027086568   F   F   F
  0.1545990962481767  0.3750000001070433  0.3156671842807413   F   F   F
  0.0000000000000000  0.3750000001070433  0.3032267790298775   F   F   F
  0.3454009037518233  0.3750000001070433  0.3156671842807413   F   F   F
  0.4016771075828700  0.3714733431240368  0.4010818659111215   T   T   T
  0.2511024797261270  0.3744901188846599  0.3895513936809024   T   T   T
  0.0971551140310193  0.3751347005434794  0.3992379773301548   T   T   T
  0.1380340929021492  0.3779552110284959  0.4905242684364686   T   T   T
  0.9947363582420071  0.3770688321420582  0.4695529068607002   T   T   T
  0.3462242666364649  0.3697781712631089  0.4815962066692949   T   T   T
  0.5213975932030193  0.4115155258926937  0.6380146098140963   T   T   T
  0.3483332638756128  0.3631778599851582  0.5817036802215055   T   T   T
  0.1528992717198885  0.3799758566597997  0.5826795812985089   T   T   T
  0.4058866008042799  0.3750000001070433  0.2322132027086568   F   F   F
  0.2499999997239044  0.3750000001070433  0.1996562655205665   F   F   F
  0.0941133991957201  0.3750000001070433  0.2322132027086568   F   F   F
  0.1545990962481767  0.0000000000000000  0.3156671842807413   F   F   F
  0.0000000000000000  0.0000000000000000  0.3032267790298775   F   F   F
  0.3454009037518233  0.0000000000000000  0.3156671842807413   F   F   F
  0.4013033248509552  0.0025193811232813  0.4033779672121528   T   T   T
  0.2461313562035571  0.9997459011280969  0.3884399990918491   T   T   T
  0.1024032846360567  0.0019178061574373  0.4011569544168605   T   T   T
  0.1449903884838527  0.9970400181320235  0.4827289635672167   T   T   T
  0.9948728496331808  0.0033241375316802  0.4723905017388974   T   T   T
  0.3435102865942254  0.0018571732614670  0.4888692802074968   T   T   T
  0.4133367089598713  0.0282706095955635  0.5632570264852137   T   T   T
  0.2242211974197227  0.9994435890469971  0.5596245956347159   T   T   T
  0.0544237566530849  0.0399056785371522  0.5556799259588905   T   T   T
  0.4058866008042799  0.5000000000000000  0.2322132027086568   F   F   F
  0.2499999997239044  0.5000000000000000  0.1996562655205665   F   F   F
  0.0941133991957201  0.5000000000000000  0.2322132027086568   F   F   F
  0.1545990962481767  0.6249999998929567  0.3156671842807413   F   F   F
  0.0000000000000000  0.6249999998929567  0.3032267790298775   F   F   F
  0.3454009037518233  0.6249999998929567  0.3156671842807413   F   F   F
  0.4046867963134219  0.6294719396119876  0.4034849804927328   T   T   T
  0.2500958817817363  0.6195213151928487  0.3895970317007284   T   T   T
  0.0985892905505564  0.6232684988238913  0.4030216028111743   T   T   T
  0.1515878558640722  0.6250473590998701  0.4840580844173415   T   T   T
  0.9994937529832049  0.6260285700195335  0.4724580219385682   T   T   T
  0.3451872088314160  0.6193766969126503  0.4889518719394980   T   T   T
  0.3225632191683919  0.5550434184696837  0.5757368941192523   T   T   T
  0.2169065549507846  0.6560150408738967  0.5681334652045325   T   T   T
  0.0565771177666807  0.6587313422200701  0.5758925463552452   T   T   T
  0.4058866008042799  0.6249999998929567  0.2322132027086568   F   F   F
  0.2499999997239044  0.6249999998929567  0.1996562655205665   F   F   F
  0.0941133991957201  0.6249999998929567  0.2322132027086568   F   F   F
  0.1545990962481767  0.7500000002140865  0.3156671842807413   F   F   F
  0.0000000000000000  0.7500000002140865  0.3032267790298775   F   F   F
  0.3454009037518233  0.7500000002140865  0.3156671842807413   F   F   F
  0.3913107976569657  0.7461473774675738  0.4005900183421414   T   T   T
  0.2494425964139208  0.7507087647733891  0.3860233224085078   T   T   T
  0.1009485957547180  0.7460049960211456  0.3992599292214552   T   T   T
  0.1580750616258904  0.7492355323785242  0.4827003890604003   T   T   T
  0.0054156974746479  0.7512209499548089  0.4727452595802036   T   T   T
  0.3492137637295670  0.7450779516567380  0.4864707417154630   T   T   T
  0.4204452944368444  0.7752936606292240  0.5738133824026178   T   T   T
  0.2603374238788613  0.7678356932453095  0.5610821359402662   T   T   T
  0.1054533822048780  0.7659749901704280  0.5626504472282833   T   T   T
  0.4058866008042799  0.7500000002140865  0.2322132027086568   F   F   F
  0.2499999997239044  0.7500000002140865  0.1996562655205665   F   F   F
  0.0941133991957201  0.7500000002140865  0.2322132027086568   F   F   F
  0.1545990962481767  0.8750000001070433  0.3156671842807413   F   F   F
  0.0000000000000000  0.8750000001070433  0.3032267790298775   F   F   F
  0.3454009037518233  0.8750000001070433  0.3156671842807413   F   F   F
  0.3986228569901671  0.8740213950866735  0.3996304211274952   T   T   T
  0.2497292319280673  0.8808352005174925  0.3868681843189409   T   T   T
  0.1025306525097809  0.8762393781550651  0.3988432408867811   T   T   T
  0.1505047664508230  0.8706861569311167  0.4806320358911550   T   T   T
  0.0057549882955766  0.8707467359514987  0.4708453334056200   T   T   T
  0.3526403973335510  0.8701291091654193  0.4841751121261000   T   T   T
  0.4984400437590041  0.9127491238920526  0.5714731501908606   T   T   T
  0.3281701499947924  0.8931987868293599  0.5720253624544892   T   T   T
  0.1545735865442788  0.8736886644013176  0.5687934042384039   T   T   T
  0.4058866008042799  0.8750000001070433  0.2322132027086568   F   F   F
  0.2499999997239044  0.8750000001070433  0.1996562655205665   F   F   F
  0.0941133991957201  0.8750000001070433  0.2322132027086568   F   F   F
  0.1545990962481767  0.5000000000000000  0.3156671842807413   F   F   F
  0.0000000000000000  0.5000000000000000  0.3032267790298775   F   F   F
  0.3454009037518233  0.5000000000000000  0.3156671842807413   F   F   F
  0.3983642856243360  0.4991369556107300  0.4027795913788114   T   T   T
  0.2448097785872774  0.4964680342109251  0.3912822001604083   T   T   T
  0.1032922780476997  0.5004069093644024  0.4043685096307176   T   T   T
  0.1430488388123366  0.5027643779797734  0.4907090480435555   T   T   T
  0.0057451465332249  0.5015862110001873  0.4737117452267293   T   T   T
  0.3447637329796412  0.4995643317580094  0.4801571538089793   T   T   T
  0.4347336017837877  0.4379847418585086  0.5344634395311462   T   T   T
  0.2611857110764222  0.4399990388776127  0.5217655853639727   T   T   T
  0.1140228964728317  0.5298676218295580  0.5987607328452492   T   T   T
  0.9058866008042799  0.0000000000000000  0.2322132027086568   F   F   F
  0.7499999997239044  0.0000000000000000  0.1996562655205665   F   F   F
  0.5941133991957201  0.0000000000000000  0.2322132027086568   F   F   F
  0.6545990962481767  0.1249999998929567  0.3156671842807413   F   F   F
  0.5000000000000000  0.1249999998929567  0.3032267790298775   F   F   F
  0.8454009037518233  0.1249999998929567  0.3156671842807413   F   F   F
  0.9058874110107904  0.1255385240785151  0.3998598644410926   T   T   T
  0.7485120535919653  0.1247574950821166  0.3861499758676198   T   T   T
  0.6015495991991828  0.1229015493325187  0.4010234018596893   T   T   T
  0.6587969731125263  0.1219990753257696  0.4888565114910559   T   T   T
  0.5002555329329754  0.1195951943439216  0.4717390279651897   T   T   T
  0.8517275392004515  0.1262423456963847  0.4898696779245503   T   T   T
  0.9300609841027877  0.1456669734753316  0.5728221193237961   T   T   T
  0.6547247352116118  0.1372165626807316  0.5855464860897340   T   T   T
  0.5312509920134423  0.1899194252382185  0.6572851213665839   T   T   T
  0.9058866008042799  0.1249999998929567  0.2322132027086568   F   F   F
  0.7499999997239044  0.1249999998929567  0.1996562655205665   F   F   F
  0.5941133991957201  0.1249999998929567  0.2322132027086568   F   F   F
  0.6545990962481767  0.2500000002140865  0.3156671842807413   F   F   F
  0.5000000000000000  0.2500000002140865  0.3032267790298775   F   F   F
  0.8454009037518233  0.2500000002140865  0.3156671842807413   F   F   F
  0.8972023341292558  0.2508491665976559  0.4008670459970110   T   T   T
  0.7494394302217403  0.2531745854878688  0.3832885156041569   T   T   T
  0.5985151521568858  0.2474103617378347  0.4001724230385630   T   T   T
  0.6446805294827910  0.2506774213080278  0.4882455864367637   T   T   T
  0.4962082517513208  0.2483017242260209  0.4731610079460439   T   T   T
  0.8486235385276549  0.2478384213033409  0.4835349628486783   T   T   T
  0.8930847401806680  0.2743479508674821  0.5657687968141818   T   T   T
  0.6870811099734506  0.2566153067859934  0.6045830187833595   T   T   T
  0.6129395137391763  0.3576282753713728  0.5640480885759045   T   T   T
  0.9058866008042799  0.2500000002140865  0.2322132027086568   F   F   F
  0.7499999997239044  0.2500000002140865  0.1996562655205665   F   F   F
  0.5941133991957201  0.2500000002140865  0.2322132027086568   F   F   F
  0.6545990962481767  0.3750000001070433  0.3156671842807413   F   F   F
  0.5000000000000000  0.3750000001070433  0.3032267790298775   F   F   F
  0.8454009037518233  0.3750000001070433  0.3156671842807413   F   F   F
  0.8980414543633070  0.3786587656110968  0.4019533916657838   T   T   T
  0.7517904385500724  0.3769016753335091  0.3888580264255557   T   T   T
  0.6023078301201624  0.3778546760374998  0.3989712954366893   T   T   T
  0.6422440351841940  0.3768436048300502  0.4825577085685708   T   T   T
  0.4995344273328213  0.3747186308613166  0.4724358318644687   T   T   T
  0.8440067134352865  0.3713772848720779  0.4850840495422974   T   T   T
  0.9610614838339454  0.4134704979591803  0.5675723628150564   T   T   T
  0.7916112723313464  0.3977985968026357  0.5760430100137911   T   T   T
  0.7014148610840060  0.3766238708690560  0.6914170239352874   T   T   T
  0.9058866008042799  0.3750000001070433  0.2322132027086568   F   F   F
  0.7499999997239044  0.3750000001070433  0.1996562655205665   F   F   F
  0.5941133991957201  0.3750000001070433  0.2322132027086568   F   F   F
  0.6545990962481767  0.0000000000000000  0.3156671842807413   F   F   F
  0.5000000000000000  0.0000000000000000  0.3032267790298775   F   F   F
  0.8454009037518233  0.0000000000000000  0.3156671842807413   F   F   F
  0.9016040013351734  0.0006328971161753  0.4025591633765367   T   T   T
  0.7548016745274954  0.9978329771454537  0.3888622517846048   T   T   T
  0.6022177616958169  0.0075899413781378  0.4072174873063040   T   T   T
  0.6546375029967387  0.0024963506089485  0.4863917925794472   T   T   T
  0.5021994457758826  0.9956864842224196  0.4765569314368616   T   T   T
  0.8432060226693867  0.9988362237433512  0.4888631185903430   T   T   T
  0.8916737977468978  0.0128680519133024  0.5835746388089554   T   T   T
  0.7353749861139227  0.0094553628965667  0.5711127722329087   T   T   T
  0.6018673610854886  0.0125605751392715  0.5697138164340613   T   T   T
  0.9058866008042799  0.5000000000000000  0.2322132027086568   F   F   F
  0.7499999997239044  0.5000000000000000  0.1996562655205665   F   F   F
  0.5941133991957201  0.5000000000000000  0.2322132027086568   F   F   F
  0.6545990962481767  0.6249999998929567  0.3156671842807413   F   F   F
  0.5000000000000000  0.6249999998929567  0.3032267790298775   F   F   F
  0.8454009037518233  0.6249999998929567  0.3156671842807413   F   F   F
  0.8981573183501690  0.6230648395391585  0.4029242527128238   T   T   T
  0.7458411874703210  0.6273747944317042  0.3898345566426218   T   T   T
  0.5989050167569812  0.6247443011970932  0.4029755786302475   T   T   T
  0.6536080621850218  0.6268005006983572  0.4890310959828590   T   T   T
  0.4978289438615509  0.6313615030895101  0.4740815556853925   T   T   T
  0.8614386830571533  0.6245837553366687  0.4928176306998817   T   T   T
  0.8959548957779672  0.6628641810052435  0.5686865095266596   T   T   T
  0.7136869451578204  0.6235492455182824  0.5690963646322614   T   T   T
  0.4824103626179078  0.5723771035996240  0.5880903122672039   T   T   T
  0.9058866008042799  0.6249999998929567  0.2322132027086568   F   F   F
  0.7499999997239044  0.6249999998929567  0.1996562655205665   F   F   F
  0.5941133991957201  0.6249999998929567  0.2322132027086568   F   F   F
  0.6545990962481767  0.7500000002140865  0.3156671842807413   F   F   F
  0.5000000000000000  0.7500000002140865  0.3032267790298775   F   F   F
  0.8454009037518233  0.7500000002140865  0.3156671842807413   F   F   F
  0.9016992232441073  0.7493999927484887  0.4021580684659088   T   T   T
  0.7520458853439136  0.7488127724730126  0.3886638012651522   T   T   T
  0.5960370963687638  0.7522339399721624  0.4017650989577513   T   T   T
  0.6482157539602115  0.7473140206704773  0.4835924758082686   T   T   T
  0.4996395690718576  0.7499217006053327  0.4766254472174193   T   T   T
  0.8534079559653532  0.7547320056878656  0.4869938007583445   T   T   T
  0.9255095736320376  0.7885002704117823  0.5775336757310078   T   T   T
  0.7520410897904853  0.7544956009424394  0.5626548270967113   T   T   T
  0.5751624158166959  0.7070452045856386  0.5669478053929285   T   T   T
  0.9058866008042799  0.7500000002140865  0.2322132027086568   F   F   F
  0.7499999997239044  0.7500000002140865  0.1996562655205665   F   F   F
  0.5941133991957201  0.7500000002140865  0.2322132027086568   F   F   F
  0.6545990962481767  0.8750000001070433  0.3156671842807413   F   F   F