Mo  S Cu                                
   1.00000000000000     
    15.9214998300000001    0.0000000000000000    0.0000000000000000
    -7.9622501300000001   13.7910221699999997    0.0000000000000000
     0.0000000000000000    0.0000000000000000   13.5821998300000004
   Mo   S    Cu
    25    50     2
Direct
  0.1324066658258616  0.0659572918299389  0.6778410504138535
  0.1317456897425373  0.2650689943978435  0.6769062358092057
  0.1322278297544415  0.4650787152163005  0.6781223169253181
  0.1325035967886734  0.6659802333557678  0.6783803368021353
  0.1329127118701336  0.8660318676873686  0.6780023055995343
  0.3323597497524986  0.0657324871449987  0.6773930680592670
  0.3320166450865472  0.2657198541065213  0.6793346026999671
  0.3324949948831204  0.4655619873620793  0.6794766609567517
  0.3329126274640402  0.6658718920138398  0.6785381016529826
  0.3327469030208761  0.8659560020791730  0.6780161824942468
  0.5328280756467692  0.0656910955692211  0.6774489590643711
  0.5329693779233082  0.2666158596903188  0.6765200036285748
  0.5318286746733349  0.4643306190801297  0.6794722495890184
  0.5326164625863186  0.6666868247726399  0.6776806588308304
  0.5325511835018872  0.8658769777876785  0.6782236529939922
  0.7329301610235177  0.0659233223441689  0.6779718436882618
  0.7330766189998599  0.2657787935732614  0.6793755907838914
  0.7319777150625626  0.4644799960984329  0.6793227023389790
  0.7325700910127964  0.6657227693455496  0.6781357882879320
  0.7327482705946196  0.8658706465076165  0.6778579438541001
  0.9323342042894467  0.0653361814380133  0.6775031370167568
  0.9326514697607280  0.2651240959083765  0.6769775446021953
  0.9325476679758609  0.4657573421420835  0.6793460071448649
  0.9337064197659615  0.6670265968376370  0.6773031489219505
  0.9325897184661329  0.8659917842303457  0.6776851727182347
  0.0655533175528547  0.1320196249683150  0.5622125743546036
  0.0652456300446218  0.1319627110933581  0.7928114579882219
  0.0655825798137641  0.3319040711498715  0.5622152852702058
  0.0654239047312899  0.3314790693308041  0.7926258289921648
  0.0655404338708081  0.5322666144353576  0.5636308062400559
  0.0665287320848194  0.5325737151144381  0.7935334110698804
  0.0664914863150088  0.7329684815346198  0.5626640356994272
  0.0665606076375056  0.7332502796993978  0.7936329497007506
  0.0661218978243738  0.9326272855699074  0.5628715040120227
  0.0659156469677882  0.9326891291447197  0.7928642649315023
  0.2659433554208448  0.1328902481870955  0.5630221534601887
  0.2654001779231052  0.1313719957971529  0.7933052096216784
  0.2661543563294799  0.3327617483497320  0.5635342326487347
  0.2654884487519027  0.3319481970011822  0.7961687673533575
  0.2661709673386170  0.5322049093828625  0.5637307184551901
  0.2653541411128657  0.5324232227530246  0.7936362807622572
  0.2659399144681203  0.7322095172222021  0.5634028189399913
  0.2660718182950461  0.7327033075929918  0.7932561219875112
  0.2660034906796085  0.9323997477259738  0.5626400066154673
  0.2662593872231227  0.9328360340576580  0.7929940747623903
  0.4662418685972298  0.1329762140612729  0.5622777741119052
  0.4660497513357527  0.1326654583450448  0.7911998659826764
  0.4646301835684667  0.3317841612716350  0.5633223643816976
  0.4647597988009622  0.3324977159915292  0.7977196768040500
  0.4660417894438993  0.5321244471510553  0.5642405184579005
  0.4658011918384659  0.5321491988265805  0.7959145065473194
  0.4659578988014559  0.7327344591615415  0.5629508320376004
  0.4660539199270133  0.7330364865585324  0.7939047021422354
  0.4659813525853238  0.9322893218597343  0.5627389811995016
  0.4660293205546822  0.9327811876175929  0.7930920524250311
  0.6663876418052368  0.1328773304068633  0.5631052107425347
  0.6653900096188892  0.1314165199463417  0.7933818009363307
  0.6665038968200321  0.3318038676815007  0.5633179934222170
  0.6670445219307766  0.3326119802748693  0.7976179670700674
  0.6654280580834993  0.5315537531045891  0.5638575064538429
  0.6662297152758327  0.5329692163072650  0.7940377011854878
  0.6657775827918044  0.7323009669571761  0.5629805256356946
  0.6660225463860954  0.7328633930497830  0.7929233043683155
  0.6658762308765773  0.9324992105385732  0.5630648582757942
  0.6662132825101708  0.9326255034976825  0.7930529692176336
  0.8657895612644140  0.1320636775173440  0.5623017778622952
  0.8661236433046184  0.1319948325620999  0.7928890319882953
  0.8659653788332875  0.3328196307683342  0.5635801625781554
  0.8658673748863563  0.3321598748957584  0.7961835435187012
  0.8655962316336669  0.5323239417379284  0.5640248518360949
  0.8660590243663435  0.5327518008325995  0.7955574618839947
  0.8658835791776482  0.7324706703091337  0.5627759099850920
  0.8664504192370828  0.7330522647293947  0.7927075618363020
  0.8657026899383951  0.9321730509415858  0.5624383099434880
  0.8659843783459351  0.9324921234509489  0.7930019446069423
  0.3987012999930002  0.3977455471659610  0.9008692581568809
  0.7987520608402434  0.3990881384179090  0.8999331786245719
 
  0.00000000E+00  0.00000000E+00  0.00000000E+00
  0.00000000E+00  0.00000000E+00  0.00000000E+00
  0.00000000E+00  0.00000000E+00  0.00000000E+00
  0.00000000E+00  0.00000000E+00  0.00000000E+00
  0.00000000E+00  0.00000000E+00  0.00000000E+00
  0.00000000E+00  0.00000000E+00  0.00000000E+00
  0.00000000E+00  0.00000000E+00  0.00000000E+00
  0.00000000E+00  0.00000000E+00  0.00000000E+00
  0.00000000E+00  0.00000000E+00  0.00000000E+00
  0.00000000E+00  0.00000000E+00  0.00000000E+00
  0.00000000E+00  0.00000000E+00  0.00000000E+00
  0.00000000E+00  0.00000000E+00  0.00000000E+00
  0.00000000E+00  0.00000000E+00  0.00000000E+00
  0.00000000E+00  0.00000000E+00  0.00000000E+00
  0.00000000E+00  0.00000000E+00  0.00000000E+00
  0.00000000E+00  0.00000000E+00  0.00000000E+00
  0.00000000E+00  0.00000000E+00  0.00000000E+00
  0.00000000E+00  0.00000000E+00  0.00000000E+00
  0.00000000E+00  0.00000000E+00  0.00000000E+00
  0.00000000E+00  0.00000000E+00  0.00000000E+00
  0.00000000E+00  0.00000000E+00  0.00000000E+00
  0.00000000E+00  0.00000000E+00  0.00000000E+00
  0.00000000E+00  0.00000000E+00  0.00000000E+00
  0.00000000E+00  0.00000000E+00  0.00000000E+00
  0.00000000E+00  0.00000000E+00  0.00000000E+00
  0.00000000E+00  0.00000000E+00  0.00000000E+00
  0.00000000E+00  0.00000000E+00  0.00000000E+00
  0.00000000E+00  0.00000000E+00  0.00000000E+00
  0.00000000E+00  0.00000000E+00  0.00000000E+00
  0.00000000E+00  0.00000000E+00  0.00000000E+00
  0.00000000E+00  0.00000000E+00  0.00000000E+00
  0.00000000E+00  0.00000000E+00  0.00000000E+00
  0.00000000E+00  0.00000000E+00  0.00000000E+00
  0.00000000E+00  0.00000000E+00  0.00000000E+00
  0.00000000E+00  0.00000000E+00  0.00000000E+00
  0.00000000E+00  0.00000000E+00  0.00000000E+00
  0.00000000E+00  0.00000000E+00  0.00000000E+00
  0.00000000E+00  0.00000000E+00  0.00000000E+00
  0.00000000E+00  0.00000000E+00  0.00000000E+00
  0.00000000E+00  0.00000000E+00  0.00000000E+00
  0.00000000E+00  0.00000000E+00  0.00000000E+00
  0.00000000E+00  0.00000000E+00  0.00000000E+00
  0.00000000E+00  0.00000000E+00  0.00000000E+00
  0.00000000E+00  0.00000000E+00  0.00000000E+00
  0.00000000E+00  0.00000000E+00  0.00000000E+00
  0.00000000E+00  0.00000000E+00  0.00000000E+00
  0.00000000E+00  0.00000000E+00  0.00000000E+00
  0.00000000E+00  0.00000000E+00  0.00000000E+00
  0.00000000E+00  0.00000000E+00  0.00000000E+00
  0.00000000E+00  0.00000000E+00  0.00000000E+00
  0.00000000E+00  0.00000000E+00  0.00000000E+00
  0.00000000E+00  0.00000000E+00  0.00000000E+00
  0.00000000E+00  0.00000000E+00  0.00000000E+00
  0.00000000E+00  0.00000000E+00  0.00000000E+00
  0.00000000E+00  0.00000000E+00  0.00000000E+00
  0.00000000E+00  0.00000000E+00  0.00000000E+00
  0.00000000E+00  0.00000000E+00  0.00000000E+00
  0.00000000E+00  0.00000000E+00  0.00000000E+00
  0.00000000E+00  0.00000000E+00  0.00000000E+00
  0.00000000E+00  0.00000000E+00  0.00000000E+00
  0.00000000E+00  0.00000000E+00  0.00000000E+00
  0.00000000E+00  0.00000000E+00  0.00000000E+00
  0.00000000E+00  0.00000000E+00  0.00000000E+00
  0.00000000E+00  0.00000000E+00  0.00000000E+00
  0.00000000E+00  0.00000000E+00  0.00000000E+00
  0.00000000E+00  0.00000000E+00  0.00000000E+00
  0.00000000E+00  0.00000000E+00  0.00000000E+00
  0.00000000E+00  0.00000000E+00  0.00000000E+00
  0.00000000E+00  0.00000000E+00  0.00000000E+00
  0.00000000E+00  0.00000000E+00  0.00000000E+00
  0.00000000E+00  0.00000000E+00  0.00000000E+00
  0.00000000E+00  0.00000000E+00  0.00000000E+00
  0.00000000E+00  0.00000000E+00  0.00000000E+00
  0.00000000E+00  0.00000000E+00  0.00000000E+00
  0.00000000E+00  0.00000000E+00  0.00000000E+00
  0.00000000E+00  0.00000000E+00  0.00000000E+00
  0.00000000E+00  0.00000000E+00  0.00000000E+00
