Ta  N Cu                                
   1.00000000000000     
    11.9754398999999996    0.0000000000000000    0.0000000000000000
    -1.7175315499999999   11.8516346499999994    0.0000000000000000
     0.0000000000000000    0.0000000000000000   22.7106327899999982
   Ta   N    Cu
    72    72     1
Selective dynamics
Direct
  0.9955339587019623  0.9955339540487174  0.2712224588739929   F   F   F
  0.2699333485827822  0.1030132974397020  0.3100259080635226   F   F   F
  0.1030132717436416  0.2699333822854797  0.3100259080635226   F   F   F
  0.3596205863249367  0.3596206399952564  0.3447007771003783   F   F   F
  0.1253409742651783  0.4593656738838163  0.3919418349552828   F   F   F
  0.4593656603424634  0.1253409739335112  0.3919418349552828   F   F   F
  0.2212936092905582  0.2212900528072822  0.4358597519672879   T   T   T
  0.4865555603024899  0.3201835831252155  0.4783636365133683   T   T   T
  0.3201856575310307  0.4865598410053066  0.4783609056485522   T   T   T
  0.0843788465448818  0.0843751574323781  0.5209066810050358   T   T   T
  0.3473376562000243  0.1820851742061457  0.5645345125553989   T   T   T
  0.1820709153450841  0.3473422737324841  0.5645314209573913   T   T   T
  0.4457831608554246  0.4457652052852814  0.6067550540503687   T   T   T
  0.2076238546924005  0.0421113496078223  0.6497003608058841   T   T   T
  0.0420071584270695  0.2076266856912240  0.6496516501799759   T   T   T
  0.3128013664194843  0.3128431342191640  0.6990431132788313   T   T   T
  0.0721867184606566  0.4010656275406531  0.7298700863750848   T   T   T
  0.4011368574014220  0.0720890751824838  0.7298438023355347   T   T   T
  0.9955339590589745  0.4955339536268326  0.2712224588739929   F   F   F
  0.2699333482257629  0.6030132978615868  0.3100259080635226   F   F   F
  0.1030132722216663  0.7699333827073573  0.3100259080635226   F   F   F
  0.3596205866819489  0.8596206395733716  0.3447007771003783   F   F   F
  0.1253409746221976  0.9593656734619316  0.3919418349552828   F   F   F
  0.4593656608204952  0.6253409743553888  0.3919418349552828   F   F   F
  0.2213323511042858  0.7213539848106093  0.4357651530447401   T   T   T
  0.4866559352739987  0.8203402166179398  0.4784499785677860   T   T   T
  0.3202133046598709  0.9867137230203996  0.4784785563178913   T   T   T
  0.0845227758652486  0.5843126465340690  0.5209359161862525   T   T   T
  0.3473090619080232  0.6817797988999065  0.5640575167323044   T   T   T
  0.1814222927710315  0.8469180690525827  0.5640325982620785   T   T   T
  0.4433205018687871  0.9444717413153719  0.6080172573265143   T   T   T
  0.2082164777914463  0.5428730514791726  0.6502132506859274   T   T   T
  0.0435368610561326  0.7070360505801963  0.6508713561961548   T   T   T
  0.3125302271274127  0.8131120964444909  0.6947174806339458   T   T   T
  0.0665232872458850  0.9018641236743318  0.7285592280001573   T   T   T
  0.4056437198603867  0.5667464258630440  0.7278742632287348   T   T   T
  0.4955339587019623  0.9955339540487174  0.2712224588739929   F   F   F
  0.7699333485827822  0.1030132974397020  0.3100259080635226   F   F   F
  0.6030132717436416  0.2699333822854797  0.3100259080635226   F   F   F
  0.8596205863249367  0.3596206399952564  0.3447007771003783   F   F   F
  0.6253409742651783  0.4593656738838163  0.3919418349552828   F   F   F
  0.9593656603424634  0.1253409739335112  0.3919418349552828   F   F   F
  0.7213465352327227  0.2213373103848233  0.4357628674483619   T   T   T
  0.9867068177241509  0.3202195921497485  0.4784719193439776   T   T   T
  0.8203422395152015  0.4866632026776523  0.4784504434991375   T   T   T
  0.5842971720276273  0.0845266685722223  0.5209315064689301   T   T   T
  0.8468958252419208  0.1814253342937937  0.5640206725323836   T   T   T
  0.6817766569184526  0.3473144828355273  0.5640596535601329   T   T   T
  0.9444714573474949  0.4433395979957517  0.6080193064635767   T   T   T
  0.7070107652563523  0.0435299260066453  0.6508454483467940   T   T   T
  0.5428460878357320  0.2082391405047994  0.6502222973459494   T   T   T
  0.8130583863405161  0.3125531042537433  0.6947066909019106   T   T   T
  0.5667055087353625  0.4056253751443785  0.7278870768626979   T   T   T
  0.9018187075454116  0.0665013344887718  0.7285385527311349   T   T   T
  0.4955339590589745  0.4955339536268326  0.2712224588739929   F   F   F
  0.7699333482257629  0.6030132978615868  0.3100259080635226   F   F   F
  0.6030132722216663  0.7699333827073573  0.3100259080635226   F   F   F
  0.8596205866819489  0.8596206395733716  0.3447007771003783   F   F   F
  0.6253409746221976  0.9593656734619316  0.3919418349552828   F   F   F
  0.9593656608204952  0.6253409743553888  0.3919418349552828   F   F   F
  0.7214363662285801  0.7214319005777341  0.4357166606528489   T   T   T
  0.9866545083468242  0.8201138605537542  0.4784508401021152   T   T   T
  0.8201112254408277  0.9866485372332854  0.4784479034258914   T   T   T
  0.5844529400712040  0.5844510789278200  0.5210154161326062   T   T   T
  0.8474216745747228  0.6813721688775762  0.5641402367208049   T   T   T
  0.6813750611846840  0.8474119751340089  0.5641330392952062   T   T   T
  0.9433357259788900  0.9433382693137908  0.6075864191743494   T   T   T
  0.7086975064353247  0.5435729404908889  0.6506723855065942   T   T   T
  0.5435846596137810  0.7086940304105488  0.6506651180560258   T   T   T
  0.8121531053096119  0.8121511568903419  0.6951339952318261   T   T   T
  0.5654843263710185  0.9057210411980025  0.7286850759592461   T   T   T
  0.9057681954785300  0.5654913456665805  0.7286942515956553   T   T   T
  0.4506180773709048  0.1400782132052782  0.2976725581183857   F   F   F
  0.2642075833142314  0.2642075209653356  0.2836189927733201   F   F   F
  0.1400781798198807  0.4506180903161052  0.2976725581183857   F   F   F
  0.3074132852265237  0.9999309000767909  0.3839488749030693   F   F   F
  0.1352939988863540  0.1352940283866033  0.3689431455789318   F   F   F
  0.9999308780646601  0.3074132624267207  0.3839488749030693   F   F   F
  0.1683650779189059  0.3642582351905665  0.4693360571136163   T   T   T
  0.4970368572937359  0.4970378235532311  0.4538083266724495   T   T   T
  0.3642602648279826  0.1683668999144700  0.4693404699220358   T   T   T
  0.0295944609686570  0.2252870382128753  0.5549058082812550   T   T   T
  0.3576971444672686  0.3577038540378996  0.5400874045036482   T   T   T
  0.2252833134932674  0.0296136558774781  0.5549325197430707   T   T   T
  0.3888919433882616  0.0879809579000564  0.6402142110044691   T   T   T
  0.2225028716470739  0.2225221095925327  0.6286593869559780   T   T   T
  0.0879668328560008  0.3888893737984861  0.6402186212340084   T   T   T
  0.2527852893243395  0.4570909725825818  0.7296735580311776   T   T   T
  0.0740939857834233  0.0741421853825660  0.7086610273310557   T   T   T
  0.4569719662010889  0.2527160653722760  0.7297270621925525   T   T   T
  0.4506180777279170  0.6400782127833935  0.2976725581183857   F   F   F
  0.2642075828362067  0.7642075205434509  0.2836189927733201   F   F   F
  0.1400781801769000  0.9506180898942276  0.2976725581183857   F   F   F
  0.3074132857045484  0.4999309004986756  0.3839488749030693   F   F   F
  0.1352939993643858  0.6352940288084810  0.3689431455789318   F   F   F
  0.9999308775866353  0.8074132620048431  0.3839488749030693   F   F   F
  0.1682462009113745  0.8643047036084321  0.4692428688861344   T   T   T
  0.4969649848980311  0.9970811040301873  0.4538056679820736   T   T   T
  0.3642935619912009  0.6683248616871335  0.4692300828059547   T   T   T
  0.0296493098469306  0.7249684799579456  0.5551128070041120   T   T   T
  0.3571245660858392  0.8574165234821829  0.5399365212169679   T   T   T
  0.2254124706601013  0.5296132139616636  0.5547437726946538   T   T   T
  0.3905457671342542  0.5883067836926064  0.6390199750798295   T   T   T
  0.2217179636082945  0.7213902738299561  0.6279777089383886   T   T   T
  0.0869444847861629  0.8894652998622392  0.6393321942672689   T   T   T
  0.2501695161496538  0.9505548024204591  0.7282921482633913   T   T   T
  0.0756639513223699  0.5738951728324102  0.7093647389342168   T   T   T
  0.4513477641307784  0.7517515970751905  0.7295295782607203   T   T   T
  0.9506180773709048  0.1400782132052782  0.2976725581183857   F   F   F
  0.7642075824791874  0.2642075209653356  0.2836189927733201   F   F   F
  0.6400781798198807  0.4506180903161052  0.2976725581183857   F   F   F
  0.8074132852265237  0.9999309000767909  0.3839488749030693   F   F   F
  0.6352939988863540  0.1352940283866033  0.3689431455789318   F   F   F
  0.4999308780646601  0.3074132624267207  0.3839488749030693   F   F   F
  0.6683223490566983  0.3642991825770987  0.4692307942537238   T   T   T
  0.9970814229823928  0.4969710575489030  0.4538045942720575   T   T   T
  0.8642951722240356  0.1682490679994324  0.4692335450598417   T   T   T
  0.5296081239896577  0.2254174201879552  0.5547484958192095   T   T   T
  0.8574183764429695  0.3571333839441876  0.5399334521819942   T   T   T
  0.7249495089855721  0.0296422731511772  0.5551014960644961   T   T   T
  0.8894145461729082  0.0869220010144115  0.6393082392593832   T   T   T
  0.7213615271121708  0.2217112816118289  0.6279690408190433   T   T   T
  0.5882969581958524  0.3905566988540776  0.6390251042145991   T   T   T
  0.7517456560610599  0.4513507884211408  0.7295452287835779   T   T   T
  0.5738716192239499  0.0756536412121181  0.7093483409324992   T   T   T
  0.9504479749173799  0.2501638831589325  0.7282504275125778   T   T   T
  0.9506180777279170  0.6400782127833935  0.2976725581183857   F   F   F
  0.7642075828362067  0.7642075205434509  0.2836189927733201   F   F   F
  0.6400781801769000  0.9506180898942276  0.2976725581183857   F   F   F
  0.8074132857045484  0.4999309004986756  0.3839488749030693   F   F   F
  0.6352939993643858  0.6352940288084810  0.3689431455789318   F   F   F
  0.4999308775866353  0.8074132620048431  0.3839488749030693   F   F   F
  0.6683090103413504  0.8644019275163746  0.4692241039166022   T   T   T
  0.9969643360422371  0.9969627896553093  0.4538309458507360   T   T   T
  0.8644072651076209  0.6683096233115005  0.4692271945798029   T   T   T
  0.5296847773797091  0.7254939224191080  0.5550078795497252   T   T   T
  0.8568690512891557  0.8568672091578011  0.5397935630883909   T   T   T
  0.7255013250837145  0.5296863602751067  0.5550111722152921   T   T   T
  0.8902280012024227  0.5870719454677107  0.6396335394181553   T   T   T
  0.7218345148895384  0.7218281784060281  0.6280007140515086   T   T   T
  0.5870579257693943  0.8902172605624473  0.6396236814792198   T   T   T
  0.7501300091672999  0.9514648222002215  0.7297774526432330   T   T   T
  0.5781734429166990  0.5781587305942034  0.7093196580560031   T   T   T
  0.9514753669322343  0.7501686992686173  0.7297892075800683   T   T   T
  0.1757707653502693  0.1776763623467182  0.7575580025689594   T   T   T
 
  0.00000000E+00  0.00000000E+00  0.00000000E+00
  0.00000000E+00  0.00000000E+00  0.00000000E+00
  0.00000000E+00  0.00000000E+00  0.00000000E+00
  0.00000000E+00  0.00000000E+00  0.00000000E+00
  0.00000000E+00  0.00000000E+00  0.00000000E+00
  0.00000000E+00  0.00000000E+00  0.00000000E+00
  0.00000000E+00  0.00000000E+00  0.00000000E+00
  0.00000000E+00  0.00000000E+00  0.00000000E+00
  0.00000000E+00  0.00000000E+00  0.00000000E+00
  0.00000000E+00  0.00000000E+00  0.00000000E+00
  0.00000000E+00  0.00000000E+00  0.00000000E+00
  0.00000000E+00  0.00000000E+00  0.00000000E+00
  0.00000000E+00  0.00000000E+00  0.00000000E+00
  0.00000000E+00  0.00000000E+00  0.00000000E+00
  0.00000000E+00  0.00000000E+00  0.00000000E+00
  0.00000000E+00  0.00000000E+00  0.00000000E+00
  0.00000000E+00  0.00000000E+00  0.00000000E+00
  0.00000000E+00  0.00000000E+00  0.00000000E+00
  0.00000000E+00  0.00000000E+00  0.00000000E+00
  0.00000000E+00  0.00000000E+00  0.00000000E+00
  0.00000000E+00  0.00000000E+00  0.00000000E+00
  0.00000000E+00  0.00000000E+00  0.00000000E+00
  0.00000000E+00  0.00000000E+00  0.00000000E+00
  0.00000000E+00  0.00000000E+00  0.00000000E+00
  0.00000000E+00  0.00000000E+00  0.00000000E+00
  0.00000000E+00  0.00000000E+00  0.00000000E+00
  0.00000000E+00  0.00000000E+00  0.00000000E+00
  0.00000000E+00  0.00000000E+00  0.00000000E+00
  0.00000000E+00  0.00000000E+00  0.00000000E+00
  0.00000000E+00  0.00000000E+00  0.00000000E+00
  0.00000000E+00  0.00000000E+00  0.00000000E+00
  0.00000000E+00  0.00000000E+00  0.00000000E+00
  0.00000000E+00  0.00000000E+00  0.00000000E+00
  0.00000000E+00  0.00000000E+00  0.00000000E+00
  0.00000000E+00  0.00000000E+00  0.00000000E+00
  0.00000000E+00  0.00000000E+00  0.00000000E+00
  0.00000000E+00  0.00000000E+00  0.00000000E+00
  0.00000000E+00  0.00000000E+00  0.00000000E+00
  0.00000000E+00  0.00000000E+00  0.00000000E+00
  0.00000000E+00  0.00000000E+00  0.00000000E+00
  0.00000000E+00  0.00000000E+00  0.00000000E+00
  0.00000000E+00  0.00000000E+00  0.00000000E+00
  0.00000000E+00  0.00000000E+00  0.00000000E+00
  0.00000000E+00  0.00000000E+00  0.00000000E+00
  0.00000000E+00  0.00000000E+00  0.00000000E+00
  0.00000000E+00  0.00000000E+00  0.00000000E+00
  0.00000000E+00  0.00000000E+00  0.00000000E+00
  0.00000000E+00  0.00000000E+00  0.00000000E+00
  0.00000000E+00  0.00000000E+00  0.00000000E+00
  0.00000000E+00  0.00000000E+00  0.00000000E+00
  0.00000000E+00  0.00000000E+00  0.00000000E+00
  0.00000000E+00  0.00000000E+00  0.00000000E+00
  0.00000000E+00  0.00000000E+00  0.00000000E+00
  0.00000000E+00  0.00000000E+00  0.00000000E+00
  0.00000000E+00  0.00000000E+00  0.00000000E+00
  0.00000000E+00  0.00000000E+00  0.00000000E+00
  0.00000000E+00  0.00000000E+00  0.00000000E+00
  0.00000000E+00  0.00000000E+00  0.00000000E+00
  0.00000000E+00  0.00000000E+00  0.00000000E+00
  0.00000000E+00  0.00000000E+00  0.00000000E+00
  0.00000000E+00  0.00000000E+00  0.00000000E+00
  0.00000000E+00  0.00000000E+00  0.00000000E+00
  0.00000000E+00  0.00000000E+00  0.00000000E+00
  0.00000000E+00  0.00000000E+00  0.00000000E+00
  0.00000000E+00  0.00000000E+00  0.00000000E+00
  0.00000000E+00  0.00000000E+00  0.00000000E+00
  0.00000000E+00  0.00000000E+00  0.00000000E+00
  0.00000000E+00  0.00000000E+00  0.00000000E+00
  0.00000000E+00  0.00000000E+00  0.00000000E+00
  0.00000000E+00  0.00000000E+00  0.00000000E+00
  0.00000000E+00  0.00000000E+00  0.00000000E+00
  0.00000000E+00  0.00000000E+00  0.00000000E+00
  0.00000000E+00  0.00000000E+00  0.00000000E+00
  0.00000000E+00  0.00000000E+00  0.00000000E+00
  0.00000000E+00  0.00000000E+00  0.00000000E+00
  0.00000000E+00  0.00000000E+00  0.00000000E+00
  0.00000000E+00  0.00000000E+00  0.00000000E+00
  0.00000000E+00  0.00000000E+00  0.00000000E+00
  0.00000000E+00  0.00000000E+00  0.00000000E+00
  0.00000000E+00  0.00000000E+00  0.00000000E+00
  0.00000000E+00  0.00000000E+00  0.00000000E+00
  0.00000000E+00  0.00000000E+00  0.00000000E+00
  0.00000000E+00  0.00000000E+00  0.00000000E+00
  0.00000000E+00  0.00000000E+00  0.00000000E+00
  0.00000000E+00  0.00000000E+00  0.00000000E+00
  0.00000000E+00  0.00000000E+00  0.00000000E+00
  0.00000000E+00  0.00000000E+00  0.00000000E+00
  0.00000000E+00  0.00000000E+00  0.00000000E+00
  0.00000000E+00  0.00000000E+00  0.00000000E+00
  0.00000000E+00  0.00000000E+00  0.00000000E+00
  0.00000000E+00  0.00000000E+00  0.00000000E+00
  0.00000000E+00  0.00000000E+00  0.00000000E+00
  0.00000000E+00  0.00000000E+00  0.00000000E+00
  0.00000000E+00  0.00000000E+00  0.00000000E+00
  0.00000000E+00  0.00000000E+00  0.00000000E+00
  0.00000000E+00  0.00000000E+00  0.00000000E+00
  0.00000000E+00  0.00000000E+00  0.00000000E+00
  0.00000000E+00  0.00000000E+00  0.00000000E+00
  0.00000000E+00  0.00000000E+00  0.00000000E+00
  0.00000000E+00  0.00000000E+00  0.00000000E+00
  0.00000000E+00  0.00000000E+00  0.00000000E+00
  0.00000000E+00  0.00000000E+00  0.00000000E+00
  0.00000000E+00  0.00000000E+00  0.00000000E+00
  0.00000000E+00  0.00000000E+00  0.00000000E+00
  0.00000000E+00  0.00000000E+00  0.00000000E+00
  0.00000000E+00  0.00000000E+00  0.00000000E+00
  0.00000000E+00  0.00000000E+00  0.00000000E+00
  0.00000000E+00  0.00000000E+00  0.00000000E+00
  0.00000000E+00  0.00000000E+00  0.00000000E+00
  0.00000000E+00  0.00000000E+00  0.00000000E+00
  0.00000000E+00  0.00000000E+00  0.00000000E+00
  0.00000000E+00  0.00000000E+00  0.00000000E+00
  0.00000000E+00  0.00000000E+00  0.00000000E+00
  0.00000000E+00  0.00000000E+00  0.00000000E+00
  0.00000000E+00  0.00000000E+00  0.00000000E+00
  0.00000000E+00  0.00000000E+00  0.00000000E+00
  0.00000000E+00  0.00000000E+00  0.00000000E+00
  0.00000000E+00  0.00000000E+00  0.00000000E+00
  0.00000000E+00  0.00000000E+00  0.00000000E+00
  0.00000000E+00  0.00000000E+00  0.00000000E+00
  0.00000000E+00  0.00000000E+00  0.00000000E+00
  0.00000000E+00  0.00000000E+00  0.00000000E+00
  0.00000000E+00  0.00000000E+00  0.00000000E+00
  0.00000000E+00  0.00000000E+00  0.00000000E+00
  0.00000000E+00  0.00000000E+00  0.00000000E+00
  0.00000000E+00  0.00000000E+00  0.00000000E+00
  0.00000000E+00  0.00000000E+00  0.00000000E+00
  0.00000000E+00  0.00000000E+00  0.00000000E+00
  0.00000000E+00  0.00000000E+00  0.00000000E+00
  0.00000000E+00  0.00000000E+00  0.00000000E+00
  0.00000000E+00  0.00000000E+00  0.00000000E+00
  0.00000000E+00  0.00000000E+00  0.00000000E+00
  0.00000000E+00  0.00000000E+00  0.00000000E+00
  0.00000000E+00  0.00000000E+00  0.00000000E+00
  0.00000000E+00  0.00000000E+00  0.00000000E+00
  0.00000000E+00  0.00000000E+00  0.00000000E+00
  0.00000000E+00  0.00000000E+00  0.00000000E+00
  0.00000000E+00  0.00000000E+00  0.00000000E+00
  0.00000000E+00  0.00000000E+00  0.00000000E+00
  0.00000000E+00  0.00000000E+00  0.00000000E+00
  0.00000000E+00  0.00000000E+00  0.00000000E+00
  0.00000000E+00  0.00000000E+00  0.00000000E+00
  0.00000000E+00  0.00000000E+00  0.00000000E+00
  0.00000000E+00  0.00000000E+00  0.00000000E+00
  0.00000000E+00  0.00000000E+00  0.00000000E+00
