Mo  S Cu                                
   1.00000000000000     
    15.9214998300000001    0.0000000000000000    0.0000000000000000
    -7.9622501300000001   13.7910221699999997    0.0000000000000000
     0.0000000000000000    0.0000000000000000   13.5821998300000004
    25    50     3
Direct
  0.1325623738728813  0.0659618385653641  0.6788962342431898
  0.1327184618352671  0.2658054793847481  0.6787845425551166
  0.1335660465597523  0.4656865417461787  0.6785769652520233
  0.1333531894328596  0.6661050156866407  0.6779308349889540
  0.1333957705151958  0.8666377727290372  0.6783546414561027
  0.3332235771791459  0.0662818556492561  0.6785468858636871
  0.3323678979660364  0.2663969111779310  0.6769346096825706
  0.3326875002567327  0.4650249646949579  0.6785386976170384
  0.3332371672043143  0.6661619264654806  0.6789508210095881
  0.3330612850350764  0.8661652662607563  0.6793258210188740
  0.5334153113283103  0.0660943438687852  0.6794057010925998
  0.5337254564822823  0.2661984755096063  0.6786325906124863
  0.5326491921071136  0.4647887359713009  0.6789105115017614
  0.5332126978843910  0.6660885114557318  0.6790641330917095
  0.5329027759819465  0.8659066099862014  0.6800540907881302
  0.7329135260331013  0.0656423304285910  0.6799900263232012
  0.7338031353747014  0.2655183504059839  0.6775181133436936
  0.7335167519197355  0.4657235586661541  0.6783750001686786
  0.7342692247841199  0.6669341432527895  0.6776433847302129
  0.7328876953629768  0.8660564551079554  0.6799030590103676
  0.9325594005020497  0.0659139470615653  0.6801359667961424
  0.9332409843984433  0.2656171446213000  0.6789013702555321
  0.9337274694573074  0.4652133790765679  0.6775478104552095
  0.9336159088734036  0.6672241509221114  0.6775476512232838
  0.9332055307022036  0.8664476538990865  0.6789964485017771
  0.0652786988163628  0.1321632142321723  0.5641592334704727
  0.0662840576650657  0.1324546983330844  0.7951135688377698
  0.0662468639768920  0.3320665401740791  0.5634577370694477
  0.0670485580346997  0.3328711198114736  0.7950107313413863
  0.0673941803112321  0.5324803200190393  0.5625371981898445
  0.0670368833621911  0.5327006563225846  0.7929106972684025
  0.0672156465703258  0.7335886732897329  0.5624882713706513
  0.0669635541415453  0.7332328935843445  0.7928004064787612
  0.0661599489706282  0.9331249578292016  0.5634388612384147
  0.0665184845630924  0.9328172274240676  0.7941440841114439
  0.2658257743155020  0.1325306464375174  0.5630620178428219
  0.2662596536187236  0.1329010236606708  0.7933864936937751
  0.2653158420110019  0.3323138084517878  0.5621527548237423
  0.2650517888464212  0.3326377716223202  0.7945421782532746
  0.2671920528180792  0.5327760276408176  0.5634912469136080
  0.2665121642126850  0.5321211051181113  0.7942327679590532
  0.2672298086909368  0.7332349460774936  0.5635434387154079
  0.2658967921284308  0.7324082258400317  0.7941541469404787
  0.2669888087072246  0.9331037275153333  0.5635017711952950
  0.2663123660746532  0.9331761325260207  0.7940609404893362
  0.4669277223450088  0.1327352192640938  0.5637107154010148
  0.4660352794184491  0.1324196101508883  0.7944795849669825
  0.4663136856771505  0.3316793122351992  0.5626049518853564
  0.4656986396707804  0.3317089755540032  0.7937294226921923
  0.4666394121259205  0.5323933173626448  0.5637102074042293
  0.4665037466760829  0.5326511633663977  0.7944612349632998
  0.4667171940642527  0.7330790419098306  0.5642783770017953
  0.4661028359447422  0.7321795749808568  0.7948027767887956
  0.4665856143659436  0.9326516478085671  0.5645678435535133
  0.4661586084132139  0.9328626370685429  0.7950254235920812
  0.6663794204339523  0.1316328221374903  0.5637564828494609
  0.6666821602442949  0.1328653309124562  0.7946149551694778
  0.6670636463681657  0.3329175555020077  0.5628181754079959
  0.6661266549493103  0.3296461821268521  0.7960484238061349
  0.6666836963393907  0.5323277757643665  0.5635237521186882
  0.6663147730959015  0.5342932026622979  0.7958466890522884
  0.6665538947934129  0.7332805476238022  0.5638814201586005
  0.6666816177341219  0.7322943800978072  0.7941296396822164
  0.6660711689048494  0.9325076695115042  0.5649115503446491
  0.6661023382665364  0.9324626864507057  0.7955970641084320
  0.8658835097579377  0.1319256166372232  0.5646383531821245
  0.8662454222800431  0.1329224440165810  0.7953598860895964
  0.8668861550542279  0.3316741750335740  0.5625320905115561
  0.8669349636988891  0.3327097431071414  0.7935179028355862
  0.8667450127661533  0.5326692556211373  0.5630799334058418
  0.8706314070862562  0.5345856193219900  0.7951016349614991
  0.8669537393779972  0.7339920304215167  0.5624520600998397
  0.8671715108197463  0.7331566420006940  0.7937320205846479
  0.8659501515093209  0.9331084037119761  0.5646330107622241
  0.8662771950269185  0.9324012795031541  0.7951760998489846
  0.2331234451639290  0.3410175125219992  0.9486368680039257
  0.4750762682172130  0.3245164122119081  0.9526551514087233
  0.7332780143375697  0.4642994636103332  0.8902087406947995
 
  0.00000000E+00  0.00000000E+00  0.00000000E+00
  0.00000000E+00  0.00000000E+00  0.00000000E+00
  0.00000000E+00  0.00000000E+00  0.00000000E+00
  0.00000000E+00  0.00000000E+00  0.00000000E+00
  0.00000000E+00  0.00000000E+00  0.00000000E+00
  0.00000000E+00  0.00000000E+00  0.00000000E+00
  0.00000000E+00  0.00000000E+00  0.00000000E+00
  0.00000000E+00  0.00000000E+00  0.00000000E+00
  0.00000000E+00  0.00000000E+00  0.00000000E+00
  0.00000000E+00  0.00000000E+00  0.00000000E+00
  0.00000000E+00  0.00000000E+00  0.00000000E+00
  0.00000000E+00  0.00000000E+00  0.00000000E+00
  0.00000000E+00  0.00000000E+00  0.00000000E+00
  0.00000000E+00  0.00000000E+00  0.00000000E+00
  0.00000000E+00  0.00000000E+00  0.00000000E+00
  0.00000000E+00  0.00000000E+00  0.00000000E+00
  0.00000000E+00  0.00000000E+00  0.00000000E+00
  0.00000000E+00  0.00000000E+00  0.00000000E+00
  0.00000000E+00  0.00000000E+00  0.00000000E+00
  0.00000000E+00  0.00000000E+00  0.00000000E+00
  0.00000000E+00  0.00000000E+00  0.00000000E+00
  0.00000000E+00  0.00000000E+00  0.00000000E+00
  0.00000000E+00  0.00000000E+00  0.00000000E+00
  0.00000000E+00  0.00000000E+00  0.00000000E+00
  0.00000000E+00  0.00000000E+00  0.00000000E+00
  0.00000000E+00  0.00000000E+00  0.00000000E+00
  0.00000000E+00  0.00000000E+00  0.00000000E+00
  0.00000000E+00  0.00000000E+00  0.00000000E+00
  0.00000000E+00  0.00000000E+00  0.00000000E+00
  0.00000000E+00  0.00000000E+00  0.00000000E+00
  0.00000000E+00  0.00000000E+00  0.00000000E+00
  0.00000000E+00  0.00000000E+00  0.00000000E+00
  0.00000000E+00  0.00000000E+00  0.00000000E+00
  0.00000000E+00  0.00000000E+00  0.00000000E+00
  0.00000000E+00  0.00000000E+00  0.00000000E+00
  0.00000000E+00  0.00000000E+00  0.00000000E+00
  0.00000000E+00  0.00000000E+00  0.00000000E+00
  0.00000000E+00  0.00000000E+00  0.00000000E+00
  0.00000000E+00  0.00000000E+00  0.00000000E+00
  0.00000000E+00  0.00000000E+00  0.00000000E+00
  0.00000000E+00  0.00000000E+00  0.00000000E+00
  0.00000000E+00  0.00000000E+00  0.00000000E+00
  0.00000000E+00  0.00000000E+00  0.00000000E+00
  0.00000000E+00  0.00000000E+00  0.00000000E+00
  0.00000000E+00  0.00000000E+00  0.00000000E+00
  0.00000000E+00  0.00000000E+00  0.00000000E+00
  0.00000000E+00  0.00000000E+00  0.00000000E+00
  0.00000000E+00  0.00000000E+00  0.00000000E+00
  0.00000000E+00  0.00000000E+00  0.00000000E+00
  0.00000000E+00  0.00000000E+00  0.00000000E+00
  0.00000000E+00  0.00000000E+00  0.00000000E+00
  0.00000000E+00  0.00000000E+00  0.00000000E+00
  0.00000000E+00  0.00000000E+00  0.00000000E+00
  0.00000000E+00  0.00000000E+00  0.00000000E+00
  0.00000000E+00  0.00000000E+00  0.00000000E+00
  0.00000000E+00  0.00000000E+00  0.00000000E+00
  0.00000000E+00  0.00000000E+00  0.00000000E+00
  0.00000000E+00  0.00000000E+00  0.00000000E+00
  0.00000000E+00  0.00000000E+00  0.00000000E+00
  0.00000000E+00  0.00000000E+00  0.00000000E+00
  0.00000000E+00  0.00000000E+00  0.00000000E+00
  0.00000000E+00  0.00000000E+00  0.00000000E+00
  0.00000000E+00  0.00000000E+00  0.00000000E+00
  0.00000000E+00  0.00000000E+00  0.00000000E+00
  0.00000000E+00  0.00000000E+00  0.00000000E+00
  0.00000000E+00  0.00000000E+00  0.00000000E+00
  0.00000000E+00  0.00000000E+00  0.00000000E+00
  0.00000000E+00  0.00000000E+00  0.00000000E+00
  0.00000000E+00  0.00000000E+00  0.00000000E+00
  0.00000000E+00  0.00000000E+00  0.00000000E+00
  0.00000000E+00  0.00000000E+00  0.00000000E+00
  0.00000000E+00  0.00000000E+00  0.00000000E+00
  0.00000000E+00  0.00000000E+00  0.00000000E+00
  0.00000000E+00  0.00000000E+00  0.00000000E+00
  0.00000000E+00  0.00000000E+00  0.00000000E+00
  0.00000000E+00  0.00000000E+00  0.00000000E+00
  0.00000000E+00  0.00000000E+00  0.00000000E+00
  0.00000000E+00  0.00000000E+00  0.00000000E+00
