Mo  S Cu                                
   1.00000000000000     
    15.9214998300000001    0.0000000000000000    0.0000000000000000
    -7.9622501300000001   13.7910221699999997    0.0000000000000000
     0.0000000000000000    0.0000000000000000   13.5821998300000004
   Mo   S    Cu
    25    49     4
Direct
  0.1317940877758375  0.0652233105637308  0.6791559720050344
  0.1305307696196678  0.2642666785536179  0.6753843660121817
  0.1325391109344878  0.4652889879435449  0.6796332335529769
  0.1323082177862673  0.6656041855047832  0.6783255726963731
  0.1323213753265549  0.8653882220462563  0.6777100636249287
  0.3309633444604927  0.0645208555320664  0.6795241617378949
  0.3326637191900517  0.2641091658522683  0.6783384477417442
  0.3320488134343123  0.4635962204583777  0.6768551717488549
  0.3319245318028621  0.6641320153369179  0.6790818880311278
  0.3319042993285564  0.8646782636662280  0.6792171358391670
  0.5318932161209773  0.0642425901569155  0.6824000125233667
  0.5328268301695047  0.2651732525084398  0.6818443549803490
  0.5320755889015913  0.4654374643222212  0.6802445246604734
  0.5321073572447901  0.6645160101086773  0.6787870674025882
  0.5323125716191583  0.8647041605846724  0.6795870438860661
  0.7330270314569773  0.0645788116835888  0.6808978471904652
  0.7320305293349350  0.2653046618806698  0.6827442626783196
  0.7344704105111646  0.4695387285019663  0.6755135403455199
  0.7328913496849481  0.6667105047084334  0.6768612237364096
  0.7323343103402351  0.8649456474249320  0.6786741911783309
  0.9324890002362665  0.0648317220660815  0.6795241069021500
  0.9317891736531365  0.2644070485571959  0.6828145771779361
  0.9319799103413970  0.4659093505745489  0.6807398819054669
  0.9333472087537089  0.6667411990467684  0.6767608785113168
  0.9324759604470003  0.8655661185526995  0.6773264890518860
  0.0647839307482982  0.1308883837324615  0.5626242393581578
  0.0679548211922878  0.1330687718966743  0.7949295681423649
  0.0632256836753058  0.3313497481073355  0.5645694903831426
  0.0686672749519772  0.3347513845315575  0.7968793656466389
  0.0648467492765477  0.5311612854411862  0.5646393367892628
  0.0665975364693665  0.5334749719594498  0.7940948972549862
  0.0667899067454343  0.7326807852968145  0.5620635377562664
  0.0656812986611470  0.7326001912070836  0.7928167710986926
  0.0661434189286183  0.9327652471403098  0.5625962316245392
  0.0649675143203794  0.9310866250185228  0.7929865811455414
  0.2653468282907241  0.1317948257245618  0.5638214001765718
  0.2631166665653240  0.1318942960916587  0.7955863353322741
  0.2651739674487104  0.3296144573679882  0.5656644088529390
  0.2654243386835589  0.5307555535847825  0.5635616777045982
  0.2658812839683264  0.5284474390647631  0.7941429259736523
  0.2660462829422414  0.7315076906498135  0.5637623778382732
  0.2650854828237428  0.7308983568847367  0.7939440736479213
  0.2664019616498479  0.9324997282370475  0.5635465006502969
  0.2641187336833610  0.9306262924849094  0.7939773748557286
  0.4660701012650890  0.1322236265840218  0.5671945555608247
  0.4627310947785546  0.1276382734588140  0.7982453811293695
  0.4663067274642145  0.3306113317135484  0.5663586493444441
  0.4661831684496960  0.3352680880568215  0.8026069290895848
  0.4652724798442094  0.5308947899080749  0.5635546167755052
  0.4626554809540409  0.5294006217606295  0.7944574956888957
  0.4653016950110214  0.7312873540684208  0.5643342256230568
  0.4652662616349232  0.7306957049021676  0.7940398917371922
  0.4661281585461552  0.9324481362132815  0.5651927033923982
  0.4640401665472922  0.9289126832832579  0.7954076234216743
  0.6658088490027296  0.1323034290875356  0.5677495828890642
  0.6637426814975598  0.1271895085209636  0.7991203542416727
  0.6656366456119827  0.3311703716668077  0.5660403559798866
  0.6696434401150668  0.3411488069270447  0.7941251374632898
  0.6643562933092468  0.5328844598123510  0.5621777615242962
  0.6673690711586389  0.5352291030311918  0.7924543090943246
  0.6648574569038388  0.7323891276478349  0.5627360162766024
  0.6657420457564172  0.7314907980486112  0.7934374098513786
  0.6659306250220212  0.9325480287381325  0.5645491260019213
  0.6655864467455785  0.9300825720400496  0.7948826404364979
  0.8659864757279649  0.1326357523591142  0.5661735460501660
  0.8661102433461494  0.1301731529207686  0.7964658510819262
  0.8646024279971058  0.3305834324746613  0.5682320286558777
  0.8670361212497326  0.3334465705430105  0.8004770548244124
  0.8677573814133837  0.5328661853091319  0.5621403824083444
  0.8666546933001982  0.5354267990808665  0.7930215502914919
  0.8661351622217524  0.7329216459594079  0.5614895971017759
  0.8661605665879932  0.7327398936361575  0.7920288090749992
  0.8654979254688513  0.9326662371175445  0.5632628707810383
  0.8659294884877511  0.9310511650147788  0.7936980926451653
  0.3204141235759010  0.2948319671961315  0.8678745666799585
  0.5425593752471229  0.2608749445929703  0.8957114525579897
  0.7141970952705847  0.2600189058824895  0.8953839590230928
  0.1790563184369987  0.2996056689403801  0.8616212043349805
 
  0.00000000E+00  0.00000000E+00  0.00000000E+00
  0.00000000E+00  0.00000000E+00  0.00000000E+00
  0.00000000E+00  0.00000000E+00  0.00000000E+00
  0.00000000E+00  0.00000000E+00  0.00000000E+00
  0.00000000E+00  0.00000000E+00  0.00000000E+00
  0.00000000E+00  0.00000000E+00  0.00000000E+00
  0.00000000E+00  0.00000000E+00  0.00000000E+00
  0.00000000E+00  0.00000000E+00  0.00000000E+00
  0.00000000E+00  0.00000000E+00  0.00000000E+00
  0.00000000E+00  0.00000000E+00  0.00000000E+00
  0.00000000E+00  0.00000000E+00  0.00000000E+00
  0.00000000E+00  0.00000000E+00  0.00000000E+00
  0.00000000E+00  0.00000000E+00  0.00000000E+00
  0.00000000E+00  0.00000000E+00  0.00000000E+00
  0.00000000E+00  0.00000000E+00  0.00000000E+00
  0.00000000E+00  0.00000000E+00  0.00000000E+00
  0.00000000E+00  0.00000000E+00  0.00000000E+00
  0.00000000E+00  0.00000000E+00  0.00000000E+00
  0.00000000E+00  0.00000000E+00  0.00000000E+00
  0.00000000E+00  0.00000000E+00  0.00000000E+00
  0.00000000E+00  0.00000000E+00  0.00000000E+00
  0.00000000E+00  0.00000000E+00  0.00000000E+00
  0.00000000E+00  0.00000000E+00  0.00000000E+00
  0.00000000E+00  0.00000000E+00  0.00000000E+00
  0.00000000E+00  0.00000000E+00  0.00000000E+00
  0.00000000E+00  0.00000000E+00  0.00000000E+00
  0.00000000E+00  0.00000000E+00  0.00000000E+00
  0.00000000E+00  0.00000000E+00  0.00000000E+00
  0.00000000E+00  0.00000000E+00  0.00000000E+00
  0.00000000E+00  0.00000000E+00  0.00000000E+00
  0.00000000E+00  0.00000000E+00  0.00000000E+00
  0.00000000E+00  0.00000000E+00  0.00000000E+00
  0.00000000E+00  0.00000000E+00  0.00000000E+00
  0.00000000E+00  0.00000000E+00  0.00000000E+00
  0.00000000E+00  0.00000000E+00  0.00000000E+00
  0.00000000E+00  0.00000000E+00  0.00000000E+00
  0.00000000E+00  0.00000000E+00  0.00000000E+00
  0.00000000E+00  0.00000000E+00  0.00000000E+00
  0.00000000E+00  0.00000000E+00  0.00000000E+00
  0.00000000E+00  0.00000000E+00  0.00000000E+00
  0.00000000E+00  0.00000000E+00  0.00000000E+00
  0.00000000E+00  0.00000000E+00  0.00000000E+00
  0.00000000E+00  0.00000000E+00  0.00000000E+00
  0.00000000E+00  0.00000000E+00  0.00000000E+00
  0.00000000E+00  0.00000000E+00  0.00000000E+00
  0.00000000E+00  0.00000000E+00  0.00000000E+00
  0.00000000E+00  0.00000000E+00  0.00000000E+00
  0.00000000E+00  0.00000000E+00  0.00000000E+00
  0.00000000E+00  0.00000000E+00  0.00000000E+00
  0.00000000E+00  0.00000000E+00  0.00000000E+00
  0.00000000E+00  0.00000000E+00  0.00000000E+00
  0.00000000E+00  0.00000000E+00  0.00000000E+00
  0.00000000E+00  0.00000000E+00  0.00000000E+00
  0.00000000E+00  0.00000000E+00  0.00000000E+00
  0.00000000E+00  0.00000000E+00  0.00000000E+00
  0.00000000E+00  0.00000000E+00  0.00000000E+00
  0.00000000E+00  0.00000000E+00  0.00000000E+00
  0.00000000E+00  0.00000000E+00  0.00000000E+00
  0.00000000E+00  0.00000000E+00  0.00000000E+00
  0.00000000E+00  0.00000000E+00  0.00000000E+00
  0.00000000E+00  0.00000000E+00  0.00000000E+00
  0.00000000E+00  0.00000000E+00  0.00000000E+00
  0.00000000E+00  0.00000000E+00  0.00000000E+00
  0.00000000E+00  0.00000000E+00  0.00000000E+00
  0.00000000E+00  0.00000000E+00  0.00000000E+00
  0.00000000E+00  0.00000000E+00  0.00000000E+00
  0.00000000E+00  0.00000000E+00  0.00000000E+00
  0.00000000E+00  0.00000000E+00  0.00000000E+00
  0.00000000E+00  0.00000000E+00  0.00000000E+00
  0.00000000E+00  0.00000000E+00  0.00000000E+00
  0.00000000E+00  0.00000000E+00  0.00000000E+00
  0.00000000E+00  0.00000000E+00  0.00000000E+00
  0.00000000E+00  0.00000000E+00  0.00000000E+00
  0.00000000E+00  0.00000000E+00  0.00000000E+00
  0.00000000E+00  0.00000000E+00  0.00000000E+00
  0.00000000E+00  0.00000000E+00  0.00000000E+00
  0.00000000E+00  0.00000000E+00  0.00000000E+00
  0.00000000E+00  0.00000000E+00  0.00000000E+00
