Ta  N  W Cu                             
   1.00000000000000     
    18.1096308199999996    0.0000000000000000    0.0000000000000000
     0.0000000000000000   23.3551997799999995    0.0000000000000000
     0.0000000000000000    0.0000000000000000   30.4818171199999988
   Ta   N    W    Cu
   228   240    12     4
Direct
  0.0001088434164487  0.0000704233200750  0.1974696449754347
  0.3341552628049556  0.0626234565253512  0.2027238122071822
  0.1658910443264503  0.0626153305896366  0.2027861165921365
  0.2501085587468381  0.1251300044552579  0.2780426267529990
  0.0828297566275324  0.0626210116382850  0.2840679039036402
  0.4172161211946346  0.0626288165117543  0.2840203569524107
  0.0000786774766510  0.1250842562393046  0.3698545096004935
  0.3326334324775502  0.0626460129409239  0.3684656357709528
  0.1674852929694666  0.0626580572318218  0.3683544008391024
  0.2503247224511114  0.1253586635945467  0.4551391587370404
  0.0839122623496706  0.0626283727388923  0.4545589143162303
  0.4163648409732374  0.0625877899286493  0.4543897370878156
  0.9997077304493303  0.1252734700081177  0.5408907775692597
  0.3351256441294268  0.0625830242062904  0.5419587584987156
  0.0001528222729021  0.1250844865858767  0.1974977710157901
  0.3341949325411804  0.1876431061189692  0.2028231929530691
  0.1659357214544883  0.1876344287681917  0.2028549499668202
  0.2502207663262936  0.2501140801814472  0.2781100049314134
  0.0828187832399934  0.1876096893977532  0.2840806703203569
  0.4172806391586761  0.1876200731033748  0.2841459714300782
  0.0000674857517922  0.2501155790293836  0.3698708991793680
  0.3326193022347255  0.1875928624238981  0.3685996984918560
  0.1676150241965928  0.1875978331855848  0.3684447986385919
  0.2505114278224383  0.2497384109016778  0.4552854009387488
  0.0835603799786355  0.1875445988250561  0.4546006446813138
  0.4165120738110559  0.1874350342738680  0.4545898027886537
  0.9993385963102526  0.2499782033922315  0.5408728051356562
  0.3351515409288410  0.1858747336374691  0.5420849834673405
  0.1648060944179832  0.1874733180890829  0.5417905196346027
  0.0001402264812498  0.2500270412603030  0.1975086875344303
  0.3341993303344566  0.3126514690125646  0.2029307662252933
  0.1659439500001767  0.3126533650324035  0.2028866465802750
  0.2502371206681033  0.3751897937485182  0.2781982422134348
  0.0828437422593709  0.3126025153006040  0.2841042004141769
  0.4172552512437235  0.3126315854879138  0.2842689022554126
  0.0000301089135348  0.3750665700771023  0.3698675864731555
  0.3327385027270182  0.3126385530798785  0.3688579248543746
  0.1676080633640282  0.3126297451046014  0.3683914005895019
  0.2505583924721222  0.3753364160675403  0.4554095094938972
  0.0837944152105621  0.3125429392489281  0.4544107637721666
  0.4166877299142442  0.3124947561661457  0.4549762209462926
  0.9989943082238142  0.3752528780317874  0.5405469082556777
  0.3305894401022371  0.3114990814395568  0.5412024550319501
  0.0002427371512397  0.3750967273640811  0.1974989194176473
  0.3342599145270597  0.4376153216183525  0.2029348720715376
  0.1659684059268827  0.4376441012775985  0.2028954348114596
  0.2500785762308553  0.0001234691022205  0.2779858711864378
  0.0828422106593578  0.4376395088787319  0.2840741774835536
  0.4172938356305806  0.4376616633694894  0.2843262689784254
  0.0000804179271370  0.0001744691538974  0.3698324739284828
  0.3327614984317080  0.4376657548741676  0.3689302554083653
  0.1676524401239661  0.4376767230623173  0.3684382412948608
  0.2504507959742597  0.9998318680013227  0.4550072008751584
  0.0833354483565500  0.4376385842659687  0.4544445032805484
  0.4168850967794242  0.4375969882261330  0.4551146737733518
  0.9997743454139538  0.0001013325170760  0.5410763729624861
  0.3302998989812593  0.4372742589210645  0.5409917943473914
  0.1627497195241574  0.4375925779729073  0.5415177027649634
  0.0002007153373071  0.5000618353277346  0.1974835005363147
  0.3342787286335991  0.5625574744322819  0.2029206975226003
  0.1659674979151191  0.5626110349875049  0.2028842084865587
  0.2502674149787651  0.6251576242806536  0.2781631894230401
  0.0828513831235895  0.5626428427570502  0.2840767935659798
  0.4172229082593972  0.5626747003002279  0.2843121005459111
  0.0000065516098928  0.6252373407316512  0.3698501881588996
  0.3327561645916077  0.5627077432868504  0.3689986359928028
  0.1675687667546768  0.5627594288026216  0.3684044487250731
  0.2505017539632988  0.6255700108612103  0.4553863018373079
  0.0837180546242138  0.5627825478358304  0.4544084618900754
  0.4167558931500039  0.5626446567780476  0.4551984118542975
  0.9989456892013209  0.6253722404251647  0.5406010000821482
  0.3297527010757477  0.5629512883914600  0.5414679324547009
  0.0002249736029185  0.6250955692354623  0.1974858703891442
  0.3342020654761129  0.6875627878663479  0.2028736470558243
  0.1659721075208012  0.6875979840358255  0.2028639054686536
  0.2501990940969705  0.7501603070430036  0.2780554715128432
  0.0828240416039989  0.6876706790885905  0.2840681811192596
  0.4172206098443993  0.6876535861235951  0.2842523151121270
  0.0000220344484703  0.7502246108674058  0.3698648705632053
  0.3327543588624735  0.6877269934744135  0.3688805395509434
  0.1676240439314398  0.6877677151979498  0.3684377775327334
  0.2505869941364338  0.7500334847376635  0.4552670583329430
  0.0834411447873862  0.6878568615551259  0.4544885315596403
  0.4167552796530245  0.6877897106635515  0.4549716826084165
  0.9993457624081188  0.7502033186393078  0.5407855639528307
  0.3310566081097761  0.6889155699393683  0.5408281217751636
  0.1634435764807449  0.6879429358265483  0.5417391106188205
  0.0001211958405207  0.7501272288729268  0.1974831756468163
  0.3341858007127030  0.8125572802642012  0.2027472965891519
  0.1658965600067290  0.8126058676339269  0.2028233001978990
  0.2500770754175221  0.8751786428061905  0.2780092064391653
  0.0828123099925833  0.8126532279193555  0.2840622467248934
  0.4171981953428485  0.8126341555759993  0.2840861828343151
  0.0000496201141900  0.8752253337543578  0.3698308218136006
  0.3326152318453879  0.8127216269604816  0.3685839042528158
  0.1674974081485487  0.8127615864549682  0.3683545856534636
  0.2502945960174756  0.8756349612722616  0.4550907647434101
  0.0839124138016913  0.8128360076675136  0.4545319469023070
  0.4164195309684260  0.8129019475004782  0.4546101574867762
  0.9996131067097878  0.8753312105632745  0.5409241173311585
  0.3344651530624887  0.8143689480577905  0.5422564128364442
  0.0001374566541799  0.8751638970750193  0.1974688566856173
  0.3341680765742581  0.9375925033566688  0.2027078964750686
  0.1658805634907807  0.9376068064405061  0.2027674913564681
  0.2502725508883401  0.5001550717100471  0.2781951934797533
  0.0827694636909655  0.9376511624269170  0.2840529003237720
  0.4172397407554200  0.9376174273130857  0.2840215483147119
  0.9999719359019892  0.5002099497091237  0.3698505427818262
  0.3325853146207436  0.9376676588896515  0.3684435398097676
  0.1675289686478578  0.9376974980322856  0.3683990447507099
  0.2504344667530773  0.4998973928994914  0.4553291514909361
  0.0835606034899072  0.9377583628229331  0.4545957168032686
  0.4163927569026811  0.9377199752714276  0.4543647791785617
  0.9988121830797212  0.5001303205075160  0.5405548725760809
  0.3357630274584196  0.9378505005929938  0.5417909146491908
  0.1654040367902212  0.9378412789650667  0.5418979170185096
  0.4999776504773124  0.0000877389773635  0.1974937198639140
  0.8342217498219995  0.0626204219088677  0.2027358020545122
  0.6658848505673802  0.0626325886869381  0.2026701162489886
  0.7500720507603234  0.1251166143078422  0.2779031073211797
  0.5828367274444020  0.0626165827694862  0.2839558807429796
  0.9173576416040277  0.0626178064847451  0.2840194670390375
  0.5000254659247432  0.1250390523381100  0.3697529805859361
  0.8327223258416012  0.0626429810387847  0.3682931744394224
  0.6675896436125726  0.0626427921451125  0.3683402180787283
  0.7497406086325924  0.1253522915156822  0.4549960738680312
  0.5838224547664836  0.0626195246289498  0.4542928504037249
  0.9160807125224153  0.0626312051444984  0.4545399137165020
  0.4999250346124171  0.1247191459394799  0.5414452439903670
  0.6649291676668199  0.0629067035719757  0.5418808362131955
  0.4998932879838307  0.1250947939889571  0.1975424382561783
  0.8342111966733867  0.1875793288328254  0.2027683394360551
  0.6658256316422140  0.1875898659916118  0.2027311697818917
  0.7500367381969824  0.2500691197751834  0.2779783195584642
  0.5827866775332069  0.1876124399969825  0.2840437480562059
  0.9174681923531551  0.1875914356443005  0.2840006416470189
  0.5000038537492344  0.2499729299949394  0.3698426270025408
  0.8325557204310385  0.1875759969165429  0.3682710594973955
  0.6675406592511308  0.1875674875533164  0.3683537143273909
  0.7496238653810252  0.2497630394425201  0.4549350588596681
  0.5838915905382152  0.1874587282130875  0.4542621797929982
  0.9164515977936887  0.1875699661883488  0.4545988676318302
  0.8343455791077687  0.1876194996889424  0.5418564836740885
  0.6644428890363940  0.1870174168362482  0.5413430848865204
  0.4998985453111757  0.2501282838458323  0.1976267127962004
  0.8341697799059773  0.3126365454003803  0.2027867458907195
  0.6658367209302796  0.3126464449363766  0.2027745517769475
  0.7500484363672513  0.3751007097316474  0.2779288444397281
  0.5828000262709168  0.3126254134098048  0.2840935689995661
  0.9174981838884619  0.3125814995456864  0.2839768969973022
  0.4999019450938533  0.3751169913361849  0.3700217419835141
  0.8325349299433498  0.3125771013209473  0.3681453678021285
  0.6674451075863956  0.3126068869873038  0.3684609532725389
  0.7497360084611913  0.3754171644357385  0.4548497205656261
  0.5837749558416760  0.3125326694539723  0.4544337117408475
  0.9161737274812083  0.3125569625920690  0.4543184125177078
  0.5021560205912650  0.3748078654890534  0.5414588737282457
  0.6660754685108898  0.3126246652055329  0.5415524886850562
  0.4997948690404002  0.3751538958079266  0.1976929425652543
  0.8341510967068331  0.4375512640702794  0.2028025514450533
  0.6658226981045203  0.4375441918801357  0.2027757272990982
  0.7500682099542431  0.0001117213692581  0.2778933599180249
  0.5827326484196647  0.4376388852584014  0.2841229963344958
  0.9175627955581476  0.4376214501705959  0.2839633313477137
  0.5000642841206613  0.0001112384569026  0.3696209603192600
  0.8324330997342670  0.4376392793558566  0.3681369309131668
  0.6674052172874525  0.4376487770509812  0.3684177926847312
  0.7495932171922419  0.9998174981451129  0.4549355649899951
  0.5839333957591464  0.4376310314316854  0.4543211432492029
  0.9164855589931378  0.4376150963089955  0.4543816832881546
  0.8346352125405545  0.4376941245001760  0.5416245070860697
  0.6654831159643209  0.4374278656808954  0.5410420564847556
  0.4998503297817436  0.5000613069495188  0.1977056236668560
  0.8341510040556201  0.5626106238246109  0.2027942324691168
  0.6658201801094776  0.5626088065929125  0.2027738872240974
  0.7500002832628354  0.6251671504430050  0.2779041010877350
  0.5827436629078306  0.5626505981231276  0.2841131415475857
  0.9175509882929660  0.5626109217204700  0.2839727815230617
  0.4998336919214807  0.6252384368515038  0.3700310405223917
  0.8325293532946674  0.5627103708167169  0.3681007054860430
  0.6674086395176815  0.5627283025719549  0.3684755704967699
  0.7497820511225441  0.6255921999548306  0.4548301709058364
  0.5838999904895914  0.5627086653137354  0.4544067825169620
  0.9161236927921550  0.5627497784442070  0.4542759529819875
  0.5020577591647282  0.6242385023140926  0.5415164177080953
  0.6660425997749186  0.5630357516040760  0.5414272446792268
  0.4998029843032512  0.6250718679714780  0.1976642824592076
  0.8341644086748943  0.6875269255504364  0.2027649121251969
  0.6658464087193892  0.6875100496803981  0.2027377418716299
  0.7500345072009651  0.7501402503284993  0.2779471946383083
  0.5827329763662661  0.6876539825616987  0.2840743985899934
  0.9174858134440598  0.6876493813623128  0.2839402511943732
  0.4999059537738120  0.7503261015404945  0.3698088038962197
  0.8324010456226034  0.6877414904055499  0.3681773928180263
  0.6673732254388369  0.6877750158692422  0.3684064047058655
  0.7495933728017263  0.7499610809121435  0.4548988373952270
  0.5837659314108592  0.6878429553697245  0.4543715000104740
  0.9164776802478229  0.6878005942413807  0.4543846871759598
  0.8345296961301401  0.6877908950601253  0.5416831193546372
  0.6655408733939652  0.6878278776773072  0.5411989460567952
  0.4999156535381033  0.7500132403798645  0.1975819930500791
  0.8342034816969459  0.8126198245473404  0.2027583473647780
  0.6658201262648547  0.8125833502221198  0.2026891437772704
  0.7500823937740648  0.8751677781387031  0.2778806383163968
  0.5827979360399027  0.8126340503510363  0.2839789221994096
  0.9174055793680651  0.8126489246499204  0.2839962390488964
  0.4999688802466480  0.8753011739027485  0.3697356053067153
  0.8326479609149970  0.8127458459606132  0.3682109056707290
  0.6674877582741274  0.8127766389641167  0.3683259396981455
  0.7497624515888575  0.8757177701118337  0.4549732764468146
  0.5839228966043351  0.8129119599510730  0.4542684076254559
  0.9160895842649524  0.8127981634458266  0.4545084896030360
  0.4998516623709790  0.8748104956882941  0.5414177270288505
  0.6649373220857484  0.8134622202918962  0.5415611473416462
  0.4999136058371718  0.8750807655591615  0.1975090852851977
  0.8342042102161926  0.9375759377680737  0.2027095320053007
  0.6658713055579852  0.9375475121628014  0.2026609621143720
  0.7500429895175884  0.5000891889002474  0.2779224445088317
  0.5828086338695826  0.9376274889220255  0.2839665545341603
  0.9173925089503214  0.9376504825204890  0.2840071055037257
  0.4998504993277351  0.5001584500830774  0.3700157961567072
  0.8326388509873652  0.9376870016750516  0.3683516270354517
  0.6676031097952162  0.9376985390264210  0.3683402134655935
  0.7497533531112026  0.4999094490283866  0.4548407107370238
  0.5837236827412511  0.9377196380334780  0.4542392573733807
  0.9164442243672539  0.9377379994030406  0.4546182801995471
  0.8342842641282218  0.9377775250240532  0.5418742090422413
  0.6643776269942308  0.9375270413933094  0.5416598635397065
  0.4055562965693511  0.0001007694039643  0.2322956168956978
  0.2500478960581702  0.0001116526823850  0.1994391245448739
  0.0943974452623024  0.0001203912097694  0.2323553162396124
  0.1550477817984444  0.1251570148250991  0.3158223592430858
  0.0001053865031082  0.1250937002324264  0.3031866148363065
  0.3451617442690775  0.1251723786284913  0.3159214692254437
  0.4010766523403504  0.1251519796231833  0.4024238001537412
  0.2500081440080848  0.1250840339830646  0.3873872133988527
  0.0991358314267856  0.1251157936908456  0.4023775117827384
  0.1523461666594343  0.1249445147228840  0.4876837091223152
  0.9999841240702239  0.1249077960623737  0.4730095934173306
  0.3485554256039336  0.1249524274891201  0.4880916740836625
  0.4022084963884254  0.1251187508567853  0.5707682335426654
  0.2490998810212375  0.1244284890041243  0.5576317571039056
  0.0984235748893738  0.1229114408553613  0.5695337319840661
  0.4055505847117971  0.1251383607637706  0.2323750615515010
  0.2500554936748074  0.1251377721429279  0.1995122703649841
  0.0944449940284429  0.1251108666069953  0.2323826452900235
  0.1551560913481183  0.2501101029063761  0.3158442064457319
  0.0001292962870423  0.2500948047494447  0.3032076014538134
  0.3451856598148311  0.2501356315364092  0.3160629752610049
  0.4011075870006664  0.2500552291448486  0.4025036352347229
  0.2500842916078838  0.2501057529297910  0.3875271900728734
  0.0991913992877613  0.2500564931805300  0.4023287403205771
  0.1522080205327967  0.2501067196555624  0.4876953435430806
  0.9999217098118010  0.2502649545974833  0.4729444573606472
  0.3485826186458922  0.2497033975486289  0.4884655633734241
  0.4046846897978753  0.2495181784913072  0.5714101899489350
  0.2483405411435839  0.2517126042163014  0.5582539140431066
  0.0978408140926561  0.2519108932946068  0.5697192661752837
  0.4055639547242222  0.2501532050742625  0.2325004615365174
  0.2500507583146856  0.2501618941571238  0.1995770459486153
  0.0944350472886697  0.2501257814969975  0.2324106258904166
  0.1551925310880407  0.3751522339693807  0.3158773846843701
  0.0001479358307890  0.3751005032659904  0.3032081392090831
  0.3451559654571668  0.3751775837851170  0.3162011539335694
  0.4010398404032216  0.3751655952180784  0.4027607218189218
  0.2500593928478594  0.3751224132798612  0.3877291982156663
  0.0991619836093278  0.3751470437268196  0.4022204962256097
  0.1518090164466770  0.3749928751404639  0.4874690066892313
  0.9998433490666301  0.3748768734925463  0.4726564154436161
  0.3489380254475023  0.3749821168850858  0.4888424767457096
  0.3984862355136372  0.3753210124642337  0.5732438652413308
  0.2467999880919152  0.3741907894703687  0.5577525524217393
  0.0971521476537376  0.3729582178133271  0.5696274964478363
  0.4055245511599068  0.3751548334627088  0.2326142900980912
  0.2500748964540307  0.3751472150408190  0.1997534039893551
  0.0944480839118356  0.3751241412420399  0.2324481140438053
  0.1550275998326569  0.0001367649507031  0.3157909799148797
  0.0000832227906571  0.0001471428895101  0.3031757406076281
  0.3451436282958866  0.0001309443888999  0.3158053279323809
  0.4009728266517527  0.0000853923814788  0.4021634746208136
  0.2500410330421090  0.0001908690719361  0.3872640250285997
  0.0991698252264115  0.0001707201792911  0.4023743294494793
  0.1525962292770870  0.0002866844449017  0.4877618899389802
  0.0000117512842763  0.0003706987169210  0.4731544538350221
  0.3484745460495517  0.0001274300413812  0.4878334400940361
  0.4068072545333408  0.0000063529796321  0.5696201048150868
  0.2497477158791384  0.0012448900027096  0.5581969832115021
  0.0986125586403190  0.0021655431927385  0.5695979591887976
  0.4055583854699378  0.5001224295602853  0.2326304260959375
  0.2500853196843096  0.5001124019274457  0.1997188490904520
  0.0944238143346965  0.5001305389930053  0.2324278065192118
  0.1552348393079797  0.6252276538087784  0.3158658897125832
  0.0001410621409974  0.6251483067937258  0.3031988977681124
  0.3451291433595074  0.6252017810625929  0.3162360026106583
  0.4010096449781457  0.6251883930426274  0.4028399766934143
  0.2500144922916050  0.6252798778147266  0.3877158729604631
  0.0991167411454015  0.6253021026002301  0.4022336488925831
  0.1518194018638397  0.6252515089929247  0.4875011695043270
  0.9998235436068015  0.6251304844075634  0.4726760556819372
  0.3488157907900629  0.6253662197437251  0.4888868872520931
  0.3982304482975252  0.6250363507747565  0.5733220815564977
  0.2467086743064613  0.6237265314179936  0.5578580234474089
  0.0971378867770483  0.6233695502431473  0.5696128396301106
  0.4055297709043515  0.6250996490080567  0.2325787356678717
  0.2500899256263693  0.6250527010943330  0.1996964155822809
  0.0944405869978979  0.6251141591709342  0.2324165729534897
  0.1551575768852445  0.7501481407090154  0.3158092976759050
  0.0001097088189184  0.7501611426031261  0.3031934660525053
  0.3451166133113475  0.7501418025891056  0.3160503938410315
  0.4010611269929996  0.7501894140849785  0.4025105470897898
  0.2500811724479632  0.7502920046020023  0.3875203894161103
  0.0991541051197373  0.7502876076437488  0.4022962466108453
  0.1522913703245337  0.7504625527783588  0.4876491996503418
  0.9999253084703099  0.7504888011326400  0.4729192662815507
  0.3486674538027756  0.7506220619587651  0.4884597031743709
  0.4050686059819952  0.7508913241754556  0.5713561474590421
  0.2487043609060322  0.7506918351087393  0.5581316235204241
  0.0978634869910238  0.7526290365399859  0.5696465374095041
  0.4055549151624973  0.7500603165463176  0.2324408502339566
  0.2500460903124875  0.7500790998528473  0.1994593209701847
  0.0943996550686705  0.7501171267216336  0.2323750367020949
  0.1550234079573016  0.8751997387612036  0.3157934471359241
  0.0000839246576092  0.8751567774046620  0.3031665860740347
  0.3451328447858515  0.8751251437924239  0.3158869039583294
  0.4009900286414165  0.8752615807773836  0.4023996685402054
  0.2499824330307447  0.8751904297809645  0.3873403424442188
  0.0991103085293332  0.8752528820090006  0.4023506807482562
  0.1523339517125422  0.8752427328666599  0.4876634605382080
  0.9999915953547287  0.8751004425669748  0.4730089751704512
  0.3484536140365577  0.8754765107824412  0.4880682426484597
  0.4020187728540847  0.8754702123246574  0.5707366114301919
  0.2488126356388705  0.8735323623656512  0.5576853227453569
  0.0983455290481103  0.8734265814200484  0.5695158915121326
  0.4055456096127728  0.8750895876826021  0.2323319755018218
  0.2500552236929963  0.8750864259750273  0.1995129561051883
  0.0943984787675447  0.8751297407516176  0.2323706279547295
  0.1552070554091998  0.5001767946964506  0.3158474559581990
  0.0001630872596650  0.5001450765242481  0.3031910943793719
  0.3451897735123879  0.5001976974282485  0.3162451217413818
  0.4011201222517258  0.5001161238376781  0.4028029633347359
  0.2500748671212207  0.5001970201566550  0.3876748408987680
  0.0991169453449032  0.5002131387238578  0.4022170611118483
  0.1517930463356905  0.5002542336095743  0.4874816200061005
  0.9997765640485952  0.5004229900683583  0.4726355447518671
  0.3485154948066267  0.5000828914969304  0.4886955932021806
  0.4001887617298365  0.5001335986853803  0.5723026900071062
  0.2470990142386285  0.5010118549785219  0.5579831115332610
  0.0970668983456591  0.5023921445971951  0.5696151885397001
  0.9057475295218964  0.0001158253033822  0.2323017158036720
  0.7500015944577854  0.0000906027768863  0.1994910820890965
  0.5944417698927538  0.0000963394555740  0.2322335826473534
  0.6549826413229098  0.1251352388275038  0.3157625285529519
  0.5000336069785902  0.1251057708025556  0.3030787148843856
  0.8451495249257448  0.1251297282716877  0.3157165221536999
  0.9009736255089535  0.1251306366660856  0.4023196847416628
  0.7501720445778730  0.1250912696385313  0.3872175893597500
  0.5991338709295491  0.1251165466465878  0.4022358782269890
  0.6516454173131265  0.1249768397087578  0.4878331748369362
  0.5001149235307096  0.1249616919139527  0.4734920112977079
  0.8476731723716782  0.1250013530685123  0.4876171604165762
  0.9011894568467937  0.1231582725662435  0.5695515578142221
  0.7508952907054294  0.1239437608331144  0.5575855644511307
  0.5974932286588199  0.1254569902583498  0.5703435988875682
  0.9057640230392536  0.1250905586976927  0.2322912951220175
  0.7500189129844088  0.1251230284853193  0.1992638353099778
  0.5943758948760163  0.1251310506846153  0.2322642189117516
  0.6549349028749489  0.2501126922952892  0.3157978231774194
  0.5000509664739070  0.2501262447474772  0.3031806593009634
  0.8451638321423403  0.2500659148854751  0.3156918875152996
  0.9008827119849911  0.2500198185555931  0.4022444898533095
  0.7501305763750352  0.2500781000957488  0.3871830593959444
  0.5991003048785757  0.2500363205432592  0.4021929030744644
  0.6518014265073688  0.2500340482236538  0.4876716241409937
  0.5002456301079263  0.2498083098556023  0.4730248249827937
  0.8475828650558270  0.2502770434652177  0.4875777422093819
  0.9009930232982413  0.2522088204236752  0.5696495092153668
  0.7505152056437012  0.2512045607637745  0.5580136982103099
  0.5942012015230134  0.2504693619826526  0.5691806980999488
  0.9057886259094374  0.2501052242414588  0.2323065749610507
  0.7500219285444345  0.2501118700621703  0.1996706060702564
  0.5943674785130781  0.2501200817444129  0.2323380029523108
  0.6549955834104395  0.3751352815234839  0.3158295422271635
  0.5000489977015192  0.3751438799832272  0.3033175622037589
  0.8451387154058452  0.3751061295148901  0.3156487272784716
  0.9008251218533445  0.3751217274261123  0.4021130091880778
  0.7501885135546473  0.3750801100444434  0.3871845646630234
  0.5991398547860811  0.3751315846492247  0.4022635240060808
  0.6517235340195526  0.3750138112505610  0.4876339996957668
  0.5004988820769753  0.3750401300257451  0.4732624563330248
  0.8478198652377458  0.3749768826118824  0.4873838712101559
  0.9009920837409737  0.3730441753833276  0.5695511363432288
  0.7515897278985406  0.3738818722053807  0.5573755940505478
  0.5996649058070602  0.3755105160587959  0.5700976456449141
  0.9058802009883422  0.3751025877598124  0.2322873556505129
  0.7499937778722838  0.3751017311637881  0.1992652912097199
  0.5943357434003431  0.3751465911497647  0.2323695144548878
  0.6549761613076512  0.0001381406960093  0.3157122465060951
  0.5000386557369438  0.0001263394546953  0.3029841557991020
  0.8451245959794846  0.0001160062682288  0.3157329275847260
  0.9009872472017690  0.0001456286566821  0.4023469120301471
  0.7501081356943473  0.0001960723528853  0.3871653130874790
  0.5991847769312244  0.0001293595754674  0.4020859625074706
  0.6516465455996041  0.0001480361653279  0.4877843782083247
  0.5000932006070400  0.0001709002688699  0.4727177496230510
  0.8474426020046835  0.0003033403876316  0.4877334028801030
  0.9011006097163659  0.0022075953641334  0.5696692937019634
  0.7501182680657053  0.0012863195859012  0.5581270489474406
  0.5929318456366488  0.0000385317116596  0.5694249823865647
  0.9058627479949237  0.5000993299082879  0.2323006959011948
  0.7499947745489379  0.5000736549900751  0.1996707999359941
  0.5943686217320590  0.5000942225939085  0.2323871089047600
  0.6549606507653110  0.6251743291114451  0.3158219731510172
  0.4999910409212873  0.6251635688964967  0.3033173549826813
  0.8451014095471905  0.6251913493522636  0.3156345378177932
  0.9008105807216111  0.6252900319320389  0.4021094337586320
  0.7501735188097172  0.6252506832412408  0.3871588151681777
  0.5990820083570867  0.6252865434061832  0.4022743145515904
  0.6517579575593402  0.6253791819121091  0.4876502563925129
  0.5004481079148846  0.6252438160084068  0.4732857997522473
  0.8478533650833526  0.6251253795818101  0.4873990415999359
  0.9008963638376599  0.6232435445669111  0.5695713191510379
  0.7515391756642487  0.6239760609268927  0.5573611204586157
  0.5997048954361901  0.6252978334186921  0.5701313817566671
  0.9058563130690516  0.6250749656678778  0.2322737166829185
  0.7500054027505669  0.6250569270096591  0.1992312994668310
  0.5943205603380264  0.6250828847839074  0.2323492256838691
  0.6549261879915562  0.7501803024053117  0.3157463212802440
  0.4999971894684307  0.7501500700277433  0.3031460690156749
  0.8451451282839528  0.7501517232075798  0.3156739725582014
  0.9008282382390647  0.7502638694577684  0.4022323473579164
  0.7500552895275661  0.7503141919928922  0.3871564504066711
  0.5990183213250617  0.7502624638380340  0.4021277018431348
  0.6517654693699839  0.7503811604568682  0.4876348059876108
  0.5002739339412798  0.7505797037589943  0.4729487218845065
  0.8475425402904833  0.7503518374359075  0.4875533287653369
  0.9009775431381328  0.7522456209296848  0.5696095198039188
  0.7504210132361635  0.7514605117137023  0.5579073314712986
  0.5940638561657394  0.7496861671423360  0.5691999597191213
  0.9057809146144322  0.7501053801614788  0.2322903309466113
  0.7500131685807006  0.7500644012461066  0.1996389462134687
  0.5943932151866349  0.7500502893489411  0.2322978891249150
  0.6549809396671407  0.8751784441085562  0.3157258795011444
  0.5000124926710754  0.8751189181717933  0.3030493211453233
  0.8451402580718081  0.8752101697226564  0.3157122455790713
  0.9009630198527390  0.8752492624832087  0.4023167744489484
  0.7501687752422299  0.8751782536874728  0.3872042276393657
  0.5991120228166338  0.8753310529716245  0.4022047451113053
  0.6516110787915039  0.8754915130674448  0.4877960833857529
  0.5000636321512388  0.8752678136392404  0.4734739729146824
  0.8476796532036914  0.8751419748940776  0.4876163292816642
  0.9010884194872517  0.8731638547588290  0.5695616633774776
  0.7508969081821988  0.8739298181269461  0.5575436656271577
  0.5975063868928743  0.8752222514192383  0.5703390619839013
  0.9057593025607886  0.8751158493600499  0.2322879820294759
  0.7500171052153561  0.8750611659752394  0.1992406645326170
  0.5943874293420137  0.8750924204679507  0.2322360023700298
  0.6549525720002336  0.5001676024103787  0.3158223420514972
  0.5000181653668534  0.5001754905171296  0.3033224574198528
  0.8451329548269655  0.5001259577483381  0.3156278607338976
  0.9008116689279433  0.5001359164504180  0.4021321663271777
  0.7501244948008647  0.5001909865338305  0.3871190302878702
  0.5990313998848080  0.5001726921647176  0.4022180589022071
  0.6519195324139417  0.5001939550213521  0.4875024852044660
  0.5003992014068857  0.5001546410564899  0.4735199665532761
  0.8477575023091646  0.5003188994060537  0.4874372681357286
  0.9009394213985971  0.5022116793984850  0.5696277339009939
  0.7511574461864825  0.5013734974223851  0.5577349451543654
  0.5962362905554315  0.5000661486309141  0.5690765409830547
  0.1643990566691897  0.0625577304152358  0.5403872647338304
  0.1623355732002381  0.3125190794877568  0.5401931841544325
  0.1617168472389707  0.5628185437946911  0.5399931393323030
  0.1637086786802726  0.8129288546678950  0.5402510826493980
  0.8352926935613283  0.0626496763181095  0.5403341563956516
  0.5009426354701176  0.2521502799981334  0.5401023606764852
  0.8354282389145098  0.3126427473036912  0.5401010201677323
  0.4999410634710060  0.0003509468933771  0.5399207130573132
  0.8354223944031745  0.5626850546103839  0.5400189247790124
  0.5010413400157674  0.7491358307827980  0.5400164087203834
  0.8352961571026114  0.8127659004170624  0.5402883817181419
  0.5019732813975608  0.5008520600576389  0.5406255451918369
  0.4383117281090776  0.6876672526290832  0.6084427779605548
  0.4413719984231221  0.5619077761501643  0.6092068948808844
  0.4383369255577563  0.3126971486665795  0.6088987189500799
  0.4410816016968440  0.4381936697971582  0.6088817540260365
 
  0.00000000E+00  0.00000000E+00  0.00000000E+00
  0.00000000E+00  0.00000000E+00  0.00000000E+00
  0.00000000E+00  0.00000000E+00  0.00000000E+00