Ta  N Ru                                
   1.00000000000000     
     9.0548154099999998    0.0000000000000000    0.0000000000000000
     0.0000000000000000   11.6775998899999998    0.0000000000000000
     0.0000000000000000    0.0000000000000000   23.4818170799999990
   Ta   N    Ru
    60    60     2
Selective dynamics
Direct
  0.0000000000000000  0.0000000000000000  0.2546926809530987   F   F   F
  0.6670845899906297  0.1250000003211298  0.2638822399803757   F   F   F
  0.3329153514769843  0.1250000003211298  0.2638822399803757   F   F   F
  0.4999999994478088  0.2499999997859135  0.3618861993156202   F   F   F
  0.1650707596845180  0.1250000003211298  0.3684425577811794   F   F   F
  0.8349292403154820  0.1250000003211298  0.3684425577811794   F   F   F
  0.0002872822006815  0.2499534898231534  0.4798080577714186   T   T   T
  0.6646766721890937  0.1250414182387287  0.4781550936968620   T   T   T
  0.3348186899415473  0.1250340874541141  0.4782445533614771   T   T   T
  0.4997050536756415  0.2501154521925251  0.5911619193033466   T   T   T
  0.1674596887354103  0.1250619846731266  0.5906754948990989   T   T   T
  0.8326606818489568  0.1250534465258012  0.5899597514115694   T   T   T
 -0.0016738143467060  0.2474589822631703  0.7024392463012943   T   T   T
  0.6727654246135997  0.1250792741900565  0.7036804363366037   T   T   T
  0.3412891119007561  0.1250523326942253  0.7022003889119844   T   T   T
  0.0000000000000000  0.2499999997859135  0.2546926809530987   F   F   F
  0.6670845899906297  0.3750000001070433  0.2638822399803757   F   F   F
  0.3329153514769843  0.3750000001070433  0.2638822399803757   F   F   F
  0.4999999994478088  0.5000000004281731  0.3618861993156202   F   F   F
  0.1650707596845180  0.3750000001070433  0.3684425577811794   F   F   F
  0.8349292403154820  0.3750000001070433  0.3684425577811794   F   F   F
  0.0002890472796321  0.5000045288382211  0.4797739768263170   T   T   T
  0.6647137235101519  0.3750288275948682  0.4780329303435550   T   T   T
  0.3349835893028328  0.3749965501742906  0.4782966273169887   T   T   T
  0.4999205067011021  0.5002995639964404  0.5908472839417910   T   T   T
  0.1674426385325700  0.3750907452851411  0.5904871860055622   T   T   T
  0.8321735377773090  0.3751362077880696  0.5896357529443731   T   T   T
  0.0022638584464606  0.5006463380522336  0.7022088801475227   T   T   T
  0.6732541578582640  0.3756303430424180  0.7033692171006206   T   T   T
  0.3330608889192332  0.3776171056719945  0.7047884919308905   T   T   T
  0.0000000000000000  0.5000000004281731  0.2546926809530987   F   F   F
  0.6670845899906297  0.6249999998929567  0.2638822399803757   F   F   F
  0.3329153514769843  0.6249999998929567  0.2638822399803757   F   F   F
  0.4999999994478088  0.7500000002140865  0.3618861993156202   F   F   F
  0.1650707596845180  0.6249999998929567  0.3684425577811794   F   F   F
  0.8349292403154820  0.6249999998929567  0.3684425577811794   F   F   F
  0.0002834426506921  0.7500632465071944  0.4797748269215517   T   T   T
  0.6647874784586195  0.6250309686797054  0.4780479581554336   T   T   T
  0.3348038563147704  0.6250212015485649  0.4782039390940409   T   T   T
  0.4999235477691941  0.7498522305384783  0.5908372576538370   T   T   T
  0.1677246600334564  0.6250607394252859  0.5902551026257001   T   T   T
  0.8326290506013012  0.6250569293022479  0.5898134896393514   T   T   T
  0.0022516457560368  0.7494789547680715  0.7021915706915187   T   T   T
  0.6723288071534566  0.6250746000925959  0.7036990749867065   T   T   T
  0.3290013028902398  0.6250880148405896  0.7042511315785192   T   T   T
  0.0000000000000000  0.7500000002140865  0.2546926809530987   F   F   F
  0.6670845899906297  0.8750000005352163  0.2638822399803757   F   F   F
  0.3329153514769843  0.8750000005352163  0.2638822399803757   F   F   F
  0.4999999994478088  0.0000000000000000  0.3618861993156202   F   F   F
  0.1650707596845180  0.8750000005352163  0.3684425577811794   F   F   F
  0.8349292403154820  0.8750000005352163  0.3684425577811794   F   F   F
  0.0002771305893767  0.0001350436828489  0.4798027315835182   T   T   T
  0.6647039266762824  0.8750330224940229  0.4780268883827422   T   T   T
  0.3349931095212484  0.8750816183258288  0.4782936609921404   T   T   T
  0.4997297164870221  0.0000305361662080  0.5911531615126829   T   T   T
  0.1674541724823652  0.8750607737497654  0.5904753326933673   T   T   T
  0.8321832376194261  0.8750082281391369  0.5896253655388705   T   T   T
 -0.0017042399246947  0.0026540940559795  0.7024245639282423   T   T   T
  0.6732185481529172  0.8744950566483169  0.7033540101489256   T   T   T
  0.3330328610915828  0.8725320880595637  0.7047615037529358   T   T   T
  0.8141011533980276  0.0000000000000000  0.3013105672926031   F   F   F
  0.4999999994478088  0.0000000000000000  0.2564174481620327   F   F   F
  0.1858988466019724  0.0000000000000000  0.3013105672926031   F   F   F
  0.3088456122590841  0.2499999997859135  0.4099867722441957   F   F   F
  0.0000000000000000  0.2499999997859135  0.3930971035158137   F   F   F
  0.6911543877409159  0.2499999997859135  0.4099867722441957   F   F   F
  0.8024551521270108  0.2499549666212442  0.5219384912093603   T   T   T
  0.4996913692736269  0.2499295710041462  0.5030755728921987   T   T   T
  0.1976790011389615  0.2500011372390755  0.5224526006135508   T   T   T
  0.3029859571415747  0.2507412751884140  0.6342591000881445   T   T   T
 -0.0004290461670236  0.2501861689421623  0.6138242510910585   T   T   T
  0.6967547651419805  0.2502138062340845  0.6329115594511552   T   T   T
  0.8050338110069352  0.2503874819627766  0.7404578798565765   T   T   T
  0.5030163295464223  0.2494932462549359  0.7239278505863682   T   T   T
  0.2001686568018092  0.2543908165917749  0.7444098481878071   T   T   T
  0.8141011533980276  0.2499999997859135  0.3013105672926031   F   F   F
  0.4999999994478088  0.2499999997859135  0.2564174481620327   F   F   F
  0.1858988466019724  0.2499999997859135  0.3013105672926031   F   F   F
  0.3088456122590841  0.5000000004281731  0.4099867722441957   F   F   F
  0.0000000000000000  0.5000000004281731  0.3930971035158137   F   F   F
  0.6911543877409159  0.5000000004281731  0.4099867722441957   F   F   F
  0.8025205135339564  0.5001109166075374  0.5219088178715108   T   T   T
  0.4998845246382170  0.5000788197406720  0.5028865923847644   T   T   T
  0.1977592554962412  0.4998013815128923  0.5223420930098160   T   T   T
  0.3038244354739780  0.5000699291105013  0.6335563656487508   T   T   T
 -0.0000173209818543  0.5001946322973795  0.6137071129789705   T   T   T
  0.6961222526906718  0.5004431386657039  0.6329544029135070   T   T   T
  0.8080866904002870  0.5006197759205547  0.7400311869581586   T   T   T
  0.5008861852181731  0.4991690638416870  0.7237709818021588   T   T   T
  0.1957439634552420  0.4998268117616838  0.7412687157583900   T   T   T
  0.8141011533980276  0.5000000004281731  0.3013105672926031   F   F   F
  0.4999999994478088  0.5000000004281731  0.2564174481620327   F   F   F
  0.1858988466019724  0.5000000004281731  0.3013105672926031   F   F   F
  0.3088456122590841  0.7500000002140865  0.4099867722441957   F   F   F
  0.0000000000000000  0.7500000002140865  0.3930971035158137   F   F   F
  0.6911543877409159  0.7500000002140865  0.4099867722441957   F   F   F
  0.8025057469803445  0.7499900013257216  0.5219007502906884   T   T   T
  0.4998981586501946  0.7499879054623473  0.5028738733436335   T   T   T
  0.1977452746060044  0.7502952564637180  0.5223329442491477   T   T   T
  0.3038381695543161  0.7500621724164104  0.6335353332609954   T   T   T
 -0.0000141200259031  0.7499549365547289  0.6136934997143081   T   T   T
  0.6961390417531093  0.7496963703643121  0.6329475393120542   T   T   T
  0.8080811528514849  0.7495329873314439  0.7400215301957663   T   T   T
  0.5008877218356012  0.7509711096827305  0.7237526920699586   T   T   T
  0.1957139169136227  0.7503310015761734  0.7412507871825081   T   T   T
  0.8141011533980276  0.7500000002140865  0.3013105672926031   F   F   F
  0.4999999994478088  0.7500000002140865  0.2564174481620327   F   F   F
  0.1858988466019724  0.7500000002140865  0.3013105672926031   F   F   F
  0.3088456122590841  0.0000000000000000  0.4099867722441957   F   F   F
  0.0000000000000000  0.0000000000000000  0.3930971035158137   F   F   F
  0.6911543877409159  0.0000000000000000  0.4099867722441957   F   F   F
  0.8024397631345059  0.0001296554777824  0.5219367209695888   T   T   T
  0.4996930339493519  0.0001689599148418  0.5030638836710524   T   T   T
  0.1976705205074014  0.0001099828629401  0.5224470834547724   T   T   T
  0.3029867296074827  0.9993995914683327  0.6342395044038962   T   T   T
 -0.0004286435633929 -0.0000338768498448  0.6138238496151999   T   T   T
  0.6967602011191695  0.9999021138011716  0.6329045498265227   T   T   T
  0.8049850406262550  0.9997613849725951  0.7404644146310535   T   T   T
  0.5030064100272873  0.0006310185844524  0.7239070077014798   T   T   T
  0.2001549375537657  0.9957097107322646  0.7443716064180778   T   T   T
  0.1262141863853861  0.1250166275860807  0.7893702226830637   T   T   T
  0.0044186268889953  0.1247010508425790  0.8658744369628611   T   T   T
 
  0.00000000E+00  0.00000000E+00  0.00000000E+00
  0.00000000E+00  0.00000000E+00  0.00000000E+00
  0.00000000E+00  0.00000000E+00  0.00000000E+00
  0.00000000E+00  0.00000000E+00  0.00000000E+00
  0.00000000E+00  0.00000000E+00  0.00000000E+00
  0.00000000E+00  0.00000000E+00  0.00000000E+00
  0.00000000E+00  0.00000000E+00  0.00000000E+00
  0.00000000E+00  0.00000000E+00  0.00000000E+00
  0.00000000E+00  0.00000000E+00  0.00000000E+00
  0.00000000E+00  0.00000000E+00  0.00000000E+00
  0.00000000E+00  0.00000000E+00  0.00000000E+00
  0.00000000E+00  0.00000000E+00  0.00000000E+00
  0.00000000E+00  0.00000000E+00  0.00000000E+00
  0.00000000E+00  0.00000000E+00  0.00000000E+00
  0.00000000E+00  0.00000000E+00  0.00000000E+00
  0.00000000E+00  0.00000000E+00  0.00000000E+00
  0.00000000E+00  0.00000000E+00  0.00000000E+00
  0.00000000E+00  0.00000000E+00  0.00000000E+00
  0.00000000E+00  0.00000000E+00  0.00000000E+00
  0.00000000E+00  0.00000000E+00  0.00000000E+00
  0.00000000E+00  0.00000000E+00  0.00000000E+00
  0.00000000E+00  0.00000000E+00  0.00000000E+00
  0.00000000E+00  0.00000000E+00  0.00000000E+00
  0.00000000E+00  0.00000000E+00  0.00000000E+00
  0.00000000E+00  0.00000000E+00  0.00000000E+00
  0.00000000E+00  0.00000000E+00  0.00000000E+00
  0.00000000E+00  0.00000000E+00  0.00000000E+00
  0.00000000E+00  0.00000000E+00  0.00000000E+00
  0.00000000E+00  0.00000000E+00  0.00000000E+00
  0.00000000E+00  0.00000000E+00  0.00000000E+00
  0.00000000E+00  0.00000000E+00  0.00000000E+00
  0.00000000E+00  0.00000000E+00  0.00000000E+00
  0.00000000E+00  0.00000000E+00  0.00000000E+00
  0.00000000E+00  0.00000000E+00  0.00000000E+00
  0.00000000E+00  0.00000000E+00  0.00000000E+00
  0.00000000E+00  0.00000000E+00  0.00000000E+00
  0.00000000E+00  0.00000000E+00  0.00000000E+00
  0.00000000E+00  0.00000000E+00  0.00000000E+00
  0.00000000E+00  0.00000000E+00  0.00000000E+00
  0.00000000E+00  0.00000000E+00  0.00000000E+00
  0.00000000E+00  0.00000000E+00  0.00000000E+00
  0.00000000E+00  0.00000000E+00  0.00000000E+00
  0.00000000E+00  0.00000000E+00  0.00000000E+00
  0.00000000E+00  0.00000000E+00  0.00000000E+00
  0.00000000E+00  0.00000000E+00  0.00000000E+00
  0.00000000E+00  0.00000000E+00  0.00000000E+00
  0.00000000E+00  0.00000000E+00  0.00000000E+00
  0.00000000E+00  0.00000000E+00  0.00000000E+00
  0.00000000E+00  0.00000000E+00  0.00000000E+00
  0.00000000E+00  0.00000000E+00  0.00000000E+00
  0.00000000E+00  0.00000000E+00  0.00000000E+00
  0.00000000E+00  0.00000000E+00  0.00000000E+00
  0.00000000E+00  0.00000000E+00  0.00000000E+00
  0.00000000E+00  0.00000000E+00  0.00000000E+00
  0.00000000E+00  0.00000000E+00  0.00000000E+00
  0.00000000E+00  0.00000000E+00  0.00000000E+00
  0.00000000E+00  0.00000000E+00  0.00000000E+00
  0.00000000E+00  0.00000000E+00  0.00000000E+00
  0.00000000E+00  0.00000000E+00  0.00000000E+00
  0.00000000E+00  0.00000000E+00  0.00000000E+00
  0.00000000E+00  0.00000000E+00  0.00000000E+00
  0.00000000E+00  0.00000000E+00  0.00000000E+00
  0.00000000E+00  0.00000000E+00  0.00000000E+00
  0.00000000E+00  0.00000000E+00  0.00000000E+00
  0.00000000E+00  0.00000000E+00  0.00000000E+00
  0.00000000E+00  0.00000000E+00  0.00000000E+00
  0.00000000E+00  0.00000000E+00  0.00000000E+00
  0.00000000E+00  0.00000000E+00  0.00000000E+00
  0.00000000E+00  0.00000000E+00  0.00000000E+00
  0.00000000E+00  0.00000000E+00  0.00000000E+00
  0.00000000E+00  0.00000000E+00  0.00000000E+00
  0.00000000E+00  0.00000000E+00  0.00000000E+00
  0.00000000E+00  0.00000000E+00  0.00000000E+00
  0.00000000E+00  0.00000000E+00  0.00000000E+00
  0.00000000E+00  0.00000000E+00  0.00000000E+00
  0.00000000E+00  0.00000000E+00  0.00000000E+00
  0.00000000E+00  0.00000000E+00  0.00000000E+00
  0.00000000E+00  0.00000000E+00  0.00000000E+00
  0.00000000E+00  0.00000000E+00  0.00000000E+00
  0.00000000E+00  0.00000000E+00  0.00000000E+00
  0.00000000E+00  0.00000000E+00  0.00000000E+00
  0.00000000E+00  0.00000000E+00  0.00000000E+00
  0.00000000E+00  0.00000000E+00  0.00000000E+00
  0.00000000E+00  0.00000000E+00  0.00000000E+00
  0.00000000E+00  0.00000000E+00  0.00000000E+00
  0.00000000E+00  0.00000000E+00  0.00000000E+00
  0.00000000E+00  0.00000000E+00  0.00000000E+00
  0.00000000E+00  0.00000000E+00  0.00000000E+00
  0.00000000E+00  0.00000000E+00  0.00000000E+00
  0.00000000E+00  0.00000000E+00  0.00000000E+00
  0.00000000E+00  0.00000000E+00  0.00000000E+00
  0.00000000E+00  0.00000000E+00  0.00000000E+00
  0.00000000E+00  0.00000000E+00  0.00000000E+00
  0.00000000E+00  0.00000000E+00  0.00000000E+00
  0.00000000E+00  0.00000000E+00  0.00000000E+00
  0.00000000E+00  0.00000000E+00  0.00000000E+00
  0.00000000E+00  0.00000000E+00  0.00000000E+00
  0.00000000E+00  0.00000000E+00  0.00000000E+00
  0.00000000E+00  0.00000000E+00  0.00000000E+00
  0.00000000E+00  0.00000000E+00  0.00000000E+00
  0.00000000E+00  0.00000000E+00  0.00000000E+00
  0.00000000E+00  0.00000000E+00  0.00000000E+00
  0.00000000E+00  0.00000000E+00  0.00000000E+00
  0.00000000E+00  0.00000000E+00  0.00000000E+00
  0.00000000E+00  0.00000000E+00  0.00000000E+00
  0.00000000E+00  0.00000000E+00  0.00000000E+00
  0.00000000E+00  0.00000000E+00  0.00000000E+00
  0.00000000E+00  0.00000000E+00  0.00000000E+00
  0.00000000E+00  0.00000000E+00  0.00000000E+00
  0.00000000E+00  0.00000000E+00  0.00000000E+00
  0.00000000E+00  0.00000000E+00  0.00000000E+00
  0.00000000E+00  0.00000000E+00  0.00000000E+00
  0.00000000E+00  0.00000000E+00  0.00000000E+00
  0.00000000E+00  0.00000000E+00  0.00000000E+00
  0.00000000E+00  0.00000000E+00  0.00000000E+00
  0.00000000E+00  0.00000000E+00  0.00000000E+00
  0.00000000E+00  0.00000000E+00  0.00000000E+00
  0.00000000E+00  0.00000000E+00  0.00000000E+00
  0.00000000E+00  0.00000000E+00  0.00000000E+00
  0.00000000E+00  0.00000000E+00  0.00000000E+00
  0.00000000E+00  0.00000000E+00  0.00000000E+00
  0.00000000E+00  0.00000000E+00  0.00000000E+00
