Ta N Cu Ru                              
   1.00000000000000     
    18.1096308199999996    0.0000000000000000    0.0000000000000000
     0.0000000000000000   11.6775998899999998    0.0000000000000000
     0.0000000000000000    0.0000000000000000   23.4818170799999990
   Ta   N    Cu   Ru
   119   120     2     1
Direct
 -0.0001002584102632  0.0005226897016957  0.2547840841590088
  0.3333267726425388  0.1253111315570998  0.2637479535122609
  0.1665095371213323  0.1254157211858099  0.2636941963189566
  0.2500574112713698  0.2504576207447846  0.3612952532533472
  0.0825500100655733  0.1257057580766187  0.3683065557501868
  0.4174687681043275  0.1255320925127883  0.3684066288371143
  0.0000316989211008  0.2509704515703586  0.4796891727515689
  0.3320937150173935  0.1256511084195309  0.4779803501175098
  0.1676635608174269  0.1258070556456548  0.4779801952305760
  0.2494201482114333  0.2503570175077199  0.5909502259049850
  0.0838113594037538  0.1252004230060795  0.5888235824420619
  0.4159436175891266  0.1257361473820958  0.5901584894528590
  0.9978648490295967  0.2452413968770507  0.7020248507868091
  0.3380380199668834  0.1254188573148336  0.7033634008772897
  0.0002622946852795  0.2507361886271285  0.2547871648894856
  0.3335904040687401  0.3758243681003547  0.2637902965659627
  0.1663291043485210  0.3759395822831425  0.2637036712773677
  0.2499078250134384  0.5005603673652098  0.3612615026737446
  0.0825314573090132  0.3757131033785613  0.3684389180980369
  0.4173803227137043  0.3755584652684045  0.3685723453902821
  0.0000033773194817  0.5006639826897994  0.4799656684969907
  0.3322549952893247  0.3756887650608755  0.4782740725110849
  0.1675390894862758  0.3758235561324594  0.4782727594282559
  0.2495837095067928  0.5005203326219880  0.5912577805495444
  0.0833654272137470  0.3759186592202300  0.5902360463727617
  0.4157872483115572  0.3757705675069470  0.5902082564337694
 -0.0004786796938508  0.5008625591365180  0.7023909426780739
  0.3360663459701361  0.3765144935352821  0.7047608406388071
  0.1641766984520282  0.3786910621548882  0.7054331769805743
 -0.0000342401063906  0.5005901820729134  0.2547962119563943
  0.3336658903544741  0.6252549572836389  0.2637858094413251
  0.1662847444164558  0.6252661223338442  0.2637365691525612
  0.2500356962302462  0.7505246402590802  0.3613282094491855
  0.0825856392982773  0.6255742753431703  0.3684594372112096
  0.4173633852579358  0.6255216349462911  0.3685368481032220
  0.0000301689020890  0.7505525505984133  0.4797196304321453
  0.3322518174901378  0.6255745784187687  0.4781922232268053
  0.1674885304708944  0.6256271433973735  0.4782868783051836
  0.2496161277129900  0.7511358834038561  0.5910805580675625
  0.0834328178734176  0.6259147122927533  0.5902306031941954
  0.4160847057791782  0.6256108199497382  0.5900716120420384
 -0.0004027926809296  0.7588121565830617  0.7030358254495450
  0.3349307980575567  0.6256631740536149  0.7041750062094175
  0.1641696895465811  0.6256104311547444  0.7042262700218889
  0.0002588539752057  0.7505273344845259  0.2548183968446940
  0.3333566891506622  0.8757937396507262  0.2637729429107134
  0.1664982185030811  0.8757506611182010  0.2637485113622262
  0.2501676843984940  0.0006404915255548  0.3611558761811018
  0.0824975511464056  0.8756035465507471  0.3683613933362972
  0.4175126526755867  0.8755689664968873  0.3684359199032860
  0.0000556180066073  0.0006041978676504  0.4793979592264190
  0.3320679265295148  0.8755720705614664  0.4780370844466434
  0.1676808930467171  0.8755347703066673  0.4780614778744550
  0.2498934084979255  0.0005001028709102  0.5906732385043668
  0.0838113968695247  0.8761477759172738  0.5892895811221056
  0.4159480377659714  0.8754779978836188  0.5900678544987786
  0.3364432982075600  0.8744646342294899  0.7043955356994517
  0.1650991883961496  0.8726381203702588  0.7046661753516732
  0.5000205787285792  0.0005390474710664  0.2550680375023249
  0.8333899762258937  0.1259015112016393  0.2637482580712378
  0.6665584398211024  0.1258083164304803  0.2638659793401547
  0.7497715734357410  0.2505241607584442  0.3612244469965603
  0.5822182276458561  0.1255123537344904  0.3684440300139724
  0.9174645173274389  0.1257056212701117  0.3682341614773835
  0.4997202194096821  0.2506861473172972  0.4801441434494468
  0.8321589206321305  0.1257743746401359  0.4777819671281169
  0.6678509485462406  0.1256275338633087  0.4779272351859852
  0.7501299588532505  0.2501706664788162  0.5909522486142914
  0.5836145150920267  0.1256533655599856  0.5898681030525876
  0.9158275418960586  0.1251624250830916  0.5885909444987991
  0.5005499616471767  0.2504606536367256  0.7021792904780604
  0.8351143573056142  0.1248361905523689  0.7030260881975311
  0.6650777878510507  0.1258500639154349  0.7039264141030095
  0.4996738082318188  0.2506093222552511  0.2550720574326785
  0.8335408121891611  0.3754059714621116  0.2636833081582869
  0.6664201370935224  0.3751969332639476  0.2638804883398930
  0.7499524053344332  0.5005189607317143  0.3613667383028403
  0.5823192243363513  0.3755129812138637  0.3685197482225641
  0.9174728793860375  0.3757018777568374  0.3683279205143501
  0.4997886160546079  0.5005758708476972  0.4800354139252960
  0.8323286488795513  0.3756972978147778  0.4780050285621651
  0.6675286786576551  0.3756127485091982  0.4781090060263406
  0.7500977539359467  0.5006705736440552  0.5910534114444426
  0.5835945779752804  0.3756502585731601  0.5898684540522577
  0.9163709931383920  0.3757187509963604  0.5898739161482849
  0.5003624722430839  0.5005603059571577  0.7021779221029312
  0.8352954638506010  0.3755982705516964  0.7039362834949442
  0.6650460019890885  0.3754586339942395  0.7040153819683093
  0.5000013351450981  0.5005740133381309  0.2549824932323261
  0.8335691884356565  0.6258089178881552  0.2637064743620819
  0.6663099632187055  0.6258198848383947  0.2638350765212805
  0.7498122325224326  0.7505236727783493  0.3612264193145123
  0.5823591515129407  0.6254989183272569  0.3685016483657964
  0.9174457243444035  0.6255740415025827  0.3683396195199767
  0.4998614712648703  0.7504809390653427  0.4800641809139288
  0.8323951842236701  0.6255690583908318  0.4780912575344743
  0.6676241496758903  0.6255019137285832  0.4781461940733500
  0.7502449153590222  0.7510178641672292  0.5910005696794086
  0.5836468923739907  0.6256075674617070  0.5898410049089757
  0.9165412489069156  0.6258630689749343  0.5899773455238881
  0.5003970766941832  0.7508399716460021  0.7020346747103988
  0.8355155279097929  0.6259306742635958  0.7042412528615201
  0.6651368260196072  0.6259362991737580  0.7041048708249857
  0.4996676232682306  0.7504208244168195  0.2550018554893015
  0.8334291646711480  0.8752565764067823  0.2637492910021730
  0.6665641433523389  0.8752697984848143  0.2638600637561817
  0.7496753479789079  0.0005292327790072  0.3613294664897248
  0.5822453857089239  0.8755250209604359  0.3684329192774843
  0.9174627036464866  0.8755713245505110  0.3682854843878275
  0.4997906998802954  0.0005686051767663  0.4802414194552908
  0.8322100743783327  0.8754554472253449  0.4778445024703256
  0.6677902923662526  0.8754835032573449  0.4779027320723311
  0.7499164227829701  0.0007135438336834  0.5906810686338825
  0.5836166118233265  0.8755674491520170  0.5898634210020676
  0.9160141388596605  0.8763279316416209  0.5888127786506627
  0.5008025392154479  0.0006269001485220  0.7020746922013140
  0.8353684796415326  0.8764697387076620  0.7033249198415714
  0.6650372113040477  0.8759627617806475  0.7039485133242298
  0.1644222729102894  0.1243995968924129  0.6997926379471401
  0.4068008019633243  0.0005411876202754  0.3012417100507792
  0.2498724921417002  0.0005669244706555  0.2570399839930336
  0.0931546048256643  0.0006121487487267  0.3011016444021229
  0.1545117049336298  0.2507501244759071  0.4099465263510348
  0.0000294553191324  0.2507315638892155  0.3930530772811560
  0.3454164431471091  0.2506228176645382  0.4100740517944454
  0.4006751365279558  0.2506166336211005  0.5222266106264755
  0.2498838919165759  0.2508051627258033  0.5029296740898025
  0.0989940836603256  0.2510075263251693  0.5220597229746589
  0.1509546302111563  0.2520197841769742  0.6341246382783979
  0.9996997633321195  0.2490899633841432  0.6136495217071545
  0.3474167819203320  0.2515545059471835  0.6337200262059507
  0.4037154021285848  0.2511594864276312  0.7409057215752822
  0.2495525215471397  0.2468164826726293  0.7286516409954220
  0.0941308335256926  0.2520703223843549  0.7433869097425280
  0.4065191431762217  0.2505252270598086  0.3013359617782361
  0.2499399547276410  0.2507183607236809  0.2583456825285091
  0.0933701605308214  0.2507463567703835  0.3012172116564557
  0.1544641817875993  0.5006122593404965  0.4100913719568862
 -0.0000277129959441  0.5006691419771220  0.3932104388442389
  0.3453179737120217  0.5005758915534154  0.4101012363891454
  0.4007777579205541  0.5006057127837581  0.5222946037961980
  0.2498514774841867  0.5007828281169119  0.5030909286111294
  0.0989085960294627  0.5007023753686335  0.5223086615192043
  0.1514528658527149  0.5003157325647364  0.6338359826752884
 -0.0001282600324495  0.5009653712344457  0.6137472814018566
  0.3477042274395857  0.5007432266681174  0.6335028069496744
  0.4029176457014947  0.5008008870477553  0.7404154113416985
  0.2492073511483389  0.4992294048257317  0.7245347352189616
  0.0968146046606272  0.5011052960736890  0.7410367639039032
  0.4067896651150583  0.5005313289654927  0.3013509996750592
  0.2500093295562347  0.5006007976594820  0.2576128937049474
  0.0930842294930560  0.5006172933108751  0.3013013627311520
  0.1544889475001525  0.7506035661118230  0.4099975447093109
  0.0000096681495605  0.7505177795919009  0.3930792206205720
  0.3454168491552954  0.7505639655701878  0.4100659156141000
  0.4008284228751647  0.7507017450722681  0.5221529589298807
  0.2499267457434847  0.7503487599902784  0.5030076870112893
  0.0989181366997235  0.7506922534289072  0.5222450311845555
  0.1511565791432217  0.7514227457886394  0.6337100460355767
 -0.0001041900171875  0.7527994565146231  0.6142828495789255
  0.3478350814983535  0.7503445402900363  0.6333590120358557
  0.4030660966097191  0.7503949199240401  0.7403648225848444
  0.2495655167429184  0.7517204394799499  0.7245384190131957
  0.0965882148602362  0.7520949307582605  0.7409401389546323
  0.4065630056469552  0.7506063801084724  0.3013427084128164
  0.2499614675859637  0.7503824423595759  0.2585437738282477
  0.0933622625193752  0.7505172866801219  0.3012788814427147
  0.1545049080474754  0.0006042647841918  0.4097832515807730
 -0.0000227452091002  0.0006897708858853  0.3928638589810167
  0.3454982468719622  0.0005529950547902  0.4099771519902518
  0.4007299565822685  0.0006233639773284  0.5221348068845717
  0.2499901272358898  0.0007117893527182  0.5025938439366492
  0.0992184501331043  0.0006015809210550  0.5216358663910604
  0.1517326612933609  0.9987485456134217  0.6335038867123834
 -0.0000853262137443  0.0011161607290962  0.6121749458891370
  0.3477544354231915  0.9998427834056502  0.6336317526526771
  0.4040116631665958 -0.0001746821950734  0.7407986195182086
  0.2498980959350727  0.0026468239882677  0.7284135994946040
  0.0944075822585584  0.9951374466864327  0.7410244004617303
  0.9066572748493940  0.0005957635997363  0.3010568114980425
  0.7500365846865323  0.0005267812476714  0.2582868058786240
  0.5931964390340821  0.0005340999194198  0.3012924970924772
  0.6542680333241867  0.2505757259380450  0.4099737714432845
  0.4997976688003632  0.2505673917586441  0.3933902768671101
  0.8454984007002090  0.2507170909589690  0.4097612129044663
  0.9009391237422951  0.2509457511666289  0.5218063714880097
  0.7499354176347551  0.2509429537061694  0.5027872405944394
  0.5988626662241420  0.2504615250968298  0.5220335065868005
  0.6518559766481040  0.2508951178273327  0.6331150494758643
  0.4998126303474208  0.2506886300426037  0.6136073857664330
  0.8487739620809059  0.2502936236757303  0.6331561075604569
  0.9029574402187148  0.2481720835543774  0.7407644443847697
  0.7501730262693653  0.2507612679179230  0.7238596997287050
  0.5971299663236291  0.2504174206068869  0.7403834739209582
  0.9069474346268025  0.2507613387029421  0.3010430857507647
  0.7500104436934665  0.2506752556296074  0.2569717658692401
  0.5929673624578723  0.2504592785611644  0.3012506914202041
  0.6544372799783293  0.5005301154772775  0.4099940671048215
  0.4998808922645028  0.5005446525197306  0.3933317463411298
  0.8455195425943878  0.5006222776683105  0.4099088269182068
  0.9010142645479470  0.5007138086878453  0.5220506883857770
  0.7500110077143834  0.5005572396381927  0.5028798077713764
  0.5989084645636169  0.5006177343398005  0.5221048811206289
  0.6518883534223678  0.5008050447576198  0.6330793980245161
  0.4998514975244299  0.5005883932843730  0.6135750576659010
  0.8483489366599688  0.5008547004783849  0.6332535496793198
  0.9032338919763537  0.5007400654450470  0.7405971983995497
  0.7505527099724632  0.5007821740414597  0.7237016895623367
  0.5969764308910162  0.5009198017156832  0.7402772308927108
  0.9067778446977240  0.5006137960867130  0.3011788963521735
  0.7499037558933151  0.5005925100145951  0.2585169240153174
  0.5932161426726247  0.5005289900931440  0.3013158537353592
  0.6543313967770628  0.7504497312806651  0.4099635749109879
  0.4998420156526065  0.7504608701325655  0.3933388519145195
  0.8454748436366983  0.7504662448621681  0.4098133206526150
  0.9010436586099091  0.7505535600650440  0.5219836321484864
  0.7499647923643695  0.7503765936073801  0.5028597497955682
  0.5989453779565435  0.7505935210946193  0.5220337069308747
  0.6519110939262308  0.7503995182249296  0.6330749226583566
  0.4999211384630922  0.7506023670818659  0.6135083231875486
  0.8488438207696455  0.7510472570828941  0.6332014429523952
  0.9034898152046925  0.7529411420277015  0.7406817042452408
  0.7503196256288743  0.7509041448471047  0.7238622966932293
  0.5969642106722896  0.7510643604461377  0.7401969295623642
  0.9069431103651863  0.7505025387227913  0.3010834002947743
  0.7499792309512877  0.7504242436748216  0.2571249716423700
  0.5929381588472628  0.7505646667331433  0.3012255989713533
  0.6542137483432813  0.0005159150471989  0.4099382183753253
  0.4998643003478840  0.0005446306828276  0.3934220849512907
  0.8454770522350568  0.0006148623926726  0.4096507475115669
  0.9007407051633688  0.0005775915398981  0.5213744500773806
  0.7498777648436969  0.0004968397231081  0.5025055736136608
  0.5989436413003195  0.0006692893791473  0.5219924451687546
  0.6519091363419146  0.0006008917981188  0.6332829369985203
  0.4998983113018598  0.0006614720016080  0.6134930702840585
  0.8482623407955443  0.0005767645360104  0.6326700901946507
  0.9047201339538623  0.0007414099224424  0.7380250696518409
  0.7508655445655908  0.0006615315339612  0.7243189019425300
  0.5972485481637242  0.0009102710760262  0.7405140751064525
  0.0839163665877593  0.1196198818042614  0.7920847588973877
  0.2388021618164784  0.1233023232170803  0.7929420919436844
  0.9983910119208496  0.0009769344460215  0.6977712357947002
 
  0.00000000E+00  0.00000000E+00  0.00000000E+00
  0.00000000E+00  0.00000000E+00  0.00000000E+00
  0.00000000E+00  0.00000000E+00  0.00000000E+00
  0.00000000E+00  0.00000000E+00  0.00000000E+00
  0.00000000E+00  0.00000000E+00  0.00000000E+00
  0.00000000E+00  0.00000000E+00  0.00000000E+00
  0.00000000E+00  0.00000000E+00  0.00000000E+00
  0.00000000E+00  0.00000000E+00  0.00000000E+00
  0.00000000E+00  0.00000000E+00  0.00000000E+00
  0.00000000E+00  0.00000000E+00  0.00000000E+00
  0.00000000E+00  0.00000000E+00  0.00000000E+00
  0.00000000E+00  0.00000000E+00  0.00000000E+00
  0.00000000E+00  0.00000000E+00  0.00000000E+00
  0.00000000E+00  0.00000000E+00  0.00000000E+00
  0.00000000E+00  0.00000000E+00  0.00000000E+00
  0.00000000E+00  0.00000000E+00  0.00000000E+00
  0.00000000E+00  0.00000000E+00  0.00000000E+00
  0.00000000E+00  0.00000000E+00  0.00000000E+00
  0.00000000E+00  0.00000000E+00  0.00000000E+00
  0.00000000E+00  0.00000000E+00  0.00000000E+00
  0.00000000E+00  0.00000000E+00  0.00000000E+00
  0.00000000E+00  0.00000000E+00  0.00000000E+00
  0.00000000E+00  0.00000000E+00  0.00000000E+00
  0.00000000E+00  0.00000000E+00  0.00000000E+00
  0.00000000E+00  0.00000000E+00  0.00000000E+00
  0.00000000E+00  0.00000000E+00  0.00000000E+00
  0.00000000E+00  0.00000000E+00  0.00000000E+00
  0.00000000E+00  0.00000000E+00  0.00000000E+00
  0.00000000E+00  0.00000000E+00  0.00000000E+00
  0.00000000E+00  0.00000000E+00  0.00000000E+00
  0.00000000E+00  0.00000000E+00  0.00000000E+00
  0.00000000E+00  0.00000000E+00  0.00000000E+00
  0.00000000E+00  0.00000000E+00  0.00000000E+00
  0.00000000E+00  0.00000000E+00  0.00000000E+00
  0.00000000E+00  0.00000000E+00  0.00000000E+00
  0.00000000E+00  0.00000000E+00  0.00000000E+00
  0.00000000E+00  0.00000000E+00  0.00000000E+00
  0.00000000E+00  0.00000000E+00  0.00000000E+00
  0.00000000E+00  0.00000000E+00  0.00000000E+00
  0.00000000E+00  0.00000000E+00  0.00000000E+00
  0.00000000E+00  0.00000000E+00  0.00000000E+00
  0.00000000E+00  0.00000000E+00  0.00000000E+00
  0.00000000E+00  0.00000000E+00  0.00000000E+00
  0.00000000E+00  0.00000000E+00  0.00000000E+00
  0.00000000E+00  0.00000000E+00  0.00000000E+00
  0.00000000E+00  0.00000000E+00  0.00000000E+00
  0.00000000E+00  0.00000000E+00  0.00000000E+00
  0.00000000E+00  0.00000000E+00  0.00000000E+00
  0.00000000E+00  0.00000000E+00  0.00000000E+00
  0.00000000E+00  0.00000000E+00  0.00000000E+00
  0.00000000E+00  0.00000000E+00  0.00000000E+00
  0.00000000E+00  0.00000000E+00  0.00000000E+00
  0.00000000E+00  0.00000000E+00  0.00000000E+00
  0.00000000E+00  0.00000000E+00  0.00000000E+00
  0.00000000E+00  0.00000000E+00  0.00000000E+00
  0.00000000E+00  0.00000000E+00  0.00000000E+00
  0.00000000E+00  0.00000000E+00  0.00000000E+00
  0.00000000E+00  0.00000000E+00  0.00000000E+00
  0.00000000E+00  0.00000000E+00  0.00000000E+00
  0.00000000E+00  0.00000000E+00  0.00000000E+00
  0.00000000E+00  0.00000000E+00  0.00000000E+00
  0.00000000E+00  0.00000000E+00  0.00000000E+00
  0.00000000E+00  0.00000000E+00  0.00000000E+00
  0.00000000E+00  0.00000000E+00  0.00000000E+00
  0.00000000E+00  0.00000000E+00  0.00000000E+00
  0.00000000E+00  0.00000000E+00  0.00000000E+00
  0.00000000E+00  0.00000000E+00  0.00000000E+00
  0.00000000E+00  0.00000000E+00  0.00000000E+00
  0.00000000E+00  0.00000000E+00  0.00000000E+00
  0.00000000E+00  0.00000000E+00  0.00000000E+00
  0.00000000E+00  0.00000000E+00  0.00000000E+00
  0.00000000E+00  0.00000000E+00  0.00000000E+00
  0.00000000E+00  0.00000000E+00  0.00000000E+00
  0.00000000E+00  0.00000000E+00  0.00000000E+00
  0.00000000E+00  0.00000000E+00  0.00000000E+00
  0.00000000E+00  0.00000000E+00  0.00000000E+00
  0.00000000E+00  0.00000000E+00  0.00000000E+00
  0.00000000E+00  0.00000000E+00  0.00000000E+00
  0.00000000E+00  0.00000000E+00  0.00000000E+00
  0.00000000E+00  0.00000000E+00  0.00000000E+00
  0.00000000E+00  0.00000000E+00  0.00000000E+00
  0.00000000E+00  0.00000000E+00  0.00000000E+00
  0.00000000E+00  0.00000000E+00  0.00000000E+00
  0.00000000E+00  0.00000000E+00  0.00000000E+00
  0.00000000E+00  0.00000000E+00  0.00000000E+00
  0.00000000E+00  0.00000000E+00  0.00000000E+00
  0.00000000E+00  0.00000000E+00  0.00000000E+00
  0.00000000E+00  0.00000000E+00  0.00000000E+00
  0.00000000E+00  0.00000000E+00  0.00000000E+00
  0.00000000E+00  0.00000000E+00  0.00000000E+00
  0.00000000E+00  0.00000000E+00  0.00000000E+00
  0.00000000E+00  0.00000000E+00  0.00000000E+00
  0.00000000E+00  0.00000000E+00  0.00000000E+00
  0.00000000E+00  0.00000000E+00  0.00000000E+00
  0.00000000E+00  0.00000000E+00  0.00000000E+00
  0.00000000E+00  0.00000000E+00  0.00000000E+00
  0.00000000E+00  0.00000000E+00  0.00000000E+00
  0.00000000E+00  0.00000000E+00  0.00000000E+00
  0.00000000E+00  0.00000000E+00  0.00000000E+00
  0.00000000E+00  0.00000000E+00  0.00000000E+00
  0.00000000E+00  0.00000000E+00  0.00000000E+00
  0.00000000E+00  0.00000000E+00  0.00000000E+00
  0.00000000E+00  0.00000000E+00  0.00000000E+00
  0.00000000E+00  0.00000000E+00  0.00000000E+00
  0.00000000E+00  0.00000000E+00  0.00000000E+00
  0.00000000E+00  0.00000000E+00  0.00000000E+00
  0.00000000E+00  0.00000000E+00  0.00000000E+00
  0.00000000E+00  0.00000000E+00  0.00000000E+00
  0.00000000E+00  0.00000000E+00  0.00000000E+00
  0.00000000E+00  0.00000000E+00  0.00000000E+00
  0.00000000E+00  0.00000000E+00  0.00000000E+00
  0.00000000E+00  0.00000000E+00  0.00000000E+00
  0.00000000E+00  0.00000000E+00  0.00000000E+00
  0.00000000E+00  0.00000000E+00  0.00000000E+00
  0.00000000E+00  0.00000000E+00  0.00000000E+00
  0.00000000E+00  0.00000000E+00  0.00000000E+00
  0.00000000E+00  0.00000000E+00  0.00000000E+00
  0.00000000E+00  0.00000000E+00  0.00000000E+00
  0.00000000E+00  0.00000000E+00  0.00000000E+00
  0.00000000E+00  0.00000000E+00  0.00000000E+00
  0.00000000E+00  0.00000000E+00  0.00000000E+00
  0.00000000E+00  0.00000000E+00  0.00000000E+00
  0.00000000E+00  0.00000000E+00  0.00000000E+00
  0.00000000E+00  0.00000000E+00  0.00000000E+00
  0.00000000E+00  0.00000000E+00  0.00000000E+00
  0.00000000E+00  0.00000000E+00  0.00000000E+00
  0.00000000E+00  0.00000000E+00  0.00000000E+00
  0.00000000E+00  0.00000000E+00  0.00000000E+00
  0.00000000E+00  0.00000000E+00  0.00000000E+00
  0.00000000E+00  0.00000000E+00  0.00000000E+00
  0.00000000E+00  0.00000000E+00  0.00000000E+00
  0.00000000E+00  0.00000000E+00  0.00000000E+00
  0.00000000E+00  0.00000000E+00  0.00000000E+00
  0.00000000E+00  0.00000000E+00  0.00000000E+00
  0.00000000E+00  0.00000000E+00  0.00000000E+00
  0.00000000E+00  0.00000000E+00  0.00000000E+00
  0.00000000E+00  0.00000000E+00  0.00000000E+00
  0.00000000E+00  0.00000000E+00  0.00000000E+00
  0.00000000E+00  0.00000000E+00  0.00000000E+00
  0.00000000E+00  0.00000000E+00  0.00000000E+00
  0.00000000E+00  0.00000000E+00  0.00000000E+00
  0.00000000E+00  0.00000000E+00  0.00000000E+00
  0.00000000E+00  0.00000000E+00  0.00000000E+00
  0.00000000E+00  0.00000000E+00  0.00000000E+00
  0.00000000E+00  0.00000000E+00  0.00000000E+00
  0.00000000E+00  0.00000000E+00  0.00000000E+00
  0.00000000E+00  0.00000000E+00  0.00000000E+00
  0.00000000E+00  0.00000000E+00  0.00000000E+00
  0.00000000E+00  0.00000000E+00  0.00000000E+00
  0.00000000E+00  0.00000000E+00  0.00000000E+00
  0.00000000E+00  0.00000000E+00  0.00000000E+00
  0.00000000E+00  0.00000000E+00  0.00000000E+00
  0.00000000E+00  0.00000000E+00  0.00000000E+00
  0.00000000E+00  0.00000000E+00  0.00000000E+00
  0.00000000E+00  0.00000000E+00  0.00000000E+00
  0.00000000E+00  0.00000000E+00  0.00000000E+00
  0.00000000E+00  0.00000000E+00  0.00000000E+00
  0.00000000E+00  0.00000000E+00  0.00000000E+00
  0.00000000E+00  0.00000000E+00  0.00000000E+00
  0.00000000E+00  0.00000000E+00  0.00000000E+00
  0.00000000E+00  0.00000000E+00  0.00000000E+00
  0.00000000E+00  0.00000000E+00  0.00000000E+00
  0.00000000E+00  0.00000000E+00  0.00000000E+00
  0.00000000E+00  0.00000000E+00  0.00000000E+00
  0.00000000E+00  0.00000000E+00  0.00000000E+00
  0.00000000E+00  0.00000000E+00  0.00000000E+00
  0.00000000E+00  0.00000000E+00  0.00000000E+00
  0.00000000E+00  0.00000000E+00  0.00000000E+00
  0.00000000E+00  0.00000000E+00  0.00000000E+00
  0.00000000E+00  0.00000000E+00  0.00000000E+00
  0.00000000E+00  0.00000000E+00  0.00000000E+00
  0.00000000E+00  0.00000000E+00  0.00000000E+00
  0.00000000E+00  0.00000000E+00  0.00000000E+00
  0.00000000E+00  0.00000000E+00  0.00000000E+00
  0.00000000E+00  0.00000000E+00  0.00000000E+00
  0.00000000E+00  0.00000000E+00  0.00000000E+00
  0.00000000E+00  0.00000000E+00  0.00000000E+00
  0.00000000E+00  0.00000000E+00  0.00000000E+00
  0.00000000E+00  0.00000000E+00  0.00000000E+00
  0.00000000E+00  0.00000000E+00  0.00000000E+00
  0.00000000E+00  0.00000000E+00  0.00000000E+00
  0.00000000E+00  0.00000000E+00  0.00000000E+00
  0.00000000E+00  0.00000000E+00  0.00000000E+00
  0.00000000E+00  0.00000000E+00  0.00000000E+00
  0.00000000E+00  0.00000000E+00  0.00000000E+00
  0.00000000E+00  0.00000000E+00  0.00000000E+00
  0.00000000E+00  0.00000000E+00  0.00000000E+00
  0.00000000E+00  0.00000000E+00  0.00000000E+00
  0.00000000E+00  0.00000000E+00  0.00000000E+00
  0.00000000E+00  0.00000000E+00  0.00000000E+00
  0.00000000E+00  0.00000000E+00  0.00000000E+00
  0.00000000E+00  0.00000000E+00  0.00000000E+00
  0.00000000E+00  0.00000000E+00  0.00000000E+00
  0.00000000E+00  0.00000000E+00  0.00000000E+00
  0.00000000E+00  0.00000000E+00  0.00000000E+00
  0.00000000E+00  0.00000000E+00  0.00000000E+00
  0.00000000E+00  0.00000000E+00  0.00000000E+00
  0.00000000E+00  0.00000000E+00  0.00000000E+00
  0.00000000E+00  0.00000000E+00  0.00000000E+00
  0.00000000E+00  0.00000000E+00  0.00000000E+00
  0.00000000E+00  0.00000000E+00  0.00000000E+00
  0.00000000E+00  0.00000000E+00  0.00000000E+00
  0.00000000E+00  0.00000000E+00  0.00000000E+00
  0.00000000E+00  0.00000000E+00  0.00000000E+00
  0.00000000E+00  0.00000000E+00  0.00000000E+00
  0.00000000E+00  0.00000000E+00  0.00000000E+00
  0.00000000E+00  0.00000000E+00  0.00000000E+00
  0.00000000E+00  0.00000000E+00  0.00000000E+00
  0.00000000E+00  0.00000000E+00  0.00000000E+00
  0.00000000E+00  0.00000000E+00  0.00000000E+00
  0.00000000E+00  0.00000000E+00  0.00000000E+00
  0.00000000E+00  0.00000000E+00  0.00000000E+00
  0.00000000E+00  0.00000000E+00  0.00000000E+00
  0.00000000E+00  0.00000000E+00  0.00000000E+00
  0.00000000E+00  0.00000000E+00  0.00000000E+00
  0.00000000E+00  0.00000000E+00  0.00000000E+00
  0.00000000E+00  0.00000000E+00  0.00000000E+00
  0.00000000E+00  0.00000000E+00  0.00000000E+00
  0.00000000E+00  0.00000000E+00  0.00000000E+00
  0.00000000E+00  0.00000000E+00  0.00000000E+00
  0.00000000E+00  0.00000000E+00  0.00000000E+00
  0.00000000E+00  0.00000000E+00  0.00000000E+00
  0.00000000E+00  0.00000000E+00  0.00000000E+00
  0.00000000E+00  0.00000000E+00  0.00000000E+00
  0.00000000E+00  0.00000000E+00  0.00000000E+00
  0.00000000E+00  0.00000000E+00  0.00000000E+00
  0.00000000E+00  0.00000000E+00  0.00000000E+00
  0.00000000E+00  0.00000000E+00  0.00000000E+00
  0.00000000E+00  0.00000000E+00  0.00000000E+00
  0.00000000E+00  0.00000000E+00  0.00000000E+00
  0.00000000E+00  0.00000000E+00  0.00000000E+00
  0.00000000E+00  0.00000000E+00  0.00000000E+00
  0.00000000E+00  0.00000000E+00  0.00000000E+00
  0.00000000E+00  0.00000000E+00  0.00000000E+00
  0.00000000E+00  0.00000000E+00  0.00000000E+00
  0.00000000E+00  0.00000000E+00  0.00000000E+00
  0.00000000E+00  0.00000000E+00  0.00000000E+00
  0.00000000E+00  0.00000000E+00  0.00000000E+00
  0.00000000E+00  0.00000000E+00  0.00000000E+00
  0.00000000E+00  0.00000000E+00  0.00000000E+00
  0.00000000E+00  0.00000000E+00  0.00000000E+00
  0.00000000E+00  0.00000000E+00  0.00000000E+00
