Ta N Cu Ru                              
   1.00000000000000     
    18.1096308199999996    0.0000000000000000    0.0000000000000000
     0.0000000000000000   11.6775998899999998    0.0000000000000000
     0.0000000000000000    0.0000000000000000   23.4818170799999990
   Ta   N    Cu   Ru
   119   120     2     1
Direct
  0.9998737793382364  0.0001200737464766  0.2547262672416344
  0.3338295852405487  0.1249961868266328  0.2638670027360933
  0.1665702290545364  0.1249738190727141  0.2636970979120890
  0.2501164550596995  0.2499212738265852  0.3614685842992327
  0.0823357565705814  0.1249799776690570  0.3683127340580252
  0.4175343757624926  0.1250135506469086  0.3687303429867125
  0.9999518487187248  0.2496723271084896  0.4796978579735244
  0.3326574024355749  0.1249881540283505  0.4783015709843552
  0.1679677359500974  0.1249207662204054  0.4781463240352500
  0.2492783021913822  0.2536476632608803  0.5910810904689010
  0.0861589170585054  0.1248649002186586  0.5909577370793196
  0.4149519424963570  0.1250502110102893  0.5913891076092013
  0.9966388911307188  0.2540927449366425  0.7037719996430608
  0.3390736443500554  0.1247615004181494  0.7077527298327373
  0.9999009784150291  0.2499156938551120  0.2547402698443009
  0.3336313388765753  0.3749569554034342  0.2638875991190091
  0.1666766565110824  0.3750547853894803  0.2637047671468096
  0.2502514916344291  0.5001052613703557  0.3614119804619139
  0.0823906517962513  0.3749087591308103  0.3681637729980286
  0.4174652954546468  0.3749868954671182  0.3687217954082951
  0.9996773208799252  0.4999389502229031  0.4794997019699111
  0.3323584248717745  0.3751337259224567  0.4785166101447992
  0.1682359332470585  0.3748054359993533  0.4777376600605983
  0.2491259408114554  0.5009081653672730  0.5912885066342988
  0.0829262692795835  0.3758382437105720  0.5886028656474211
  0.4158233642878062  0.3753504530622171  0.5901285628624366
  0.9991653072907338  0.5011822166805845  0.6956130764117445
  0.3351968247414005  0.3762499838704005  0.7043318754792911
  0.1636797445297344  0.3699272256422005  0.7072670023927113
  0.9997976046942724  0.4997958277016247  0.2546685476392263
  0.3335350612891709  0.6249835138907779  0.2638162967748618
  0.1668060674697669  0.6249689010784414  0.2637643519043530
  0.2501979395301107  0.7498818326765987  0.3614255342924793
  0.0823077663548156  0.6249960273787749  0.3680579550981264
  0.4174283535357546  0.6249682043919565  0.3685381674438796
  0.9996840146339452  0.7503000195598972  0.4794190611532734
  0.3323758389743495  0.6249800273955036  0.4781548496559193
  0.1679835667213471  0.6250570080275383  0.4773561055600167
  0.2497727873319752  0.7490004838701079  0.5909184694332763
  0.0836389352931917  0.6254479895481904  0.5882778942630215
  0.4163981935820494  0.6249216793369424  0.5902521874523907
  0.9994590553133385  0.7497528478369213  0.7020389173381745
  0.3346784306016494  0.6248220183789579  0.7045084507614076
  0.1646934184110249  0.6263620318730714  0.7031840815807454
  0.9998202528326090  0.7501480164701402  0.2546425410224537
  0.3336014334381691  0.8750567807639592  0.2638955565656519
  0.1667221217759324  0.8749774198785146  0.2636969438755570
  0.2500777253098959  0.0000501251550281  0.3614958994371845
  0.0823733579448257  0.8750716513891055  0.3681291842957711
  0.4174819196130907  0.8749884153432880  0.3686982143097145
  0.9999005000408320  0.0001746828583827  0.4797544301764517
  0.3324335345878845  0.8748747925618757  0.4784319302212761
  0.1680351123542129  0.8752053678373104  0.4778499122151742
  0.2494384763394616  0.9964650360355505  0.5909187123814238
  0.0825226048928410  0.8738656846599383  0.5891251016414499
  0.4159467701732276  0.8746466483424085  0.5900501963289230
  0.9961664754580979  0.9971059135944697  0.7039375881172608
  0.3355162934613285  0.8736871780548215  0.7041159872849833
  0.1638488073095162  0.8786587034575544  0.7065618211975213
  0.4997876292376598  0.9999567558837335  0.2550389331616969
  0.8332180296575880  0.1250536673366698  0.2637296930587436
  0.6662271231418977  0.1250358229383771  0.2640782664095443
  0.7497660848698082  0.2500425408193030  0.3615368879845681
  0.5823242794039568  0.1250317987821153  0.3687856055565885
  0.9172653718613503  0.1249990010507019  0.3683229430978643
  0.4996435672222952  0.2498662240033220  0.4803317329936268
  0.8324779666199273  0.1249353604927628  0.4782790276357982
  0.6676638540355554  0.1250271583487728  0.4784396415876261
  0.7499776841230019  0.2501937265403598  0.5912500793230668
  0.5835663985555753  0.1251444097367641  0.5900540405235275
  0.9167341651528919  0.1249799912560784  0.5902402704072737
  0.5003959981889036  0.2501953474103029  0.7022580258558616
  0.8336860525880833  0.1250667743120585  0.7040770404529456
  0.6638475146880973  0.1249896094376497  0.7041660472690305
  0.4997437240317466  0.2500242538235445  0.2550484481273686
  0.8331640757316803  0.3749603742586551  0.2637560988703743
  0.6663411435351106  0.3748715820407094  0.2640252203706548
  0.7497046349740941  0.4998915627424996  0.3615117291799844
  0.5823364668180897  0.3749539747606954  0.3687257409367354
  0.9173042408525600  0.3749426720827255  0.3683209119456061
  0.4999259528691305  0.5000164190459409  0.4801230225172788
  0.8321818710600044  0.3748661964100621  0.4780174081089186
  0.6676893876899344  0.3750502262366306  0.4783313445447869
  0.7503587213912636  0.4999671283272581  0.5913845258712455
  0.5835547142551248  0.3751811229265795  0.5900049186137221
  0.9156627820741714  0.3743815993048571  0.5895339691196969
  0.4997116575898930  0.5001390347820491  0.7026516284676082
  0.8346058298044201  0.3742228791964383  0.7045613544086413
  0.6645884513919993  0.3751164287982508  0.7044215713949649
  0.4999543650243685  0.4999855217580253  0.2549597931911354
  0.8331182661252157  0.6250159654195954  0.2637557015815412
  0.6664121994102571  0.6250381409600696  0.2640001389179079
  0.7497557845457992  0.7501422493021113  0.3615270780563979
  0.5823369787499162  0.6249986243712059  0.3686518161630248
  0.9173066175489880  0.6250026620271770  0.3681861946113273
  0.4999265985764141  0.7499504863753849  0.4800916964871595
  0.8320852333146713  0.6250849025608090  0.4778692231095471
  0.6676464660595106  0.6249871959300737  0.4782925179630835
  0.7497494353393566  0.7500997347460625  0.5910374476141589
  0.5837615831262336  0.6249395972940257  0.5899195768983519
  0.9154930952139461  0.6255852261572562  0.5892408429698789
  0.4997214292386203  0.7498162471715536  0.7024751681489808
  0.8353016869843528  0.6264915398146870  0.7047590534215665
  0.6647594153005246  0.6251313004538278  0.7046408109372186
  0.4999333996844730  0.7500167315057227  0.2549388936507210
  0.8331402344597487  0.8749719880211634  0.2637651869782675
  0.6663533165529885  0.8750996851700427  0.2640384109581372
  0.7498075595500763  0.9999667109684142  0.3615865419164695
  0.5823223709551326  0.8750397126516115  0.3687181150506229
  0.9173044921426001  0.8750503362246540  0.3682975915040214
  0.4996584429623758  0.0001906439079790  0.4802949518530091
  0.8324007894003215  0.8751631713394864  0.4781573512519557
  0.6676508020154700  0.8749887922271817  0.4782699878679524
  0.7498854678000618  0.9999288824828060  0.5911723994250568
  0.5834532609010203  0.8749264131716447  0.5899477085316635
  0.9159701712441635  0.8754253505033981  0.5901508616761755
  0.5003932868657102  0.9998580961998154  0.7020404973384274
  0.8344435554773619  0.8750706549753833  0.7041884157912727
  0.6642416369645251  0.8753273503625313  0.7041451001262112
  0.4068042878276334  0.0000351678089233  0.3015586644536261
  0.2501444672677955  0.0001212950950973  0.2580682287508478
  0.0930948978740036  0.0002170720223032  0.3009933639943187
  0.1544594569839700  0.2497970339905497  0.4097933364518327
  0.9999029688239774  0.2500268989958382  0.3930142900323315
  0.3454933039235445  0.2499502510568069  0.4102383267387320
  0.4006420257281822  0.2498312806971353  0.5226223655947428
  0.2501160547294897  0.2497586760038048  0.5029306540441082
  0.0989355475052614  0.2485960080005398  0.5218514474053274
  0.1510721814634423  0.2594325432293492  0.6329111135969804
  0.0010357577085948  0.2497154942882206  0.6139706521290387
  0.3478369311781945  0.2519661402211558  0.6340104578061535
  0.4040746704582087  0.2517973389154347  0.7415401395927917
  0.2506790841227586  0.2533850851333355  0.7255815487881341
  0.0841111600002093  0.2804959266956288  0.7520878978973822
  0.4067770877114198  0.2499844733953222  0.3015697759454751
  0.2501277851983536  0.2498839907410423  0.2581658837743309
  0.0931342316829811  0.2497543694459654  0.3010068562678678
  0.1544465842918158  0.4998838889942614  0.4095133767727068
  0.9998629020484711  0.4999651046047003  0.3928853667450405
  0.3456897843489344  0.5000648010678391  0.4101278647638442
  0.4009550020457027  0.5001185769013256  0.5222789785720634
  0.2499595666916246  0.5005696294241226  0.5029437764063809
  0.0994124397511538  0.4999969951251239  0.5208942102923654
  0.1501283801806932  0.4997231361713871  0.6336648352972056
  0.9996779625029184  0.5005853820186855  0.6083407342979366
  0.3477088163963825  0.5004446604682938  0.6335973880410820
  0.4029089470852528  0.5009121276091399  0.7410091659396335
  0.2481902888452281  0.4977047023576051  0.7239847785978502
  0.0923889854432046  0.5053375809253440  0.7416008534043946
  0.4068385441067314  0.4999053233443319  0.3013702903541804
  0.2501713575480172  0.4998872048114550  0.2575240402801849
  0.0931248879652345  0.4998730944647502  0.3008757213787295
  0.1543421314531134  0.7501590614484120  0.4095515501288853
  0.9998642780332785  0.7500443690069468  0.3927722781057047
  0.3456767602239658  0.7498711073339414  0.4100816712388669
  0.4009457791595812  0.7497605140006697  0.5222436308548675
  0.2499873804960867  0.7494654873972192  0.5027247273781609
  0.0990339082811123  0.7503520668074374  0.5212212002006165
  0.1512987686965070  0.7500686512008673  0.6326610211324519
  0.9997275559134055  0.7501002055577561  0.6131332088864720
  0.3481827871354783  0.7494113932273777  0.6334863095827958
  0.4030095276389119  0.7488635460886344  0.7408786809857437
  0.2490090850279482  0.7513663243499231  0.7229423187908047
  0.0973938539223444  0.7460484590713412  0.7391857473274450
  0.4068379335171794  0.7500350052869655  0.3013605644291280
  0.2501728207405335  0.7500824041878015  0.2575494208687155
  0.0931321442558103  0.7501218183447597  0.3008526738920042
  0.1544122588604190  0.0001291954211716  0.4098107101139880
  0.9998887808887627  0.9999564367041260  0.3930318380717877
  0.3454946973267246  0.0000745687061993  0.4102087976147495
  0.4006508710785346  0.0002511910624547  0.5225924754268663
  0.2501124556082516  0.0001899300838725  0.5028300439061840
  0.0987933613307586  0.0010964706957673  0.5219923310400956
  0.1512200771751480  0.9906538750426349  0.6325969162029963
  0.0009364648118567  0.0000978970883214  0.6142832611622563
  0.3479684564374846  0.9980841179658350  0.6339463519274147
  0.4041817614142393  0.9981084363196367  0.7414723904190645
  0.2512876436801826  0.9976606661852908  0.7255231427587755
  0.0841746535843388  0.9697836829174564  0.7507082649437465
  0.9066252287708086  0.0000281161758192  0.3010449488108802
  0.7497769583754349  0.0000880267685161  0.2577462715101406
  0.5928603554412344  0.0000971275023415  0.3015090581858923
  0.6542864869729013  0.2500359276549641  0.4102029186482586
  0.4998587814167950  0.2500443120040465  0.3935896572932663
  0.8454721092753800  0.2498687312270694  0.4099062898993619
  0.9010131464165335  0.2494591819764601  0.5220262144911917
  0.7499899998523047  0.2500672695482700  0.5030653861930543
  0.5988547112451428  0.2501626139056879  0.5222167934679047
  0.6516071017414524  0.2503558313327768  0.6333623660074125
  0.4995937878974983  0.2500146728603500  0.6137224728390474
  0.8482360539445087  0.2501161888605840  0.6336737016792722
  0.9005946155876171  0.2511850154103256  0.7418159815903361
  0.7494403007068157  0.2508970994596492  0.7237346737962861
  0.5968208700350237  0.2503166580255531  0.7407678268146348
  0.9066371088889503  0.2499551735659432  0.3010520138394012
  0.7497723246268670  0.2499314666036106  0.2575938618058576
  0.5928356805821178  0.2499449828086078  0.3015082858971441
  0.6542473249615287  0.4999278190060984  0.4101543549994381
  0.4998773599610782  0.4999707012222604  0.3933964309368551
  0.8453411626939197  0.4999460607843760  0.4097426295873551
  0.9002951294852086  0.4999083878660007  0.5214901826140985
  0.7499837982388395  0.4999871865101515  0.5030765455462781
  0.5989813840489119  0.4999663931287010  0.5222029278865382
  0.6520087542814299  0.5002039869010196  0.6334534111200313
  0.4999723424901982  0.5000470835189249  0.6138573692213279
  0.8491464176783512  0.5002082074439281  0.6341898813740581
  0.9073961233747326  0.5007406562434489  0.7435552753478569
  0.7507006890672274  0.5002745597959974  0.7248253206577534
  0.5967943986988210  0.5002785945233138  0.7407201280097035
  0.9066085757602836  0.4998845040541514  0.3010207305358440
  0.7497301797930563  0.4999416176386193  0.2575397186420040
  0.5929905310982406  0.4999389107751406  0.3014697045471818
  0.6542576404911288  0.7500557144594112  0.4101124954203542
  0.4998780211610618  0.7499969959307800  0.3933798376971384
  0.8454513591475710  0.7501187715500570  0.4097915843045317
  0.9006989538892168  0.7505729400073601  0.5218588005262612
  0.7499431527666474  0.7500596467861014  0.5028827742870476
  0.5989877395016763  0.7499875868727119  0.5221788411339667
  0.6515881709922328  0.7497875732561247  0.6333667350368104
  0.4999848326331479  0.7497471285259237  0.6136844919903970
  0.8479420979624135  0.7498395099772674  0.6334018002340724
  0.9026034968056098  0.7494796729213009  0.7410574260264010
  0.7500415210376021  0.7492241495186899  0.7238187436849148
  0.5967261794466961  0.7499475360934446  0.7406123841142297
  0.9066407280882781  0.7501287777351129  0.3009939588980793
  0.7497198277725057  0.7500516688798414  0.2573979265377390
  0.5929628845116387  0.7500407432222034  0.3014569367655466
  0.6542887851798534  0.0000148482392367  0.4101882711308273
  0.4998694488827736 -0.0000271232373605  0.3935696442280326
  0.8455093862662790  0.0000962452182856  0.4099442560262994
  0.9010802211832726  0.0002549446351832  0.5221981207731723
  0.7500035047423945  0.9999489526482462  0.5030250653332388
  0.5988714001589890  0.9999873691247146  0.5221893573609127
  0.6514906846461413  0.9999132448760869  0.6332970518965909
  0.4995982842506016  0.0002463734039769  0.6135338621012905
  0.8481336589093308  0.0001838574823714  0.6335370801478296
  0.9000065583255211  0.9996562287590111  0.7416735024524330
  0.7488474311429529  0.0002700666101306  0.7239090986552948
  0.5965905879486957  0.9999641594602576  0.7406548356039875
  0.0931221743884269  0.1248324187876198  0.7641106250487461
  0.0015111961445089  0.5014215616554306  0.7984881488272002
  0.1923037029769179  0.1248730007308657  0.6836265836617457
 
  0.00000000E+00  0.00000000E+00  0.00000000E+00
  0.00000000E+00  0.00000000E+00  0.00000000E+00
  0.00000000E+00  0.00000000E+00  0.00000000E+00
  0.00000000E+00  0.00000000E+00  0.00000000E+00
  0.00000000E+00  0.00000000E+00  0.00000000E+00
  0.00000000E+00  0.00000000E+00  0.00000000E+00
  0.00000000E+00  0.00000000E+00  0.00000000E+00
  0.00000000E+00  0.00000000E+00  0.00000000E+00
  0.00000000E+00  0.00000000E+00  0.00000000E+00
  0.00000000E+00  0.00000000E+00  0.00000000E+00
  0.00000000E+00  0.00000000E+00  0.00000000E+00
  0.00000000E+00  0.00000000E+00  0.00000000E+00
  0.00000000E+00  0.00000000E+00  0.00000000E+00
  0.00000000E+00  0.00000000E+00  0.00000000E+00
  0.00000000E+00  0.00000000E+00  0.00000000E+00
  0.00000000E+00  0.00000000E+00  0.00000000E+00
  0.00000000E+00  0.00000000E+00  0.00000000E+00
  0.00000000E+00  0.00000000E+00  0.00000000E+00
  0.00000000E+00  0.00000000E+00  0.00000000E+00
  0.00000000E+00  0.00000000E+00  0.00000000E+00
  0.00000000E+00  0.00000000E+00  0.00000000E+00
  0.00000000E+00  0.00000000E+00  0.00000000E+00
  0.00000000E+00  0.00000000E+00  0.00000000E+00
  0.00000000E+00  0.00000000E+00  0.00000000E+00
  0.00000000E+00  0.00000000E+00  0.00000000E+00
  0.00000000E+00  0.00000000E+00  0.00000000E+00
  0.00000000E+00  0.00000000E+00  0.00000000E+00
  0.00000000E+00  0.00000000E+00  0.00000000E+00
  0.00000000E+00  0.00000000E+00  0.00000000E+00
  0.00000000E+00  0.00000000E+00  0.00000000E+00
  0.00000000E+00  0.00000000E+00  0.00000000E+00
  0.00000000E+00  0.00000000E+00  0.00000000E+00
  0.00000000E+00  0.00000000E+00  0.00000000E+00
  0.00000000E+00  0.00000000E+00  0.00000000E+00
  0.00000000E+00  0.00000000E+00  0.00000000E+00
  0.00000000E+00  0.00000000E+00  0.00000000E+00
  0.00000000E+00  0.00000000E+00  0.00000000E+00
  0.00000000E+00  0.00000000E+00  0.00000000E+00
  0.00000000E+00  0.00000000E+00  0.00000000E+00
  0.00000000E+00  0.00000000E+00  0.00000000E+00
  0.00000000E+00  0.00000000E+00  0.00000000E+00
  0.00000000E+00  0.00000000E+00  0.00000000E+00
  0.00000000E+00  0.00000000E+00  0.00000000E+00
  0.00000000E+00  0.00000000E+00  0.00000000E+00
  0.00000000E+00  0.00000000E+00  0.00000000E+00
  0.00000000E+00  0.00000000E+00  0.00000000E+00
  0.00000000E+00  0.00000000E+00  0.00000000E+00
  0.00000000E+00  0.00000000E+00  0.00000000E+00
  0.00000000E+00  0.00000000E+00  0.00000000E+00
  0.00000000E+00  0.00000000E+00  0.00000000E+00
  0.00000000E+00  0.00000000E+00  0.00000000E+00
  0.00000000E+00  0.00000000E+00  0.00000000E+00
  0.00000000E+00  0.00000000E+00  0.00000000E+00
  0.00000000E+00  0.00000000E+00  0.00000000E+00
  0.00000000E+00  0.00000000E+00  0.00000000E+00
  0.00000000E+00  0.00000000E+00  0.00000000E+00
  0.00000000E+00  0.00000000E+00  0.00000000E+00
  0.00000000E+00  0.00000000E+00  0.00000000E+00
  0.00000000E+00  0.00000000E+00  0.00000000E+00
  0.00000000E+00  0.00000000E+00  0.00000000E+00
  0.00000000E+00  0.00000000E+00  0.00000000E+00
  0.00000000E+00  0.00000000E+00  0.00000000E+00
  0.00000000E+00  0.00000000E+00  0.00000000E+00
  0.00000000E+00  0.00000000E+00  0.00000000E+00
  0.00000000E+00  0.00000000E+00  0.00000000E+00
  0.00000000E+00  0.00000000E+00  0.00000000E+00
  0.00000000E+00  0.00000000E+00  0.00000000E+00
  0.00000000E+00  0.00000000E+00  0.00000000E+00
  0.00000000E+00  0.00000000E+00  0.00000000E+00
  0.00000000E+00  0.00000000E+00  0.00000000E+00
  0.00000000E+00  0.00000000E+00  0.00000000E+00
  0.00000000E+00  0.00000000E+00  0.00000000E+00
  0.00000000E+00  0.00000000E+00  0.00000000E+00
  0.00000000E+00  0.00000000E+00  0.00000000E+00
  0.00000000E+00  0.00000000E+00  0.00000000E+00
  0.00000000E+00  0.00000000E+00  0.00000000E+00
  0.00000000E+00  0.00000000E+00  0.00000000E+00
  0.00000000E+00  0.00000000E+00  0.00000000E+00
  0.00000000E+00  0.00000000E+00  0.00000000E+00
  0.00000000E+00  0.00000000E+00  0.00000000E+00
  0.00000000E+00  0.00000000E+00  0.00000000E+00
  0.00000000E+00  0.00000000E+00  0.00000000E+00
  0.00000000E+00  0.00000000E+00  0.00000000E+00
  0.00000000E+00  0.00000000E+00  0.00000000E+00
  0.00000000E+00  0.00000000E+00  0.00000000E+00
  0.00000000E+00  0.00000000E+00  0.00000000E+00
  0.00000000E+00  0.00000000E+00  0.00000000E+00
  0.00000000E+00  0.00000000E+00  0.00000000E+00
  0.00000000E+00  0.00000000E+00  0.00000000E+00
  0.00000000E+00  0.00000000E+00  0.00000000E+00
  0.00000000E+00  0.00000000E+00  0.00000000E+00
  0.00000000E+00  0.00000000E+00  0.00000000E+00
  0.00000000E+00  0.00000000E+00  0.00000000E+00
  0.00000000E+00  0.00000000E+00  0.00000000E+00
  0.00000000E+00  0.00000000E+00  0.00000000E+00
  0.00000000E+00  0.00000000E+00  0.00000000E+00
  0.00000000E+00  0.00000000E+00  0.00000000E+00
  0.00000000E+00  0.00000000E+00  0.00000000E+00
  0.00000000E+00  0.00000000E+00  0.00000000E+00
  0.00000000E+00  0.00000000E+00  0.00000000E+00
  0.00000000E+00  0.00000000E+00  0.00000000E+00
  0.00000000E+00  0.00000000E+00  0.00000000E+00
  0.00000000E+00  0.00000000E+00  0.00000000E+00
  0.00000000E+00  0.00000000E+00  0.00000000E+00
  0.00000000E+00  0.00000000E+00  0.00000000E+00
  0.00000000E+00  0.00000000E+00  0.00000000E+00
  0.00000000E+00  0.00000000E+00  0.00000000E+00
  0.00000000E+00  0.00000000E+00  0.00000000E+00
  0.00000000E+00  0.00000000E+00  0.00000000E+00
  0.00000000E+00  0.00000000E+00  0.00000000E+00
  0.00000000E+00  0.00000000E+00  0.00000000E+00
  0.00000000E+00  0.00000000E+00  0.00000000E+00
  0.00000000E+00  0.00000000E+00  0.00000000E+00
  0.00000000E+00  0.00000000E+00  0.00000000E+00
  0.00000000E+00  0.00000000E+00  0.00000000E+00
  0.00000000E+00  0.00000000E+00  0.00000000E+00
  0.00000000E+00  0.00000000E+00  0.00000000E+00
  0.00000000E+00  0.00000000E+00  0.00000000E+00
  0.00000000E+00  0.00000000E+00  0.00000000E+00
  0.00000000E+00  0.00000000E+00  0.00000000E+00
  0.00000000E+00  0.00000000E+00  0.00000000E+00
  0.00000000E+00  0.00000000E+00  0.00000000E+00
  0.00000000E+00  0.00000000E+00  0.00000000E+00
  0.00000000E+00  0.00000000E+00  0.00000000E+00
  0.00000000E+00  0.00000000E+00  0.00000000E+00
  0.00000000E+00  0.00000000E+00  0.00000000E+00
  0.00000000E+00  0.00000000E+00  0.00000000E+00
  0.00000000E+00  0.00000000E+00  0.00000000E+00
  0.00000000E+00  0.00000000E+00  0.00000000E+00
  0.00000000E+00  0.00000000E+00  0.00000000E+00
  0.00000000E+00  0.00000000E+00  0.00000000E+00
  0.00000000E+00  0.00000000E+00  0.00000000E+00
  0.00000000E+00  0.00000000E+00  0.00000000E+00
  0.00000000E+00  0.00000000E+00  0.00000000E+00
  0.00000000E+00  0.00000000E+00  0.00000000E+00
  0.00000000E+00  0.00000000E+00  0.00000000E+00
  0.00000000E+00  0.00000000E+00  0.00000000E+00
  0.00000000E+00  0.00000000E+00  0.00000000E+00
  0.00000000E+00  0.00000000E+00  0.00000000E+00
  0.00000000E+00  0.00000000E+00  0.00000000E+00
  0.00000000E+00  0.00000000E+00  0.00000000E+00
  0.00000000E+00  0.00000000E+00  0.00000000E+00
  0.00000000E+00  0.00000000E+00  0.00000000E+00
  0.00000000E+00  0.00000000E+00  0.00000000E+00
  0.00000000E+00  0.00000000E+00  0.00000000E+00
  0.00000000E+00  0.00000000E+00  0.00000000E+00
  0.00000000E+00  0.00000000E+00  0.00000000E+00
  0.00000000E+00  0.00000000E+00  0.00000000E+00
  0.00000000E+00  0.00000000E+00  0.00000000E+00
  0.00000000E+00  0.00000000E+00  0.00000000E+00
  0.00000000E+00  0.00000000E+00  0.00000000E+00
  0.00000000E+00  0.00000000E+00  0.00000000E+00
  0.00000000E+00  0.00000000E+00  0.00000000E+00
  0.00000000E+00  0.00000000E+00  0.00000000E+00
  0.00000000E+00  0.00000000E+00  0.00000000E+00
  0.00000000E+00  0.00000000E+00  0.00000000E+00
  0.00000000E+00  0.00000000E+00  0.00000000E+00
  0.00000000E+00  0.00000000E+00  0.00000000E+00
  0.00000000E+00  0.00000000E+00  0.00000000E+00
  0.00000000E+00  0.00000000E+00  0.00000000E+00
  0.00000000E+00  0.00000000E+00  0.00000000E+00
  0.00000000E+00  0.00000000E+00  0.00000000E+00
  0.00000000E+00  0.00000000E+00  0.00000000E+00
  0.00000000E+00  0.00000000E+00  0.00000000E+00
  0.00000000E+00  0.00000000E+00  0.00000000E+00
  0.00000000E+00  0.00000000E+00  0.00000000E+00
  0.00000000E+00  0.00000000E+00  0.00000000E+00
  0.00000000E+00  0.00000000E+00  0.00000000E+00
  0.00000000E+00  0.00000000E+00  0.00000000E+00
  0.00000000E+00  0.00000000E+00  0.00000000E+00
  0.00000000E+00  0.00000000E+00  0.00000000E+00
  0.00000000E+00  0.00000000E+00  0.00000000E+00
  0.00000000E+00  0.00000000E+00  0.00000000E+00
  0.00000000E+00  0.00000000E+00  0.00000000E+00
  0.00000000E+00  0.00000000E+00  0.00000000E+00
  0.00000000E+00  0.00000000E+00  0.00000000E+00
  0.00000000E+00  0.00000000E+00  0.00000000E+00
  0.00000000E+00  0.00000000E+00  0.00000000E+00
  0.00000000E+00  0.00000000E+00  0.00000000E+00
  0.00000000E+00  0.00000000E+00  0.00000000E+00
  0.00000000E+00  0.00000000E+00  0.00000000E+00
  0.00000000E+00  0.00000000E+00  0.00000000E+00
  0.00000000E+00  0.00000000E+00  0.00000000E+00
  0.00000000E+00  0.00000000E+00  0.00000000E+00
  0.00000000E+00  0.00000000E+00  0.00000000E+00
  0.00000000E+00  0.00000000E+00  0.00000000E+00
  0.00000000E+00  0.00000000E+00  0.00000000E+00
  0.00000000E+00  0.00000000E+00  0.00000000E+00
  0.00000000E+00  0.00000000E+00  0.00000000E+00
  0.00000000E+00  0.00000000E+00  0.00000000E+00
  0.00000000E+00  0.00000000E+00  0.00000000E+00
  0.00000000E+00  0.00000000E+00  0.00000000E+00
  0.00000000E+00  0.00000000E+00  0.00000000E+00
  0.00000000E+00  0.00000000E+00  0.00000000E+00
  0.00000000E+00  0.00000000E+00  0.00000000E+00
  0.00000000E+00  0.00000000E+00  0.00000000E+00
  0.00000000E+00  0.00000000E+00  0.00000000E+00
  0.00000000E+00  0.00000000E+00  0.00000000E+00
  0.00000000E+00  0.00000000E+00  0.00000000E+00
  0.00000000E+00  0.00000000E+00  0.00000000E+00
  0.00000000E+00  0.00000000E+00  0.00000000E+00
  0.00000000E+00  0.00000000E+00  0.00000000E+00
  0.00000000E+00  0.00000000E+00  0.00000000E+00
  0.00000000E+00  0.00000000E+00  0.00000000E+00
  0.00000000E+00  0.00000000E+00  0.00000000E+00
  0.00000000E+00  0.00000000E+00  0.00000000E+00
  0.00000000E+00  0.00000000E+00  0.00000000E+00
  0.00000000E+00  0.00000000E+00  0.00000000E+00
  0.00000000E+00  0.00000000E+00  0.00000000E+00
  0.00000000E+00  0.00000000E+00  0.00000000E+00
  0.00000000E+00  0.00000000E+00  0.00000000E+00
  0.00000000E+00  0.00000000E+00  0.00000000E+00
  0.00000000E+00  0.00000000E+00  0.00000000E+00
  0.00000000E+00  0.00000000E+00  0.00000000E+00
  0.00000000E+00  0.00000000E+00  0.00000000E+00
  0.00000000E+00  0.00000000E+00  0.00000000E+00
  0.00000000E+00  0.00000000E+00  0.00000000E+00
  0.00000000E+00  0.00000000E+00  0.00000000E+00
  0.00000000E+00  0.00000000E+00  0.00000000E+00
  0.00000000E+00  0.00000000E+00  0.00000000E+00
  0.00000000E+00  0.00000000E+00  0.00000000E+00
  0.00000000E+00  0.00000000E+00  0.00000000E+00
  0.00000000E+00  0.00000000E+00  0.00000000E+00
  0.00000000E+00  0.00000000E+00  0.00000000E+00
  0.00000000E+00  0.00000000E+00  0.00000000E+00
  0.00000000E+00  0.00000000E+00  0.00000000E+00
  0.00000000E+00  0.00000000E+00  0.00000000E+00
  0.00000000E+00  0.00000000E+00  0.00000000E+00
  0.00000000E+00  0.00000000E+00  0.00000000E+00
  0.00000000E+00  0.00000000E+00  0.00000000E+00
  0.00000000E+00  0.00000000E+00  0.00000000E+00
  0.00000000E+00  0.00000000E+00  0.00000000E+00
  0.00000000E+00  0.00000000E+00  0.00000000E+00
  0.00000000E+00  0.00000000E+00  0.00000000E+00
  0.00000000E+00  0.00000000E+00  0.00000000E+00
  0.00000000E+00  0.00000000E+00  0.00000000E+00
  0.00000000E+00  0.00000000E+00  0.00000000E+00
  0.00000000E+00  0.00000000E+00  0.00000000E+00
  0.00000000E+00  0.00000000E+00  0.00000000E+00
  0.00000000E+00  0.00000000E+00  0.00000000E+00
  0.00000000E+00  0.00000000E+00  0.00000000E+00
  0.00000000E+00  0.00000000E+00  0.00000000E+00
