Ta  N Co Cu                             
   1.00000000000000     
    18.1096308199999996    0.0000000000000000    0.0000000000000000
     0.0000000000000000   23.3551997799999995    0.0000000000000000
     0.0000000000000000    0.0000000000000000   30.4818171199999988
   Ta   N    Co   Cu
   216   240    24     4
Direct
  0.0008060948780013  0.9964030062750169  0.1956808769848308
  0.3327234809495749  0.0596394416732977  0.2029057901006581
  0.1692899124677680  0.0596826061102433  0.2027773185104067
  0.2514598319845689  0.1235428885628522  0.2767882840167672
  0.0839048064736616  0.0610364925518994  0.2827475786914775
  0.4185528502055718  0.0609279221557699  0.2830132055464958
  0.0017888894075568  0.1237632223239942  0.3679453861158066
  0.3340960923708280  0.0609458974987191  0.3676263783765776
  0.1691684244318310  0.0612443445558242  0.3672695560918555
  0.2534037813420653  0.1235307217431512  0.4548323564877563
  0.0845068294749112  0.0620229231054594  0.4528354459206767
  0.4199696372890642  0.0609056583665506  0.4530223022854045
  0.3395168938814592  0.0605456984801194  0.5412036367812405
  0.1649545636678482  0.0672034895889624  0.5411556141420064
  0.0008218654144372  0.1239257259535407  0.1953641418395407
  0.3326666143551122  0.1880101330881203  0.2028565478444406
  0.1691904585285116  0.1882280147744879  0.2027847874703568
  0.2511123313933439  0.2490686521284005  0.2772084779346713
  0.0838064388962820  0.1866605209916159  0.2827728798292526
  0.4185212212557659  0.1865051109193985  0.2829263301573235
  0.0020754978094999  0.2487450966438303  0.3690677472304600
  0.3342160631660533  0.1858516689479472  0.3674635870579976
  0.1691278378347576  0.1860232629566525  0.3669149187477529
  0.2540332138325070  0.2460878019292068  0.4538880065390032
  0.0856643412462859  0.1853985469254908  0.4522779481246175
  0.4191563552973960  0.1851211641441068  0.4532084451809979
  0.3456519504831519  0.1840041018556278  0.5426986406875187
  0.1729259427150538  0.1952825170692449  0.5406944789594945
  0.0005760317863022  0.2514174957434676  0.1959229099302391
  0.3361878451193476  0.3117101519656273  0.2027240566583899
  0.1651378887750354  0.3119503425055896  0.2029178573763204
  0.2503946772200010  0.3755365962166266  0.2808571293019781
  0.0830952722653109  0.3123403012096233  0.2840794433283875
  0.4184056372151801  0.3121669367703674  0.2838206483990078
  0.0019599091059490  0.3738135708972408  0.3711871305333005
  0.3336418853023062  0.3110769350418039  0.3684001498770755
  0.1684501079385896  0.3110815351912279  0.3685293891488470
  0.2514999252750627  0.3719214704936107  0.4562656320809353
  0.0876823357197480  0.3098966567382320  0.4562956594489478
  0.4168534725400548  0.3096170053935339  0.4540700473195969
  0.3534678757458352  0.3085541779064727  0.5465878300659668
  0.0002276474272804  0.3753781540688337  0.1979441883397328
  0.3301344592567261  0.4402960848083382  0.2027297136552022
  0.1705181707202215  0.4405379607429794  0.2033203298491841
  0.2512175037827618  0.9983597280652816  0.2778263109540831
  0.0832116270129433  0.4369137472851889  0.2854770306008803
  0.4174521454575739  0.4367798495604092  0.2846677721182829
  0.0015565361833296  0.9990373196246480  0.3687899342544227
  0.3325995874777519  0.4362812821415289  0.3698333915059351
  0.1676879346348272  0.4362011715623595  0.3703350402893122
  0.2518188901593561  0.0002054598688730  0.4558094646737203
  0.0876542563742362  0.4351994500957943  0.4574228559670033
  0.4155620220113079  0.4348972869233734  0.4553962197820596
  0.3543258044166677  0.4321218276334875  0.5491897851628167
  0.9999678320848560  0.5002381856977465  0.1982694182558902
  0.3300328184158658  0.5592232234607337  0.2035764338950372
  0.1700803234267525  0.5590913472951442  0.2041442662775523
  0.2499822509195440  0.6239599825356592  0.2830661782894595
  0.0829638563616797  0.5618486356056493  0.2862708839400483
  0.4172013553388325  0.5617423287338212  0.2852777896111149
  0.0004716937653342  0.6245125303926429  0.3728312794298532
  0.3320150655953071  0.5612064940903707  0.3710403699147022
  0.1680323012789842  0.5613058963976272  0.3716337328419854
  0.2487649292635865  0.6224474832950122  0.4605114737627076
  0.0870962622771003  0.5618429153035081  0.4575015382158369
  0.4157527218179098  0.5604342248581631  0.4553743438231166
  0.3524994494927540  0.5551899424800268  0.5483669083512694
  0.9999016079206271  0.6238915466225166  0.1997276157928454
  0.3302848441146224  0.6884925748697128  0.2036848046345341
  0.1700980079096439  0.6885704810824222  0.2040831332458026
  0.2503147267237011  0.7484308211800439  0.2829330745679854
  0.0829293805936828  0.6859317035435168  0.2860469850148633
  0.4173782978969740  0.6858933122528583  0.2853795422418983
  0.0004171969351674  0.7494154618087165  0.3715947389605958
  0.3326209783158802  0.6863162742787310  0.3708534702076349
  0.1678073959753306  0.6866604208357430  0.3709323957965509
  0.2503357322546762  0.7515967805064463  0.4581579353277334
  0.0859173119790242  0.6883383674266810  0.4567677211474219
  0.4155884856889145  0.6865037156297120  0.4563396157289006
  0.3625436635194745  0.6779548704057774  0.5495815592640483
  0.0001182111080240  0.7475615455315889  0.1978221343405977
  0.3303316942745127  0.8074696157559487  0.2028983797866886
  0.1708171241843743  0.8074057532193208  0.2032152733396941
  0.2507935113042663  0.8725254575729551  0.2809890122852323
  0.0832601919080957  0.8109086828406404  0.2851598470093890
  0.4177222302628394  0.8108159153100800  0.2850211239804850
  0.0009498570624658  0.8741694510842279  0.3701217996660802
  0.3331575228989223  0.8113280496897346  0.3701752565462044
  0.1683525278934823  0.8116933544785070  0.3699018184391321
  0.2511806158684564  0.8740247696466099  0.4573637964673622
  0.0837783689450831  0.8138599804442919  0.4549934957038886
  0.4168771644337781  0.8118390567044003  0.4559771050172614
  0.3401980062706045  0.8098879643260801  0.5470911915397210
  0.1643144352823001  0.8147554820951228  0.5443913206308082
  0.0005044193558135  0.8725428149713892  0.1974586944474481
  0.3362401391872609  0.9359923212396168  0.2028980359970802
  0.1653973710031948  0.9359472054361930  0.2028366504157688
  0.2498381779167715  0.4994813790450223  0.2829463847922966
  0.0832387080836270  0.9354520077433719  0.2840308496720496
  0.4185944988162689  0.9353856972865202  0.2841275605315516
  0.0012573537167313  0.4987060631287648  0.3722592159662881
  0.3335979204807629  0.9362026260027534  0.3686952225743738
  0.1688196070404473  0.9365262019024527  0.3685156129444920
  0.2488835795964164  0.4990410290811198  0.4600408934638480
  0.0837943820056495  0.9380224499619061  0.4539399542928066
  0.4190266448288185  0.9365163630694369  0.4541329403913323
  0.3393214415244756  0.9359706471133080  0.5422351210922969
  0.1626393974433284  0.9408297856776286  0.5421241630558029
  0.5009801990762455  0.9964471644200756  0.1958186945642240
  0.8326791835227993  0.0597478256120851  0.2029543288815461
  0.6693648065754161  0.0598116304495377  0.2029954214151743
  0.7511871677319206  0.1238760382341439  0.2770913131135586
  0.5839244879016903  0.0610506720902464  0.2830683580058277
  0.9183467382663792  0.0611039235411042  0.2829526736501933
  0.5014950366171007  0.1235646556543060  0.3683741356533048
  0.8337822178472152  0.0614083798919580  0.3675114414036145
  0.6688256070751137  0.0613223944432946  0.3676323189408279
  0.7525123949488162  0.1246051138198752  0.4548254957141111
  0.5843785245177529  0.0616685629837761  0.4535101440637561
  0.9200079446207710  0.0619799758273203  0.4526621832808431
  0.8398601104282335  0.0632865830107292  0.5406406428087323
  0.6654116046515028  0.0648666237407483  0.5419214677621653
  0.5010694033488079  0.1237568005628944  0.1954503466809498
  0.8329258859056665  0.1883001835331513  0.2030235507119329
  0.6693657186581561  0.1881844513635116  0.2029875513094694
  0.7512270224328859  0.2492965838619696  0.2776425424488806
  0.5838000272137833  0.1866295367674908  0.2830410173787783
  0.9184133507694838  0.1867247303926618  0.2831842287574347
  0.5007800875222728  0.2485173264185789  0.3688943972724843
  0.8338836973542172  0.1863527356307557  0.3677704728141080
  0.6690193862943303  0.1862819862338370  0.3674877816043249
  0.7531249019218862  0.2464691691415908  0.4557341017124728
  0.5842417721594444  0.1852698727536151  0.4529935480360265
  0.9212740472769525  0.1855829623092973  0.4522951895545972
  0.8441096724632189  0.1839452964066979  0.5402880983589853
  0.6712418149186448  0.1913827907232104  0.5404004398558655
  0.5010417992193936  0.2511971048263320  0.1956993675688707
  0.8365580819159035  0.3119252949796660  0.2032702967212643
  0.6655071249114926  0.3118532651125889  0.2028929912681505
  0.7510485725682301  0.3752811298887053  0.2812570544564252
  0.5834071333843838  0.3122117533926172  0.2839697897897224
  0.9182922732810823  0.3123766742585445  0.2846937394835791
  0.4995130841059776  0.3736496710002655  0.3698494798054099
  0.8333375610060330  0.3114086777574769  0.3691906509846419
  0.6686952196641442  0.3112714320054479  0.3684296958428845
  0.7507573741479376  0.3730471293341395  0.4609193106136686
  0.5823742002765755  0.3092420465829662  0.4530462236772053
  0.9212615039105003  0.3095329134688072  0.4540559426239525
  0.8466177635841063  0.3029113113299289  0.5447942774166847
  0.5008854739355684  0.3751091140778655  0.1972625842500122
  0.8306665412169494  0.4404955482198574  0.2036921578528563
  0.6710928386394315  0.4403068315067244  0.2029448533748379
  0.7509678260097417  0.9986910206191482  0.2777099327022015
  0.5838113989557101  0.4367802443955640  0.2848133270020767
  0.9174688348903359  0.4369305493652647  0.2861372855058235
  0.5012823805108724  0.9986784519149907  0.3690939684159602
  0.8325304310019916  0.4364395622367354  0.3717957098276798
  0.6687054977462807  0.4364239835683108  0.3701150973484744
  0.7511939674113037  0.0003606881096161  0.4552838140371236
  0.5806190888588176  0.4345622015791548  0.4532474350620603
  0.9209712367379694  0.4337931941883113  0.4558560846550250
  0.8432447049081304  0.4379304838721865  0.5453004240945845
  0.5008302827083781  0.5001221131911393  0.1973160145391475
  0.8310152408334162  0.5592534911703666  0.2044988144321707
  0.6708531518892400  0.5593720752303000  0.2036779801564563
  0.7508881465146544  0.6240160577062710  0.2833624174671669
  0.5836400693195642  0.5617618595978655  0.2853186492156894
  0.9170870435475962  0.5618119496386669  0.2870023124804462
  0.4986053762869105  0.6238834389752839  0.3707437592422949
  0.8317039306387528  0.5614909124532019  0.3729384238659108
  0.6684233584038921  0.5612846636050861  0.3707282503414291
  0.7533497528902586  0.6237760238870180  0.4657718464350538
  0.5793628272896143  0.5608696980840548  0.4525989011157563
  0.9206430046898788  0.5613182521098850  0.4555943673741751
  0.8341827733377443  0.5755547795840528  0.5515932455637866
  0.5006587943650374  0.6239050374117738  0.1988322584975393
  0.8309423037637842  0.6884529276974334  0.2042854064582045
  0.6706966995922130  0.6884416413258521  0.2038621337552371
  0.7507343643582161  0.7486101404968721  0.2830994336244288
  0.5836121492878519  0.6859648549139621  0.2854481822357400
  0.9171746927162729  0.6859361421249943  0.2865908871035288
  0.4993270266663359  0.7490267113662767  0.3708813118259684
  0.8321210383080242  0.6866752730696177  0.3723078053753994
  0.6678153502960527  0.6864192186999318  0.3711308071559145
  0.7503280684783036  0.7506888936182250  0.4599940590788449
  0.5805706957510637  0.6877907298406640  0.4549346968088201
  0.9173859769680917  0.6888058282337823  0.4578083139835556
  0.8157041675883363  0.7053701969409474  0.5592137690833852
  0.5007667625853358  0.7477363053760939  0.1973743347585426
  0.8305816806929656  0.8073827926922590  0.2032808702403130
  0.6709227657789540  0.8075363367208581  0.2029765853637215
  0.7507278602538250  0.8726608594601331  0.2810644152284851
  0.5837037309050430  0.8109185427430958  0.2850061051837542
  0.9174507225616750  0.8109166193697490  0.2853441663384473
  0.5003532836942810  0.8736405912236833  0.3701391956879050
  0.8330727016126716  0.8117430054540336  0.3704375999932097
  0.6678662902174892  0.8114732450225901  0.3702517839614146
  0.7509048078594702  0.8762357713178375  0.4570144753644456
  0.5815564723691864  0.8136387389120188  0.4549004815541622
  0.9179651652510259  0.8137799750802373  0.4554679332697020
  0.8442262790449817  0.8211801132365935  0.5448899332888217
  0.6668077235101464  0.8124536492436718  0.5438870676561223
  0.5008331131502217  0.8726766807839255  0.1973812100050480
  0.8362904634758124  0.9360117619804456  0.2029049327454331
  0.6655009380846337  0.9360477684356852  0.2028686343482846
  0.7512693003867099  0.4991449559879513  0.2833627635280820
  0.5833955634177528  0.9354672484821478  0.2841480058333161
  0.9184488923951477  0.9355242538464239  0.2841230751642385
  0.4986763537908132  0.4985383137122028  0.3701824886813512
  0.8334213023468990  0.9365648590270510  0.3686584577711258
  0.6683648990314666  0.9364723952220970  0.3687937583085983
  0.7528305293666122  0.4967031599912488  0.4666670162000557
  0.5833813981597871  0.9376191293507858  0.4542592018759564
  0.9196696543868939  0.9381010924504025  0.4537792363444169
  0.8386396948187027  0.9420346242645579  0.5414518458644793
  0.6641725093477149  0.9384158796230793  0.5423454184454997
  0.4080022402048584  0.9976500568059805  0.2317501506057624
  0.2508370234934034  0.9962344853772720  0.1958485223945203
  0.0937995037572890  0.9977184331920412  0.2315716084675330
  0.1561961585388474  0.1235999993240569  0.3144648447110825
  0.0012194966860193  0.1238595287495556  0.3012632523273169
  0.3465417340691133  0.1234722336998502  0.3148082241268924
  0.4029189373654063  0.1232226370816321  0.4011507117072455
  0.2517029914652298  0.1233989336042072  0.3867526706837836
  0.1004369888620289  0.1235718342395842  0.4005744437561205
  0.1534610294736538  0.1249040020919736  0.4854361800709626
  0.0027838040643999  0.1236465203325920  0.4740199334958959
  0.3532997555310828  0.1224736221655007  0.4866985890108353
  0.4108575404887773  0.1204708823306859  0.5661285617198573
  0.2531873041922950  0.1231905618110005  0.5548086804559276
  0.0992958886785757  0.1353137781863154  0.5634031002451749
  0.4077056335443956  0.1237564567997680  0.2311833075885659
  0.2508352740109885  0.1238576223566952  0.1967712163719497
  0.0942743046156522  0.1238541850816901  0.2309602490929024
  0.1559091730873234  0.2489595414143224  0.3150479222391667
  0.0011196497400476  0.2492103048705445  0.3024222296982728
  0.3464563261523850  0.2487412626284922  0.3151802805696988
  0.4019305084623355  0.2479893082949758  0.4016358634110730
  0.2516133859626422  0.2480982100143976  0.3864415006860824
  0.1009413723820245  0.2483597064628924  0.4011471204706041
  0.1559012624453402  0.2434819077759087  0.4834687962864237
  0.0041358285709947  0.2472559075713363  0.4735271085307602
  0.3518222102554773  0.2470991632661992  0.4883449282623218
  0.4166673702691597  0.2430189139783252  0.5679456203800299
  0.2636783206263260  0.2377854787177043  0.5640562693219238
  0.1063634495583514  0.2730774075967091  0.5609968410570190
  0.4080309284705947  0.2498722377232028  0.2315694391775480
  0.2507538577055541  0.2516126872432523  0.1955555264656255
  0.0936581218488115  0.2500772895859953  0.2316556980217612
  0.1541909827961163  0.3742556106166930  0.3171200308037641
  0.0007365967566599  0.3745452099017115  0.3042340174541351
  0.3470096919908414  0.3742215463566723  0.3167437215257110
  0.4003411398855192  0.3732843124508420  0.4027830696405346
  0.2507099786035383  0.3733590654953005  0.3887135597178144
  0.1009081002156691  0.3725096817486317  0.4034962025485527
  0.1555592443204503  0.3698773487866873  0.4876594906923657
  0.0022545704992112  0.3724915813756198  0.4749339715839085
  0.3495375549144057  0.3715690494844068  0.4905323436656772
  0.4240649215646854  0.3681695945972692  0.5688036029467654
  0.2822434902803792  0.3654149390434114  0.5748914938754979
  0.0564714188313857  0.4000716611071340  0.5697249165669973
  0.4063400747137180  0.3755056568978503  0.2324548025218505
  0.2505429306193676  0.3752235258988534  0.2107793600618280
  0.0947578917801408  0.3757648979085886  0.2330030688924793
  0.1557057934914923  0.9986787343625139  0.3152791237822683
  0.0010607687099835  0.9986546849881464  0.3021225108330583
  0.3466303150993326  0.9985141200358143  0.3154976452353466
  0.4026972927252288  0.9985869906203249  0.4017469570818193
  0.2513992302735986  0.9989802745258487  0.3876821510759925
  0.1003026029443745  0.9994483342631852  0.4014699921564144
  0.1516569787409523  0.0013379897503611  0.4867625807995353
  0.0019254958669848  0.0001145782913667  0.4742034424158916
  0.3521005621265942  0.9991105999600904  0.4867401470920854
  0.4080179216453175  0.9990051204027282  0.5655744266390030
  0.2511914807244011  0.0021928221174932  0.5549202327152543
  0.0964425031290332  0.0054176721213182  0.5659770002400535
  0.4058764201512659  0.4996022192286844  0.2332805005068650
  0.2501903589609356  0.4999070929172049  0.1790849733166411
  0.0945543430389293  0.4997385743585454  0.2342881212912289
  0.1535931987912917  0.6238973221519259  0.3189121507926984
  0.0002208212524053  0.6238777988885289  0.3057285359127704
  0.3467765695343914  0.6238166698977636  0.3184205710749382
  0.3999445348323007  0.6238218005334417  0.4042472564207742
  0.2499595613146965  0.6239768229759903  0.3919797551550275
  0.1005727159402596  0.6244983801994621  0.4049092068935423
  0.1493355010123736  0.6257826100549906  0.4926547536878658
  0.0018508347519770  0.6259854985631819  0.4714177234755184
  0.3501808710415091  0.6212667105805423  0.4911156904698473
  0.4270394024548452  0.6178682184978612  0.5696670345030483
  0.2780180172506590  0.6256576513906253  0.5710306426403733
  0.0456432009659409  0.6399884404084162  0.5609562010988753
  0.4053816783542601  0.6238763174871949  0.2332828521185206
  0.2501835178466507  0.6238993154063195  0.2126776347614339
  0.0950501863261621  0.6238383088498196  0.2341402516971840
  0.1533018317794514  0.7486702911259329  0.3183035959904785
  0.0003247685347461  0.7485549121219535  0.3044862580792440
  0.3475756794447165  0.7485229544688465  0.3182028053563926
  0.4006847181110444  0.7490393797054864  0.4044052585280795
  0.2504084802957465  0.7490949449465134  0.3903923713479713
  0.0997102703921371  0.7502164379049390  0.4040627287709100
  0.1521086757754944  0.7538307620916740  0.4899399665493718
  0.0009830269475657  0.7521609602432946  0.4750958968659091
  0.3480077805783495  0.7488458129692859  0.4915900426624873
  0.4099728047053333  0.7506317122648127  0.5713279440091625
  0.2477420285422127  0.7751325103415851  0.5747847847830840
  0.0789358029422047  0.7558137799190234  0.5636259749148280
  0.4060981853967220  0.7481213687948340  0.2335082075745234
  0.2503232280782655  0.7478377547691224  0.1794632998937757
  0.0946222983112222  0.7480874087329425  0.2339203147557569
  0.1541874292149430  0.8736032844029893  0.3169035140805718
  0.0006187628249421  0.8732827485604631  0.3033902847439549
  0.3474309989959821  0.8733784169777792  0.3170471425562340
  0.4018509406123627  0.8738687535631939  0.4031618518649509
  0.2509474890151608  0.8743680058910357  0.3890507453686283
  0.0998497622099990  0.8748283825159930  0.4027168412920901
  0.1508147466084964  0.8760416486428895  0.4878383313897885
  0.0016426350011045  0.8766284539797411  0.4751604999545265
  0.3514025940770864  0.8742127656899115  0.4884959048089499
  0.4054126205666151  0.8752107664557656  0.5680444758698755
  0.2494218583468282  0.8826168353924402  0.5545670504219729
  0.0964134807035464  0.8779357293521315  0.5673731351815547
  0.4063670656609872  0.8721205369663423  0.2327363852644027
  0.2506828385940736  0.8726664804523523  0.2107314547678030
  0.0949939926126717  0.8721323150601563  0.2327467808450621
  0.1532015175488937  0.4992794421589082  0.3187597953852972
  0.0004176158473683  0.4992516286441955  0.3051083520114588
  0.3472388926867325  0.4991418322704888  0.3180453452798062
  0.3999649923705775  0.4981070404864383  0.4038123012508734
  0.2500239303277851  0.4984298783038739  0.3914881773960701
  0.1005360111781144  0.4982158655015780  0.4049920265357656
  0.1502235342036826  0.4970095634492182  0.4912725395126785
  0.0023017549970064  0.4991819278944263  0.4733056927002792
  0.3498539777297509  0.4975121540453316  0.4911372621285395
  0.4227095845338269  0.4952223814231473  0.5698701126143462
  0.2753331665774326  0.4906582806598649  0.5693925894099436
  0.0405259906426139  0.5210929344264557  0.5588029460118094
  0.9079306913671061  0.9977600893774081  0.2316993524432220
  0.7509457842087457  0.9962956418370652  0.1957640113044974
  0.5939798264357989  0.9977878652816017  0.2317420816715128
  0.6561013975708789  0.1238702169614214  0.3148853619481784
  0.5012647652122695  0.1237698765358957  0.3015593796084772
  0.8463917302957853  0.1239604264243184  0.3149156868830545
  0.9032904964380251  0.1237023253224621  0.4007479424626865
  0.7513958527928608  0.1238706744953575  0.3868852501522255
  0.6001972004907188  0.1236385400367013  0.4011219292641357
  0.6530846778010542  0.1250517223079655  0.4866112851268554
  0.5022978921061636  0.1231798631495380  0.4741055430628336
  0.8529462524511970  0.1236225459771347  0.4859846950294084
  0.9126272746195596  0.1240706350524619  0.5648596250031304
  0.7548427734223395  0.1264097953125116  0.5557851613094584
  0.6019306464487642  0.1298326776144378  0.5658527655126946
  0.9076026987531094  0.1239968528693467  0.2312330837927163
  0.7511713107254394  0.1240314983033883  0.1971046401287566
  0.5944271596775152  0.1239104775202193  0.2312253298164180
  0.6559401898631094  0.2490054163974520  0.3153369004155024
  0.5010161021648258  0.2491373521377511  0.3022233406163366
  0.8462703361796642  0.2490657536382983  0.3157440988016447
  0.9032711059622969  0.2484438363246326  0.4012943906844200
  0.7512197307152917  0.2486959883621580  0.3879203136667471
  0.5998812017668129  0.2476787898801547  0.4010063172329978
  0.6522961439720447  0.2467545735407626  0.4855888400951329
  0.5008710828549212  0.2461804645995045  0.4735830458314680
  0.8544553243029043  0.2457700364046218  0.4860109229382701
  0.9186255898484958  0.2472354267854371  0.5634134053388777
  0.7614120367816213  0.2481001467627806  0.5560336502377297
  0.5892446055281582  0.2504316394379345  0.5617275800985624
  0.9079324168512031  0.2501497051855637  0.2321539673520832
  0.7510498502845095  0.2516891123604879  0.1959735564984513
  0.5939170992309428  0.2499330447589472  0.2316906768229288
  0.6547668052047655  0.3744013843828995  0.3168990074290932
  0.5005958159972650  0.3744394926189614  0.3031325983850834
  0.8467848311560147  0.3746012575130635  0.3179282067916489
  0.9024684271963253  0.3728493127531323  0.4030107567719767
  0.7504052612753398  0.3735618939391188  0.3912894306629298
  0.5987756058513227  0.3728141208488225  0.4012441899377137
  0.6467923345491897  0.3694199035651380  0.4846024992596654
  0.4987746048207740  0.3720227724738194  0.4723617983701374
  0.8538188549668888  0.3676162266092717  0.4885896238841312
  0.8861227889411012  0.3716206058157709  0.5751833988552875
  0.7432295267573821  0.4325279862506406  0.5175049110171059
  0.5903693802581884  0.3766266306329697  0.5608053428928059
  0.9061308180257654  0.3758344274301848  0.2335891615809942
  0.7509179906394152  0.3752159573683613  0.2108429247199624
  0.5952395309449656  0.3755476133285356  0.2326119651196663
  0.6556499558938427  0.9986874911946444  0.3155066427387325
  0.5011690486168874  0.9985117930319802  0.3023649982667820
  0.8464156694589491  0.9988121860849475  0.3153861189446019
  0.9029305951779918  0.9993935737367181  0.4013566102277650
  0.7511528775618359  0.9992612733905943  0.3873865866145749
  0.5998531801786626  0.9992281977851789  0.4018827750778726
  0.6518531500636371  0.0003500403595638  0.4871667769460757
  0.5016078566276718  0.9994373638225795  0.4748341715693201
  0.8516199154948367  0.0010540736885361  0.4864053957931205
  0.9097970376235551  0.0032110493225375  0.5653909070218290
  0.7526009954145607  0.0034333008451597  0.5564282919171006
  0.5970678229674391  0.0025615189140993  0.5659901325132140
  0.9060941753120133  0.4997324179721687  0.2349485065508929
  0.7510107250596363  0.5000531674623403  0.1797317295912606
  0.5951852907554596  0.4996118760031010  0.2335067299445939
  0.6542812244033129  0.6238135448175584  0.3183436246173130
  0.5002954452557589  0.6238071673797094  0.3039618920772895
  0.8464750191011277  0.6238420575846391  0.3198393443582574
  0.9007737316073587  0.6252562931903114  0.4050322742898089
  0.7497231127946478  0.6238031089792173  0.3943121979668973
  0.5973984698480237  0.6244352170439313  0.4019250053976791
  0.6447319176898745  0.6228598043868416  0.4821885416420955
  0.4984751971386103  0.6240331344975516  0.4734001669307872
  0.8659106862686627  0.6241246728486018  0.4953622851370270
  0.8158233296660242  0.6348977084040897  0.5923069440045126
  0.7435604028171099  0.6869422841618942  0.5110062388134722
  0.5972098035378437  0.6234231107804220  0.5597359098363199
  0.9053664930632479  0.6238289960452050  0.2347634758531427
  0.7508077964579556  0.6238697613511448  0.2128731306055442
  0.5955837827519730  0.6239355651741079  0.2334401894207261
  0.6536391073635031  0.7485712941586016  0.3182486372430517
  0.5004920982468448  0.7484278569010812  0.3037955096719145
  0.8472411941555080  0.7485781608685542  0.3189306444147775
  0.9014216792257912  0.7501668925049501  0.4043984666142890
  0.7499752290342272  0.7493379367569020  0.3913559198389436
  0.5979378108434972  0.7498479614935931  0.4034385154051847
  0.6475730651365197  0.7547586076329793  0.4881527909204308
  0.4985374025566429  0.7508064001764652  0.4764387676681849
  0.8514020340702970  0.7552260012174941  0.4902912754672926
  0.9078460606196259  0.7537679035928377  0.5680125145585748
  0.7559386757247921  0.7731428935083215  0.5733201765434046
  0.5896299948441097  0.7480861554184273  0.5627193150290282
  0.9061191945878662  0.7479971759884947  0.2343435394327997
  0.7508429753431116  0.7477604939903202  0.1797030479176911
  0.5950305379411560  0.7482071890598121  0.2336252675392814
  0.6543178994160002  0.8735092345289388  0.3170822442475441
  0.5008879406197053  0.8731189855259629  0.3033566981475744
  0.8471198997093339  0.8736398342851217  0.3170988482060864
  0.9022866316035234  0.8751473198227799  0.4027059002151674
  0.7506350971048619  0.8746093234353154  0.3891496420317324
  0.5990419580278683  0.8747787447170552  0.4027283025791846
  0.6508171827702753  0.8755119820397752  0.4879060635644947
  0.5003653415187586  0.8752270115903258  0.4756792005470487
  0.8517396289274970  0.8780563742850305  0.4878893903508441
  0.9095104706448254  0.8827255826589635  0.5682132087423497
  0.7523665562517081  0.8828275458230834  0.5555804635764332
  0.5984449900090425  0.8740200283737636  0.5668792573901342
  0.9063062065681606  0.8721313480083595  0.2328894603147234
  0.7508014827800764  0.8726729028780298  0.2108323427272794
  0.5952005785622774  0.8722166706039403  0.2327350911490598
  0.6541422350443895  0.4991026458638572  0.3180367342901960
  0.5003494598105576  0.4990858594781216  0.3033343549027379
  0.8469551231518437  0.4991733709926507  0.3197236945359094
  0.9019010142353778  0.4980499755378673  0.4041032437900967
  0.7499519298257553  0.4982664179962057  0.3946283916490430
  0.5976872763235406  0.4980280095919554  0.4014150832362517
  0.6444343273302806  0.4977872347312342  0.4826666643347721
  0.4979460122479011  0.4974302332906646  0.4731440706381136
  0.8641664295478719  0.4965655431451594  0.4909650892752708
  0.8735103058259526  0.5049427296167011  0.5788418047980173
  0.7426332947679128  0.5602207095246072  0.5170810445447387
  0.5952138996958922  0.4994970908999150  0.5592200147299451
  0.0053126431488906  0.1276073812749061  0.5406144582638390
  0.0126708885769915  0.2619664005920797  0.5396323528372449
  0.9775931200859418  0.3832954779738742  0.5394191916344226
  0.1080181164615723  0.3477498553521201  0.5424849778624932
  0.0024837300558005  0.0007505744851954  0.5409799922698397
  0.0930862749753345  0.4616091407087666  0.5440025029757578
  0.9653329276155276  0.6287741533767743  0.5302926238597081
  0.0939096153611700  0.5780843652635212  0.5431499631624419
  0.9937904414251904  0.7557707888776690  0.5381835241457722
  0.1083551457545937  0.6903871002421766  0.5401022512957141
  0.0027540687941894  0.8834079637349532  0.5430979203395694
  0.9569972486357869  0.5070412474579982  0.5320620138051879
  0.5056045638962985  0.1275311122799039  0.5431865134358631
  0.5029458042594470  0.2406428059580676  0.5376725285905621
  0.5049764695560555  0.3762658239620578  0.5352939878206797
  0.6211235924281340  0.3128169640487073  0.5345991763590661
  0.5025923997949917  0.0007988733665698  0.5426817090714735
  0.6306770587101695  0.4367082606980119  0.5326430096584076
  0.5102626540718518  0.6207838624470199  0.5364998484083330
  0.6310545226434314  0.5616199344816692  0.5315307137613559
  0.5005245344304541  0.7550232289084562  0.5413916481080889
  0.6297635428116521  0.6880761395752231  0.5338525912956698
  0.5017332378145127  0.8722801726628830  0.5445639841218863
  0.5066535931295775  0.4952934013459114  0.5368114057047109
  0.2161293266900657  0.5576828205130937  0.5759616218157646
  0.2092956620150161  0.3056620230966800  0.5797769391711753
  0.2330776988440135  0.6968616320438201  0.5809605881584048
  0.2079902691995841  0.4232504127807530  0.5702907714177741
 
  0.00000000E+00  0.00000000E+00  0.00000000E+00
  0.00000000E+00  0.00000000E+00  0.00000000E+00
  0.00000000E+00  0.00000000E+00  0.00000000E+00