Ta N Cu Ru                              
   1.00000000000000     
    18.1096308199999996    0.0000000000000000    0.0000000000000000
     0.0000000000000000   11.6775998899999998    0.0000000000000000
     0.0000000000000000    0.0000000000000000   23.4818170799999990
   Ta   N    Cu   Ru
   119   120     1     1
Direct
  0.9999613076385182  0.0000459586891763  0.2547253687493013
  0.3334446146718301  0.1249098137350421  0.2636928899754360
  0.1665082978948331  0.1250436291819488  0.2636870979742537
  0.2500923708935764  0.2499796438121007  0.3612219928642033
  0.0825072329737625  0.1250784746107952  0.3682847647857219
  0.4176308824039617  0.1249859762609236  0.3682665217011873
  0.0000987820846373  0.2502479364090344  0.4797033306032432
  0.3321255199983723  0.1249984387747334  0.4778211082863990
  0.1677470651984029  0.1251390956062619  0.4777862919723317
  0.2495680080039246  0.2496539913733432  0.5906664640925282
  0.0842204224235374  0.1245779733727505  0.5888292020310055
  0.4160161801482125  0.1250026447172170  0.5899979673981898
  0.9996219667790440  0.2418709151067100  0.7032879146053058
  0.3366213381793222  0.1224605246103139  0.7038079874156473
 -0.0000044912091076  0.2500598875367723  0.2547750105238835
  0.3335906870844589  0.3750361777737662  0.2637378850656218
  0.1664107917234509  0.3750902676153648  0.2637015919020020
  0.2499732980755670  0.4999808198347820  0.3612642856755912
  0.0824741677809365  0.3750689319814563  0.3683960816488254
  0.4175477395797368  0.3749875928738965  0.3684034267316849
  0.9999915305710099  0.4999626621614978  0.4799467011102792
  0.3323462281529839  0.3750212967142600  0.4780497097143253
  0.1675037342096686  0.3751388113076747  0.4780887387563100
  0.2495623060133863  0.4999144616363406  0.5910372078035376
  0.0836454356322268  0.3748548632709509  0.5902381760264902
  0.4159245479989394  0.3749660318131669  0.5900017296282595
  0.9992328476621557  0.5001477141270437  0.7025512855874169
  0.3366869816619451  0.3773947435615741  0.7038769720579953
  0.1620599919772825  0.3769987557830385  0.7042525100414203
  0.9999625319904899  0.4999728514287757  0.2548063789010168
  0.3335422047410946  0.6249604174060354  0.2637544228175076
  0.1664347201716295  0.6249021517768989  0.2637088047242115
  0.2500705368767305  0.7500145949357907  0.3612358841875523
  0.0825037010864549  0.6249353298342470  0.3683634444007344
  0.4175231830740839  0.6249999494459736  0.3683698769099018
  0.9999722501678983  0.7498458552882415  0.4795875858234573
  0.3323247400822717  0.6249880931854029  0.4780233785016731
  0.1675594505203268  0.6249068688040086  0.4780928688676750
  0.2496000688677037  0.7505008640394345  0.5909274233538271
  0.0834244502580165  0.6252596628625299  0.5899957676791324
  0.4162322622882570  0.6250345729974203  0.5897023932353953
  0.9998141747516652  0.7578676392140636  0.7030428572969333
  0.3347718505114173  0.6256686926798420  0.7038246005114110
  0.1640996894303275  0.6259757776747162  0.7042643786850554
  0.0000029440070595  0.7499595646771748  0.2547531306690958
  0.3333563914321010  0.8750984865785162  0.2637114061627456
  0.1665516289371587  0.8749745791593011  0.2636971466456740
  0.2501916297012580  0.0000354219900765  0.3611721448581099
  0.0825213978510832  0.8749556763167221  0.3682645636863319
  0.4176287549647104  0.8750377203004324  0.3682347094018178
  0.0000069901991917  0.0000801071194097  0.4792780630298797
  0.3320538741238613  0.8750069860923231  0.4778224117447942
  0.1677418464235012  0.8748996254219173  0.4778057113777913
  0.2499008624530208  0.0000003509532850  0.5907536438517114
  0.0839660202961045  0.8755178632973961  0.5885761160299889
  0.4163180279627854  0.8749448547820577  0.5896840334653936
  0.3345762936160063  0.8741093796007220  0.7037853003613307
  0.1643269144501444  0.8751001841231778  0.7033955263016952
  0.5000576757057769  0.0000057579001137  0.2547930575050752
  0.8334615530909509  0.1251183127844246  0.2637093619894063
  0.6665952882902576  0.1250159299029147  0.2637325010116314
  0.7499375928010706  0.2499816349180004  0.3612862202744059
  0.5824013910710353  0.1249925026041092  0.3682994544666067
  0.9174574563243740  0.1250736041387567  0.3683001615983227
  0.4999058996984036  0.2500060688795344  0.4799396049434337
  0.8322670833185541  0.1251874821061254  0.4778837006553751
  0.6679798131447556  0.1250489998614648  0.4778953864781821
  0.7503602611681945  0.2495991104310064  0.5911010186056359
  0.5836688125039527  0.1250297224428175  0.5898375191025640
  0.9160158124943368  0.1245456192402314  0.5887177903757830
  0.5002241372203783  0.2500650801595032  0.7023470224364948
  0.8358260615098375  0.1241948231909360  0.7033571756649049
  0.6655108894597447  0.1251194743048759  0.7039543353202152
  0.5000126617428696  0.2500995712825922  0.2548212336026972
  0.8335660872699018  0.3750204996630233  0.2637197289168094
  0.6664410433785719  0.3749521162802030  0.2637695075618260
  0.7500399035233248  0.4999892989772341  0.3613103862632183
  0.5825172999877557  0.3749767059655300  0.3684448764862783
  0.9174624283296114  0.3750577709365580  0.3684164562356712
  0.4999962945750531  0.4999404981981094  0.4798303175083240
  0.8324406238177481  0.3750830714398148  0.4781623428242640
  0.6676709461908092  0.3749778129757810  0.4781237070340263
  0.7504192818532459  0.4999559194075907  0.5910990597372999
  0.5837156852973258  0.3749230507763752  0.5898586756109540
  0.9166287309971768  0.3748197143043688  0.5901522941987305
  0.5007244203468112  0.4999760887431537  0.7019073215696919
  0.8357287173925158  0.3744716315410885  0.7044698504197404
  0.6653693656055377  0.3747645375812126  0.7039762614727596
  0.5000601046768944  0.4999524141219610  0.2547941669510479
  0.8335327456588844  0.6249560645300580  0.2637280492498713
  0.6664547311904381  0.6250330184282907  0.2637659079551432
  0.7499363920957008  0.7500197350627636  0.3612627504884204
  0.5825407920917974  0.6250098263509247  0.3684158884507408
  0.9174549029411916  0.6249422240534459  0.3683899988888767
  0.5000549867440124  0.7499862659162406  0.4798217477855866
  0.8324623315803323  0.6249179609741099  0.4781489639244128
  0.6676760098346272  0.6250060191211454  0.4781209432811525
  0.7503537840430219  0.7504459462540669  0.5910687477071003
  0.5838428173016595  0.6250276827347239  0.5898076301314487
  0.9165513937529481  0.6252368050349666  0.5900964958868599
  0.5001719708742907  0.7498406910308966  0.7021427853218082
  0.8357787309119752  0.6253664009309123  0.7045053564207416
  0.6653073291789404  0.6250892064728432  0.7040074989146041
  0.5000140736281563  0.7499366655249198  0.2547897208140446
  0.8334148342919273  0.8749234873711291  0.2637192207159871
  0.6666436048819413  0.8750583861379039  0.2637409783936644
  0.7498463827965302  0.0000379430641613  0.3612233346052428
  0.5824032489435570  0.8750345932227740  0.3682793347372104
  0.9174544857491456  0.8749532057044472  0.3682800109341495
  0.5000198138138798  0.0000350830998597  0.4799815514185535
  0.8322649932411339  0.8748696738300817  0.4778603259685329
  0.6679751384995097  0.8749789656983911  0.4778653986454114
  0.7500694033480308  0.0000268614474060  0.5908698108634343
  0.5837377227929565  0.8749524225132953  0.5897433252374770
  0.9159448066761723  0.8755407416973940  0.5886375005117742
  0.5005473330875435  0.9999420238287307  0.7022175567162650
  0.8358174053853714  0.8758947751415664  0.7034049172008434
  0.6654680491723930  0.8748955532579051  0.7040258738707020
  0.1620809692731837  0.1215973000449020  0.7033216736280391
  0.4068935714894472  0.0000207930767196  0.3010916628163541
  0.2498884858632081  0.0000441877652521  0.2575708642416771
  0.0932056890910166  0.0000395961601618  0.3010454825938152
  0.1544541661916642  0.2501358830440724  0.4098168800953726
  0.0000007428603412  0.2501103716813777  0.3930546903868963
  0.3456182258934174  0.2500102381334577  0.4098901712063380
  0.4008068187871072  0.2498163264734309  0.5220823254157857
  0.2499990008315377  0.2502215252272953  0.5026173950548154
  0.0991275830822422  0.2502698982789222  0.5220663728594880
  0.1516346425556460  0.2496473658493727  0.6340051034132786
  0.0001346492129069  0.2478350171871320  0.6145575138160065
  0.3472980491491299  0.2500624955710205  0.6337500386078356
  0.4030355496035950  0.2496077563944949  0.7408535601227479
  0.2492849469092062  0.2496171455561943  0.7268646772856299
  0.0960542683895481  0.2480172899706519  0.7415892733501848
  0.4068337817918857  0.2499665119382453  0.3011347020968606
  0.2499930242274776  0.2500946823844414  0.2579008109164290
  0.0931951796509306  0.2501390369070415  0.3011282525286474
  0.1544377208137986  0.5000320552221703  0.4099537444275355
  0.9999787066105981  0.5000220107416727  0.3931883730876603
  0.3454849072673924  0.5000156031713963  0.4099053265304936
  0.4009506535415718  0.4998959089985178  0.5220511331290389
  0.2498979674206285  0.5000200958031084  0.5028722798346480
  0.0989068236470854  0.4999653452017800  0.5221904995249464
  0.1514597509077420  0.5005617110070404  0.6334788325249161
  0.9999869247827254  0.5000434554470046  0.6139447637669958
  0.3478219597718552  0.5005073194219460  0.6330920806007752
  0.4033048832339148  0.5004849060713701  0.7400888193000558
  0.2493278078810982  0.4991811151346927  0.7243318554295481
  0.0962494248775578  0.5005742335651754  0.7407733649904849
  0.4068711651270793  0.4999684653880660  0.3011689273422037
  0.2500391726110437  0.4999750587900458  0.2578572557235130
  0.0931443509269935  0.4999662588283586  0.3012092358214730
  0.1544580358378250  0.7498886400145286  0.4098318195537516
  0.9999958332121091  0.7499033305603306  0.3929697834683281
  0.3455811822710765  0.7500214146884667  0.4098830587802461
  0.4010419066217659  0.7502105696612715  0.5219171948502758
  0.2500059127933367  0.7498124679833061  0.5027956647008047
  0.0988982161935469  0.7497549091086866  0.5219370351820404
  0.1510350257454950  0.7505491253564687  0.6333132319821942
  0.9999927240559785  0.7522827921149401  0.6143466285355664
  0.3479524329461934  0.7499084198163362  0.6329747441161929
  0.4029662759113896  0.7503983951936508  0.7400690885845210
  0.2495382158463719  0.7501990460584197  0.7239336422782868
  0.0963863948893396  0.7522538737678495  0.7408748796961779
  0.4068342652085039  0.7500488346893083  0.3011120283654912
  0.2499762069316628  0.7498945593604470  0.2577492394638029
  0.0931950423244921  0.7498834026002908  0.3011163795904211
  0.1544795598210179  0.9999830065283689  0.4096558012553558
  0.9999962973121117  0.0000143416115453  0.3927870348134280
  0.3456930978088559  0.9999676965722571  0.4098414915179794
  0.4009897932109118  0.0000416142085579  0.5219707111974988
  0.2501080979288953  0.9999913083150991  0.5025377200353259
  0.0992449934484868  0.0001632013082894  0.5213630375614747
  0.1515484842490339  0.9993310695364007  0.6327651044531234
  0.0000520846048289  0.0001317390215840  0.6117180184614384
  0.3479218159111133  0.9993967349688266  0.6332075064041763
  0.4032369269485735  0.9994374488829898  0.7402890800794802
  0.2487308884052769  0.0008860417116726  0.7247513342284128
  0.0934956448252416  0.9995373271109637  0.7380128202271100
  0.9067496133316848  0.0000287675599475  0.3010598282207453
  0.7501022444366856  0.0000424430370685  0.2576005077097155
  0.5931677899876229  0.0000262682539909  0.3011375921602773
  0.6544229545441578  0.2499781689631106  0.4099560383138251
  0.4999952378705376  0.2500053044215330  0.3932020756831263
  0.8455396119546006  0.2501092383862214  0.4098892209443519
  0.9011186185670447  0.2503475318331198  0.5220379079463577
  0.7500062109427242  0.2502469240687545  0.5028953712097033
  0.5989271306131609  0.2497747761686797  0.5220408400891406
  0.6520354161519517  0.2501392142519009  0.6331577864888057
  0.4998790014369972  0.2499505257132074  0.6137530141910988
  0.8489921724936337  0.2497146758302723  0.6334707977906060
  0.9035164196172700  0.2476570199354582  0.7411340335028135
  0.7504246010432509  0.2497488490449279  0.7240538794188658
  0.5970053352234223  0.2494833650954625  0.7401945811008732
  0.9068022640595066  0.2501379789307568  0.3011615267280452
  0.7500164790174189  0.2501030296721560  0.2576648237372082
  0.5931672790833852  0.2499667745320866  0.3011872833717626
  0.6545502509427772  0.5000066644362196  0.4099482106049584
  0.5000127938828621  0.5000075080024370  0.3931487852598687
  0.8455347083908904  0.5000133503649962  0.4099926939078483
  0.9011050377466052  0.4999750745767509  0.5222114322547130
  0.7501123133247476  0.5000023062690446  0.5029173548468320
  0.5990296669010139  0.4999239824731128  0.5220616772648536
  0.6521295917484159  0.4999867342352501  0.6330860839962305
  0.4999954549967539  0.4999365424133235  0.6133592106794389
  0.8485537375934288  0.5000665202541718  0.6334684740740412
  0.9031496843655835  0.4999055084962242  0.7409830054481561
  0.7506730164120425  0.5000381136660755  0.7239337829991931
  0.5971726526511338  0.4998844982325270  0.7402316841457113
  0.9068016905756620  0.4999830567268650  0.3012216099244981
  0.7499441758847604  0.4999918876083393  0.2578789654224886
  0.5931994639042645  0.4999838137363755  0.3012072117092526
  0.6544401199171954  0.7500362847453477  0.4099332630828835
  0.5000000365537776  0.7499844296604270  0.3931151970916047
  0.8455271619011342  0.7499069851316594  0.4098722631354050
  0.9010770091999279  0.7497351787657207  0.5220019128232549
  0.7500133712386753  0.7497819247643049  0.5028845950371789
  0.5990106153905369  0.7502070136807593  0.5220016020952705
  0.6520510297941891  0.7498884927747780  0.6330909505073349
  0.4999929581397398  0.7500030882101847  0.6135337188282572
  0.8489371503711240  0.7503813435719243  0.6333666342685783
  0.9036720556013476  0.7523734037452796  0.7409251951488667
  0.7504900961409605  0.7502603099180152  0.7239527812499421
  0.5970326530412629  0.7504927212506795  0.7401130685842331
  0.9068067452346323  0.7498783696188520  0.3011341488346622
  0.7500071362724841  0.7499019201698870  0.2575851278525195
  0.5931667141519271  0.7500492270212572  0.3011563760560187
  0.6543474131529775  0.0000052882191966  0.4098887263621666
  0.5000033489337167 -0.0000043731528594  0.3931934976337965
  0.8455266479876271  0.0000018914412674  0.4097056199624146
  0.9007839816039547  0.0000722685547686  0.5213769427610319
  0.7499217836330401  0.0000155315937151  0.5025892454641938
  0.5990126615640134  0.0000603771969807  0.5219921579363566
  0.6520849063708068  0.9999237423186718  0.6332759611778014
  0.5000260614039927  0.0000415797455446  0.6136732929509846
  0.8484628814910741  0.9999588829443536  0.6328203415573265
  0.9063999770559440  0.9999920326443014  0.7377824851870759
  0.7513151377659444  0.9999721445015290  0.7245179059104551
  0.5970793240682820  0.0001163586392989  0.7402559951024726
  0.2519862450463512  0.2489111474052957  0.8052637550183512
  0.9996212653957198  0.0004125081029626  0.6974783871784326
 
  0.00000000E+00  0.00000000E+00  0.00000000E+00
  0.00000000E+00  0.00000000E+00  0.00000000E+00
  0.00000000E+00  0.00000000E+00  0.00000000E+00
  0.00000000E+00  0.00000000E+00  0.00000000E+00
  0.00000000E+00  0.00000000E+00  0.00000000E+00
  0.00000000E+00  0.00000000E+00  0.00000000E+00
  0.00000000E+00  0.00000000E+00  0.00000000E+00
  0.00000000E+00  0.00000000E+00  0.00000000E+00
  0.00000000E+00  0.00000000E+00  0.00000000E+00
  0.00000000E+00  0.00000000E+00  0.00000000E+00
  0.00000000E+00  0.00000000E+00  0.00000000E+00
  0.00000000E+00  0.00000000E+00  0.00000000E+00
  0.00000000E+00  0.00000000E+00  0.00000000E+00
  0.00000000E+00  0.00000000E+00  0.00000000E+00
  0.00000000E+00  0.00000000E+00  0.00000000E+00
  0.00000000E+00  0.00000000E+00  0.00000000E+00
  0.00000000E+00  0.00000000E+00  0.00000000E+00
  0.00000000E+00  0.00000000E+00  0.00000000E+00
  0.00000000E+00  0.00000000E+00  0.00000000E+00
  0.00000000E+00  0.00000000E+00  0.00000000E+00
  0.00000000E+00  0.00000000E+00  0.00000000E+00
  0.00000000E+00  0.00000000E+00  0.00000000E+00
  0.00000000E+00  0.00000000E+00  0.00000000E+00
  0.00000000E+00  0.00000000E+00  0.00000000E+00
  0.00000000E+00  0.00000000E+00  0.00000000E+00
  0.00000000E+00  0.00000000E+00  0.00000000E+00
  0.00000000E+00  0.00000000E+00  0.00000000E+00
  0.00000000E+00  0.00000000E+00  0.00000000E+00
  0.00000000E+00  0.00000000E+00  0.00000000E+00
  0.00000000E+00  0.00000000E+00  0.00000000E+00
  0.00000000E+00  0.00000000E+00  0.00000000E+00
  0.00000000E+00  0.00000000E+00  0.00000000E+00
  0.00000000E+00  0.00000000E+00  0.00000000E+00
  0.00000000E+00  0.00000000E+00  0.00000000E+00
  0.00000000E+00  0.00000000E+00  0.00000000E+00
  0.00000000E+00  0.00000000E+00  0.00000000E+00
  0.00000000E+00  0.00000000E+00  0.00000000E+00
  0.00000000E+00  0.00000000E+00  0.00000000E+00
  0.00000000E+00  0.00000000E+00  0.00000000E+00
  0.00000000E+00  0.00000000E+00  0.00000000E+00
  0.00000000E+00  0.00000000E+00  0.00000000E+00
  0.00000000E+00  0.00000000E+00  0.00000000E+00
  0.00000000E+00  0.00000000E+00  0.00000000E+00
  0.00000000E+00  0.00000000E+00  0.00000000E+00
  0.00000000E+00  0.00000000E+00  0.00000000E+00
  0.00000000E+00  0.00000000E+00  0.00000000E+00
  0.00000000E+00  0.00000000E+00  0.00000000E+00
  0.00000000E+00  0.00000000E+00  0.00000000E+00
  0.00000000E+00  0.00000000E+00  0.00000000E+00
  0.00000000E+00  0.00000000E+00  0.00000000E+00
  0.00000000E+00  0.00000000E+00  0.00000000E+00
  0.00000000E+00  0.00000000E+00  0.00000000E+00
  0.00000000E+00  0.00000000E+00  0.00000000E+00
  0.00000000E+00  0.00000000E+00  0.00000000E+00
  0.00000000E+00  0.00000000E+00  0.00000000E+00
  0.00000000E+00  0.00000000E+00  0.00000000E+00
  0.00000000E+00  0.00000000E+00  0.00000000E+00
  0.00000000E+00  0.00000000E+00  0.00000000E+00
  0.00000000E+00  0.00000000E+00  0.00000000E+00
  0.00000000E+00  0.00000000E+00  0.00000000E+00
  0.00000000E+00  0.00000000E+00  0.00000000E+00
  0.00000000E+00  0.00000000E+00  0.00000000E+00
  0.00000000E+00  0.00000000E+00  0.00000000E+00
  0.00000000E+00  0.00000000E+00  0.00000000E+00
  0.00000000E+00  0.00000000E+00  0.00000000E+00
  0.00000000E+00  0.00000000E+00  0.00000000E+00
  0.00000000E+00  0.00000000E+00  0.00000000E+00
  0.00000000E+00  0.00000000E+00  0.00000000E+00
  0.00000000E+00  0.00000000E+00  0.00000000E+00
  0.00000000E+00  0.00000000E+00  0.00000000E+00
  0.00000000E+00  0.00000000E+00  0.00000000E+00
  0.00000000E+00  0.00000000E+00  0.00000000E+00
  0.00000000E+00  0.00000000E+00  0.00000000E+00
  0.00000000E+00  0.00000000E+00  0.00000000E+00
  0.00000000E+00  0.00000000E+00  0.00000000E+00
  0.00000000E+00  0.00000000E+00  0.00000000E+00
  0.00000000E+00  0.00000000E+00  0.00000000E+00
  0.00000000E+00  0.00000000E+00  0.00000000E+00
  0.00000000E+00  0.00000000E+00  0.00000000E+00
  0.00000000E+00  0.00000000E+00  0.00000000E+00
  0.00000000E+00  0.00000000E+00  0.00000000E+00
  0.00000000E+00  0.00000000E+00  0.00000000E+00
  0.00000000E+00  0.00000000E+00  0.00000000E+00
  0.00000000E+00  0.00000000E+00  0.00000000E+00
  0.00000000E+00  0.00000000E+00  0.00000000E+00
  0.00000000E+00  0.00000000E+00  0.00000000E+00
  0.00000000E+00  0.00000000E+00  0.00000000E+00
  0.00000000E+00  0.00000000E+00  0.00000000E+00
  0.00000000E+00  0.00000000E+00  0.00000000E+00
  0.00000000E+00  0.00000000E+00  0.00000000E+00
  0.00000000E+00  0.00000000E+00  0.00000000E+00
  0.00000000E+00  0.00000000E+00  0.00000000E+00
  0.00000000E+00  0.00000000E+00  0.00000000E+00
  0.00000000E+00  0.00000000E+00  0.00000000E+00
  0.00000000E+00  0.00000000E+00  0.00000000E+00
  0.00000000E+00  0.00000000E+00  0.00000000E+00
  0.00000000E+00  0.00000000E+00  0.00000000E+00
  0.00000000E+00  0.00000000E+00  0.00000000E+00
  0.00000000E+00  0.00000000E+00  0.00000000E+00
  0.00000000E+00  0.00000000E+00  0.00000000E+00
  0.00000000E+00  0.00000000E+00  0.00000000E+00
  0.00000000E+00  0.00000000E+00  0.00000000E+00
  0.00000000E+00  0.00000000E+00  0.00000000E+00
  0.00000000E+00  0.00000000E+00  0.00000000E+00
  0.00000000E+00  0.00000000E+00  0.00000000E+00
  0.00000000E+00  0.00000000E+00  0.00000000E+00
  0.00000000E+00  0.00000000E+00  0.00000000E+00
  0.00000000E+00  0.00000000E+00  0.00000000E+00
  0.00000000E+00  0.00000000E+00  0.00000000E+00
  0.00000000E+00  0.00000000E+00  0.00000000E+00
  0.00000000E+00  0.00000000E+00  0.00000000E+00
  0.00000000E+00  0.00000000E+00  0.00000000E+00
  0.00000000E+00  0.00000000E+00  0.00000000E+00
  0.00000000E+00  0.00000000E+00  0.00000000E+00
  0.00000000E+00  0.00000000E+00  0.00000000E+00
  0.00000000E+00  0.00000000E+00  0.00000000E+00
  0.00000000E+00  0.00000000E+00  0.00000000E+00
  0.00000000E+00  0.00000000E+00  0.00000000E+00
  0.00000000E+00  0.00000000E+00  0.00000000E+00
  0.00000000E+00  0.00000000E+00  0.00000000E+00
  0.00000000E+00  0.00000000E+00  0.00000000E+00
  0.00000000E+00  0.00000000E+00  0.00000000E+00
  0.00000000E+00  0.00000000E+00  0.00000000E+00
  0.00000000E+00  0.00000000E+00  0.00000000E+00
  0.00000000E+00  0.00000000E+00  0.00000000E+00
  0.00000000E+00  0.00000000E+00  0.00000000E+00
  0.00000000E+00  0.00000000E+00  0.00000000E+00
  0.00000000E+00  0.00000000E+00  0.00000000E+00
  0.00000000E+00  0.00000000E+00  0.00000000E+00
  0.00000000E+00  0.00000000E+00  0.00000000E+00
  0.00000000E+00  0.00000000E+00  0.00000000E+00
  0.00000000E+00  0.00000000E+00  0.00000000E+00
  0.00000000E+00  0.00000000E+00  0.00000000E+00
  0.00000000E+00  0.00000000E+00  0.00000000E+00
  0.00000000E+00  0.00000000E+00  0.00000000E+00
  0.00000000E+00  0.00000000E+00  0.00000000E+00
  0.00000000E+00  0.00000000E+00  0.00000000E+00
  0.00000000E+00  0.00000000E+00  0.00000000E+00
  0.00000000E+00  0.00000000E+00  0.00000000E+00
  0.00000000E+00  0.00000000E+00  0.00000000E+00
  0.00000000E+00  0.00000000E+00  0.00000000E+00
  0.00000000E+00  0.00000000E+00  0.00000000E+00
  0.00000000E+00  0.00000000E+00  0.00000000E+00
  0.00000000E+00  0.00000000E+00  0.00000000E+00
  0.00000000E+00  0.00000000E+00  0.00000000E+00
  0.00000000E+00  0.00000000E+00  0.00000000E+00
  0.00000000E+00  0.00000000E+00  0.00000000E+00
  0.00000000E+00  0.00000000E+00  0.00000000E+00
  0.00000000E+00  0.00000000E+00  0.00000000E+00
  0.00000000E+00  0.00000000E+00  0.00000000E+00
  0.00000000E+00  0.00000000E+00  0.00000000E+00
  0.00000000E+00  0.00000000E+00  0.00000000E+00
  0.00000000E+00  0.00000000E+00  0.00000000E+00
  0.00000000E+00  0.00000000E+00  0.00000000E+00
  0.00000000E+00  0.00000000E+00  0.00000000E+00
  0.00000000E+00  0.00000000E+00  0.00000000E+00
  0.00000000E+00  0.00000000E+00  0.00000000E+00
  0.00000000E+00  0.00000000E+00  0.00000000E+00
  0.00000000E+00  0.00000000E+00  0.00000000E+00
  0.00000000E+00  0.00000000E+00  0.00000000E+00
  0.00000000E+00  0.00000000E+00  0.00000000E+00
  0.00000000E+00  0.00000000E+00  0.00000000E+00
  0.00000000E+00  0.00000000E+00  0.00000000E+00
  0.00000000E+00  0.00000000E+00  0.00000000E+00
  0.00000000E+00  0.00000000E+00  0.00000000E+00
  0.00000000E+00  0.00000000E+00  0.00000000E+00
  0.00000000E+00  0.00000000E+00  0.00000000E+00
  0.00000000E+00  0.00000000E+00  0.00000000E+00
  0.00000000E+00  0.00000000E+00  0.00000000E+00
  0.00000000E+00  0.00000000E+00  0.00000000E+00
  0.00000000E+00  0.00000000E+00  0.00000000E+00
  0.00000000E+00  0.00000000E+00  0.00000000E+00
  0.00000000E+00  0.00000000E+00  0.00000000E+00
  0.00000000E+00  0.00000000E+00  0.00000000E+00
  0.00000000E+00  0.00000000E+00  0.00000000E+00
  0.00000000E+00  0.00000000E+00  0.00000000E+00
  0.00000000E+00  0.00000000E+00  0.00000000E+00
  0.00000000E+00  0.00000000E+00  0.00000000E+00
  0.00000000E+00  0.00000000E+00  0.00000000E+00
  0.00000000E+00  0.00000000E+00  0.00000000E+00
  0.00000000E+00  0.00000000E+00  0.00000000E+00
  0.00000000E+00  0.00000000E+00  0.00000000E+00
  0.00000000E+00  0.00000000E+00  0.00000000E+00
  0.00000000E+00  0.00000000E+00  0.00000000E+00
  0.00000000E+00  0.00000000E+00  0.00000000E+00
  0.00000000E+00  0.00000000E+00  0.00000000E+00
  0.00000000E+00  0.00000000E+00  0.00000000E+00
  0.00000000E+00  0.00000000E+00  0.00000000E+00
  0.00000000E+00  0.00000000E+00  0.00000000E+00
  0.00000000E+00  0.00000000E+00  0.00000000E+00
  0.00000000E+00  0.00000000E+00  0.00000000E+00
  0.00000000E+00  0.00000000E+00  0.00000000E+00
  0.00000000E+00  0.00000000E+00  0.00000000E+00
  0.00000000E+00  0.00000000E+00  0.00000000E+00
  0.00000000E+00  0.00000000E+00  0.00000000E+00
  0.00000000E+00  0.00000000E+00  0.00000000E+00
  0.00000000E+00  0.00000000E+00  0.00000000E+00
  0.00000000E+00  0.00000000E+00  0.00000000E+00
  0.00000000E+00  0.00000000E+00  0.00000000E+00
  0.00000000E+00  0.00000000E+00  0.00000000E+00
  0.00000000E+00  0.00000000E+00  0.00000000E+00
  0.00000000E+00  0.00000000E+00  0.00000000E+00
  0.00000000E+00  0.00000000E+00  0.00000000E+00
  0.00000000E+00  0.00000000E+00  0.00000000E+00
  0.00000000E+00  0.00000000E+00  0.00000000E+00
  0.00000000E+00  0.00000000E+00  0.00000000E+00
  0.00000000E+00  0.00000000E+00  0.00000000E+00
  0.00000000E+00  0.00000000E+00  0.00000000E+00
  0.00000000E+00  0.00000000E+00  0.00000000E+00
  0.00000000E+00  0.00000000E+00  0.00000000E+00
  0.00000000E+00  0.00000000E+00  0.00000000E+00
  0.00000000E+00  0.00000000E+00  0.00000000E+00
  0.00000000E+00  0.00000000E+00  0.00000000E+00
  0.00000000E+00  0.00000000E+00  0.00000000E+00
  0.00000000E+00  0.00000000E+00  0.00000000E+00
  0.00000000E+00  0.00000000E+00  0.00000000E+00
  0.00000000E+00  0.00000000E+00  0.00000000E+00
  0.00000000E+00  0.00000000E+00  0.00000000E+00
  0.00000000E+00  0.00000000E+00  0.00000000E+00
  0.00000000E+00  0.00000000E+00  0.00000000E+00
  0.00000000E+00  0.00000000E+00  0.00000000E+00
  0.00000000E+00  0.00000000E+00  0.00000000E+00
  0.00000000E+00  0.00000000E+00  0.00000000E+00
  0.00000000E+00  0.00000000E+00  0.00000000E+00
  0.00000000E+00  0.00000000E+00  0.00000000E+00
  0.00000000E+00  0.00000000E+00  0.00000000E+00
  0.00000000E+00  0.00000000E+00  0.00000000E+00
  0.00000000E+00  0.00000000E+00  0.00000000E+00
  0.00000000E+00  0.00000000E+00  0.00000000E+00
  0.00000000E+00  0.00000000E+00  0.00000000E+00
  0.00000000E+00  0.00000000E+00  0.00000000E+00
  0.00000000E+00  0.00000000E+00  0.00000000E+00
  0.00000000E+00  0.00000000E+00  0.00000000E+00
  0.00000000E+00  0.00000000E+00  0.00000000E+00
  0.00000000E+00  0.00000000E+00  0.00000000E+00
  0.00000000E+00  0.00000000E+00  0.00000000E+00
  0.00000000E+00  0.00000000E+00  0.00000000E+00
  0.00000000E+00  0.00000000E+00  0.00000000E+00
  0.00000000E+00  0.00000000E+00  0.00000000E+00
  0.00000000E+00  0.00000000E+00  0.00000000E+00
  0.00000000E+00  0.00000000E+00  0.00000000E+00
