Ta  N Ru Cu                             
   1.00000000000000     
    18.1096308199999996    0.0000000000000000    0.0000000000000000
     0.0000000000000000   23.3551997799999995    0.0000000000000000
     0.0000000000000000    0.0000000000000000   30.4818171199999988
   Ta   N    Ru   Cu
   216   240    24    29
Direct
  0.9941293601786747  0.9997068777790356  0.1975652343005981
  0.3303321531299322  0.0607871748360372  0.2037453570967549
  0.1763940399960732  0.0557096623284713  0.1967477619581267
  0.2494554028248948  0.1308583259881891  0.2708385407699775
  0.0797700605870473  0.0608704905683942  0.2806358414747624
  0.4177720115298253  0.0633704624178688  0.2801037163886386
  0.0000970917583496  0.1232947333312960  0.3655776459363925
  0.3334055495179055  0.0612144929862814  0.3649815234133176
  0.1664445733460513  0.0610852862424272  0.3642023621646442
  0.2512767038945729  0.1197476843677889  0.4533854815441948
  0.0798142901499601  0.0637171134228667  0.4489616277681762
  0.4158438638526402  0.0615425312061900  0.4512051629149757
  0.9921368321818330  0.1219546101189630  0.1929970048357282
  0.3367484744827693  0.1889368308441213  0.1943455055030333
  0.1597311988400489  0.1857770814516057  0.1989498196157712
  0.2468849212256593  0.2498877920371419  0.2767405876960397
  0.0859441406814939  0.1856827965186070  0.2826358630695293
  0.4130790126639333  0.1876875553369094  0.2779288208539580
  0.9909902264866240  0.2508417228376395  0.3676972515677486
  0.3271186888005022  0.1927302591050723  0.3687239567654662
  0.1661693841260080  0.1861953003763637  0.3695590717199826
  0.2508438511487174  0.2470251772136332  0.4562999606500193
  0.0829656991902546  0.1861059957962825  0.4570532110209897
  0.4137570836982205  0.1908600831409479  0.4522093592137198
  0.3366086828231388  0.1820870544969639  0.5446930105822991
  0.9976957491734079  0.2451977024227384  0.1987827086968945
  0.3235655667342314  0.3177972096719728  0.2005275785661458
  0.1611759852216842  0.3167767972107152  0.2043252108528729
  0.2482363686412758  0.3731760894967868  0.2839943436542999
  0.0811422779304164  0.3148712113464783  0.2839972778778053
  0.4197017879107069  0.3130389934741853  0.2858701488750746
  0.9944232210325274  0.3835849495394943  0.3710737194204537
  0.3384094149469151  0.3166838326426221  0.3675760173089728
  0.1687715528630555  0.3145290978147265  0.3701048450061167
  0.2471429031055320  0.3716885371398445  0.4594284878849627
  0.0816139666685623  0.3110425001066091  0.4524500296794715
  0.4156345508420995  0.3125063067434045  0.4580334341175170
  0.9997578572463545  0.3704302520129816  0.1949079759602592
  0.3351454396271946  0.4392209170643243  0.1956029407386751
  0.1647188559661739  0.4317192188293809  0.2057928432274783
  0.2521931003701686  0.9971793386058542  0.2792944370128008
  0.0806320977069785  0.4362265961198863  0.2837368127500545
  0.4138280985168860  0.4408851793050718  0.2799244198735256
  0.9952263973639329  0.9925844157385190  0.3632712244602727
  0.3303339133498246  0.4360518064345648  0.3694651293357232
  0.1727664320239301  0.4343135437258671  0.3714147330355362
  0.2496460067848888  0.9959968804873189  0.4536650097083615
  0.0757931460894836  0.4402086888100127  0.4541732315943524
  0.4112308412977479  0.4375759193489927  0.4555331036524927
  0.3328724480114165  0.4346846169187614  0.5443948126614571
  0.0015974992531314  0.4991316183498095  0.1996279465009068
  0.3301520980312001  0.5687281373429257  0.1993018313093982
  0.1751500631766938  0.5620599053350035  0.2027350981103596
  0.2452924006398182  0.6265569382202192  0.2741372598817453
  0.0787205632253520  0.5621122354140348  0.2809945130531908
  0.4122110673628971  0.5621176246747218  0.2801688782093794
  0.9992008679227208  0.6307589982411651  0.3690326665208984
  0.3258689507960552  0.5629950454956602  0.3683095379986035
  0.1584372814150278  0.5653532487284046  0.3674123741626857
  0.2422978549518493  0.6252271028639900  0.4529728799439319
  0.0796083341945426  0.5630430814704940  0.4508930534046003
  0.4116463373123835  0.5684919501027156  0.4527631715991092
  0.9994760750604654  0.6257124440787858  0.2016073774760816
  0.3337267635635728  0.6867216837890867  0.1964397961668694
  0.1666879819418419  0.6925736967495658  0.2040170033193265
  0.2483307020040240  0.7499697060469360  0.2769847090360355
  0.0816883174631031  0.6846814455443961  0.2836054425405107
  0.4133780743616732  0.6871927075487624  0.2813984864704375
  0.9995856837573309  0.7516130769236754  0.3655524117227709
  0.3296911069742182  0.6895280982815701  0.3673925761668062
  0.1577835549784829  0.6855217959065388  0.3714347425830414
  0.2488680788201015  0.7551220780220071  0.4533026368996537
  0.0789822460102975  0.6930252678958507  0.4576181705949816
  0.4115136192893787  0.6935222758052960  0.4541336041112884
  0.3283739161237490  0.6967271930625768  0.5453286741780999
  0.9976119217020900  0.7471305445252031  0.1938151466594707
  0.3427467938082489  0.8128092905354063  0.2003820939914636
  0.1656268532783332  0.8162250789647725  0.2032052540713363
  0.2525627323549625  0.8757829081631291  0.2834049496008651
  0.0832814838095527  0.8110434352368453  0.2852257408340045
  0.4223194064978652  0.8116315178470620  0.2826537475707716
  0.0014162566623135  0.8703935261354082  0.3676104200679070
  0.3303499748292456  0.8134410982464267  0.3681377339896673
  0.1720145067382010  0.8113703537448627  0.3637049017642188
  0.2513316135095292  0.8759593178938920  0.4519584667153551
  0.0794526843009640  0.8202357217415188  0.4511760460840210
  0.4162349596026514  0.8155783302868513  0.4544695103456339
  0.0004101757882691  0.8752017270238898  0.1925510991864381
  0.3345442915831170  0.9407190784602447  0.1978999518599811
  0.1771740677688824  0.9371752371700264  0.2041036601779054
  0.2464337222304724  0.4988293297968913  0.2795940401821615
  0.0852096920312222  0.9343515616914679  0.2792267513622849
  0.4234909165583930  0.9360325629247425  0.2828260234450292
  0.9989093458834882  0.5018744932027360  0.3680761310125324
  0.3360914787521689  0.9395254337996405  0.3672309654469385
  0.1705471630660187  0.9417035971517821  0.3652405108462020
  0.2475928394769476  0.4978049560514013  0.4581333517265566
  0.0887351108086752  0.9381442596011108  0.4469149096386659
  0.4241878659771072  0.9368178144526430  0.4554079764097655
  0.3359742599450440  0.9341601517846946  0.5431122062654514
  0.1650620103434837  0.9335984932293249  0.5371212974465195
  0.4958698914939788  0.0036338445085078  0.1966538878599904
  0.8259613726633986  0.0609872119246350  0.1972525058804542
  0.6745664374104211  0.0532616375028505  0.2042369597590854
  0.7448533537673674  0.1269396921520909  0.2782607149100598
  0.5821616761568339  0.0612371044580527  0.2872713846342496
  0.9145205264443687  0.0604816460258420  0.2786806618149542
  0.4958847587042425  0.1241804859035311  0.3681260934497995
  0.8386398309584595  0.0603951434586979  0.3626444366441611
  0.6699511789637119  0.0582805077449584  0.3726079279596015
  0.7541155234758435  0.1279765888861026  0.4560031095422470
  0.5825620312807847  0.0616195778878314  0.4510912526213891
  0.9151198899227462  0.0644737018806842  0.4513293281086770
  0.5015057955613517  0.1255751468343594  0.1980013549747912
  0.8319176708279975  0.1826784067033679  0.1992090298156378
  0.6705737466409727  0.1858486733367925  0.2037030308600532
  0.7414236280167352  0.2423425432842970  0.2806450844839842
  0.5834942544735909  0.1860835736964953  0.2875745939569144
  0.9138371834148981  0.1899399505187727  0.2865156024243120
  0.4985882341337370  0.2536753353011086  0.3675269627717427
  0.8301198082655888  0.1908644752082081  0.3709178933648976
  0.6662955450034536  0.1867335781807869  0.3720787880007578
  0.7513807917165939  0.2478748817883142  0.4575506585489209
  0.5794404782635689  0.1843904306565116  0.4522814007732603
  0.9210014635858587  0.1848743032396573  0.4540297284754430
  0.8416577984538308  0.1812342289141051  0.5397924252391163
  0.5053428757722277  0.2427486679973118  0.1924787903622881
  0.8291425309458369  0.3138991497944336  0.2014599547788689
  0.6678150907067663  0.3061317817522437  0.2066812426120042
  0.7525210442443990  0.3758337166382043  0.2772566975652218
  0.5739109264827698  0.3129110114716637  0.2846086442555354
  0.9109877860492250  0.3145166868971225  0.2817515846621454
  0.5084510130479180  0.3757669628465545  0.3714626861085001
  0.8347597319215954  0.3141286037190553  0.3663993298560818
  0.6626038104476712  0.3131708413704977  0.3714297452131807
  0.7496735281211823  0.3751839436219949  0.4506131035946475
  0.5836461262507875  0.3135357344046507  0.4562802609781807
  0.9201157462915179  0.3119808630715537  0.4533725157748530
  0.4937176383550295  0.3730477221753944  0.1915579451916165
  0.8451872071926456  0.4365507056342043  0.1931062810545859
  0.6574487541462573  0.4332804418838854  0.2065855191940075
  0.7416059719277920  0.9973141336613481  0.2816467445061953
  0.5829566954807099  0.4380708845525050  0.2864852885840641
  0.9155006563216573  0.4412136672633424  0.2854168963511766
  0.4970976861093770  0.0013633050954351  0.3691593462082655
  0.8301916243261069  0.4373207396344688  0.3664418357777992
  0.6691005405496431  0.4388271781389371  0.3679928525060848
  0.7443565811222793  0.0020942168286535  0.4552078031252338
  0.5769584825478254  0.4398128937997969  0.4533841549312452
  0.9114303642594306  0.4354687967244573  0.4550084229574197
  0.8223727733902522  0.4373561079965784  0.5415023669767851
  0.4958249709892834  0.4932411704872652  0.1934348406951704
  0.8341661034499726  0.5593023488281132  0.1994226241068968
  0.6605012214001365  0.5570624620850974  0.2023818316129918
  0.7524248722987465  0.6264687405336538  0.2743945153432926
  0.5733399492524316  0.5615049946034731  0.2838579100027675
  0.9161126028554031  0.5668418709873436  0.2830311494412893
  0.4960976576630294  0.6234135887125991  0.3657513895366124
  0.8213281389976911  0.5630458939204911  0.3675378645262724
  0.6629806480938016  0.5656038629926416  0.3697239415617515
  0.7465277230449895  0.6258365096223938  0.4514628555891020
  0.5808107497673148  0.5641276213229824  0.4525504564831089
  0.9139723406837811  0.5616075160988561  0.4505824404295385
  0.4955423073490706  0.6231294608393250  0.1899054222444263
  0.8342628830064154  0.6921060635779478  0.1920005426890536
  0.6698671379183017  0.6896786369246990  0.2006124144240510
  0.7480809743805822  0.7473461600621277  0.2826757061946159
  0.5789641623823228  0.6830571129811477  0.2762753016159067
  0.9174804276647087  0.6868193630299061  0.2786641307662963
  0.4973314188844911  0.7465177399539833  0.3690975823607512
  0.8282947793283906  0.6864336144988544  0.3667120666099751
  0.6635494366608983  0.6853805971732329  0.3631214299792013
  0.7567948490059621  0.7478731533384905  0.4496090219983682
  0.5837998710241796  0.6884152485420835  0.4538141884892475
  0.9186106771947916  0.6844433703333641  0.4538050624635556
  0.8348121423162824  0.6911430531983537  0.5398431702552055
  0.4949331754275551  0.7516456260204196  0.1945072173946368
  0.8344375582880513  0.8138687002787108  0.1956190509610600
  0.6831600917606604  0.8078674537962532  0.2064780426053645
  0.7513309133729760  0.8705634754415040  0.2834679502102740
  0.5859706740000808  0.8133216490421701  0.2846355565097517
  0.9165486553204062  0.8106282090316440  0.2782991740621017
  0.4893872903548360  0.8760663474255052  0.3689810131627960
  0.8273252241809560  0.8095312218717617  0.3668292342813043
  0.6603065700466265  0.8129412172017058  0.3721106243226009
  0.7499688706140704  0.8716019064395916  0.4550232453237202
  0.5809956878126574  0.8117240057267679  0.4555454904073544
  0.9182873312829032  0.8138770400357750  0.4520758790268470
  0.5101111736876451  0.8765612629991161  0.1935053253093089
  0.8329420466041363  0.9421905396186311  0.1945585494858817
  0.6804987708366559  0.9424221819684185  0.2090996051879807
  0.7469709617105090  0.5043128103301222  0.2810953741379791
  0.5797285916256364  0.9384523896567611  0.2858365384101955
  0.9244100492920877  0.9335039580479511  0.2801407514420031
  0.4918272610348806  0.4979371539650991  0.3707270787180952
  0.8322924059149435  0.9353419272415311  0.3647386994978553
  0.6718146041816697  0.9404323561950564  0.3702379258540343
  0.7439937544319168  0.5004885250180295  0.4524709025808962
  0.5852906856273675  0.9355582698197377  0.4587542122904008
  0.9111684320363718  0.9367188159660211  0.4525167427641918
  0.8356243111167663  0.9380091150112440  0.5403714586343754
  0.6636174672372311  0.9382940198258303  0.5455054346276388
  0.3388410837181412  0.0588541925223406  0.5414092005720174
  0.1622923972546333  0.0547805744241189  0.5412299094900986
  0.3369532586458593  0.3081690163291865  0.5478230186413739
  0.3238050233599357  0.5672105089329602  0.5456535183387947
  0.3461235227572951  0.8157892480106157  0.5420580914970459
  0.8311909599525008  0.0593277710109089  0.5420541645992034
  0.6605382152714612  0.0630914883104411  0.5391267872861161
  0.8395281145363431  0.3132190944233368  0.5406462281352484
  0.8394496207737377  0.5635278967630626  0.5387823753197328
  0.8408990215840593  0.8186732129655336  0.5466397751359353
  0.1694711015653389  0.1886746414392990  0.5424374963590142
  0.6724726712448370  0.1869056097093503  0.5420773427689353
  0.1676113845029652  0.8090935562617984  0.5414781799841849
  0.6732174824876412  0.8137742819949809  0.5405693326871234
  0.4019415170595314  0.9994902807145826  0.2340947683854564
  0.2550953584236280  0.9960543124504663  0.1710381509070849
  0.0980892997641507  0.0002235685289240  0.2283994690865212
  0.1601109357701144  0.1229530504275615  0.3101647708912801
  0.9964924038296652  0.1222716639919514  0.2989249027972707
  0.3442791834278187  0.1232867634831303  0.3098460071359069
  0.4025405418848455  0.1326064178139180  0.4021769190380335
  0.2464842047665724  0.1220589681007799  0.3876948179083757
  0.0951420577261493  0.1250812452269219  0.4028219849422462
  0.1554347416171797  0.1214540683445774  0.4867181848411118
  0.9999974210705254  0.1227317756508889  0.4699043829846350
  0.3511420100180258  0.1228720080576521  0.4872249886603135
  0.4073701997552857  0.1252963863419224  0.5715662370868848
  0.2529804294591129  0.1220367578133082  0.5584063226040960
  0.0937528691518462  0.1239790713794499  0.5672467672359467
  0.3969460643056354  0.1296334236073806  0.2299059444550575
  0.2502612503603602  0.1281580603048563  0.1960042392210533
  0.0980418296552063  0.1217729205884467  0.2309981552947645
  0.1513117264065466  0.2461401072419697  0.3159694414571661
  0.9984598323699861  0.2509328915023404  0.3005832092809581
  0.3446976588455034  0.2478154377020018  0.3161522413533151
  0.4023366274631920  0.2535791044079620  0.4010725098014787
  0.2472914950378304  0.2562485843479964  0.3885991406614177
  0.0994198811970961  0.2560555755188253  0.3975678391542175
  0.1482258680010144  0.2434320314822297  0.4878606497304078
  0.9983226352222854  0.2526072907394052  0.4728372262938864
  0.3436808433288117  0.2457936106700675  0.4909467321530827
  0.4043277418284548  0.2496044274685870  0.5734937005778090
  0.2491574019072756  0.2463636371496101  0.5627377966645596
  0.0948244014239639  0.2459415418535603  0.5745422873674553
  0.4048814392481901  0.2525757439326965  0.2260930138930733
  0.2388854827843088  0.2488880319549843  0.1997437192708891
  0.0934928903788274  0.2508141444717986  0.2314357001247086
  0.1479155708665253  0.3732446279510011  0.3138378876335380
  0.9963396703563079  0.3820057626003631  0.3051875300944225
  0.3439887514845953  0.3827828827015891  0.3155910509222082
  0.4051058197294556  0.3771688285094728  0.4036535801553552
  0.2520925800266742  0.3752271322852178  0.3881443767600278
  0.0974328650241145  0.3719522265724942  0.3977457845089390
  0.1446240127679278  0.3722632162788050  0.4880483182595775
  0.9979547307909624  0.3754114414066627  0.4742482755640481
  0.3486405241388920  0.3768245216194874  0.4889366966914422
  0.4046012501908159  0.3749616604570937  0.5735947398447712
  0.2587788582337779  0.3614801845315629  0.5679865932077501
  0.0351943464846381  0.3928736035397778  0.6020428781437509
  0.4119579920026078  0.3788191137075700  0.2274975107383311
  0.2470178379155096  0.3711614333304264  0.1765737010072413
  0.0899641021163636  0.3783363816872887  0.2335681267635409
  0.1540277300171478  0.9973046313869181  0.3115144327748895
  0.0044881454432983  0.9950154751641037  0.2976271890060674
  0.3500688641365192  0.9955044611037285  0.3120691484934008
  0.3990336111358543  0.0036065266290863  0.4054704259179930
  0.2498304267475271  0.9999053841373331  0.3845051104323378
  0.0984664474645700  0.0024608444034775  0.3954488970906195
  0.1448689877471463  0.0017470553634595  0.4822624619178594
  0.9958333046670206  0.9984479204967265  0.4701991289312814
  0.3483937352125601  0.9967704436320174  0.4897868935032216
  0.4090831742975070  0.9977641019575827  0.5683579787684288
  0.2497554136724079  0.0012507819183538  0.5576689197012275
  0.0909808137783896  0.9974529547918949  0.5731994865832275
  0.3971781994334923  0.5023866944137390  0.2314041713970577
  0.2436558654289268  0.4982541668414519  0.2010268023787172
  0.1020319795512649  0.5033568937946856  0.2327489680464658
  0.1502921802026281  0.6322185258264454  0.3164403332260157
  0.0006007637003657  0.6279785503801012  0.3010272308340801
  0.3394782541164280  0.6260991439382205  0.3110314025839744
  0.3960385938262559  0.6258312034292808  0.3972586451302741
  0.2457579440003872  0.6209994302548850  0.3858711114854553
  0.0878290478476859  0.6278121927267158  0.4072120536904025
  0.1416757451625779  0.6225223106444340  0.4879089015022862
  0.0019708162033029  0.6266825160419343  0.4710165922504770
  0.3424764544165074  0.6293385099760619  0.4862829049422649
  0.3877586887744968  0.6321421797089702  0.5731419274067325
  0.2534122288835892  0.6363684702000657  0.5608148666090922
  0.0896186925276967  0.6374615320822036  0.5643447159949667
  0.4028028351315774  0.6230058503405845  0.2305844757070309
  0.2517557396112098  0.6340481042724339  0.1848878278040169
  0.0956451098603271  0.6248821769734646  0.2328657235369920
  0.1476794071211044  0.7492074336289162  0.3164283776605539
  0.9999822975495103  0.7524338110221472  0.2972691962424082
  0.3455069023266212  0.7479797661318091  0.3134817885459651
  0.3928581390776948  0.7520574333863771  0.4009095880596537
  0.2452512635609506  0.7425635285947276  0.3887539810087652
  0.0988476956632678  0.7532029944197043  0.3981455047996511
  0.1503652728130973  0.7598375012781828  0.4847575400375889
  0.0080386711556377  0.7539748816411089  0.4751975791979757
  0.3534572153662389  0.7512375920684371  0.4859550639621234
  0.4042962540044904  0.7545870887264301  0.5704377269592156
  0.2517985225080390  0.7611997461188803  0.5614374437002569
  0.0879362746708298  0.7695638083279961  0.5767208428929921
  0.4091731489544072  0.7562947483102634  0.2323019495156913
  0.2535813688462861  0.7562016428301720  0.1987173837002612
  0.0915182697727121  0.7504640974686013  0.2318887814673666
  0.1567057504254207  0.8764934897769021  0.3158888850830626
  0.0030440194603260  0.8700258196060591  0.2994684025671714
  0.3555692955502617  0.8733203710925270  0.3166651160965004
  0.3981677998399905  0.8756641946345649  0.4028243875520729
  0.2499883323700802  0.8809076511482430  0.3863452064695529
  0.1039309748272261  0.8730487521284821  0.3956422254549203
  0.1460413561236542  0.8812326101281301  0.4866608846279601
  0.9994810550693485  0.8797259965292120  0.4744309545080083
  0.3551341446191330  0.8794187869798186  0.4906465901353083
  0.4074665566105929  0.8796080458794289  0.5727019493042379
  0.2516408029171064  0.8768058142213417  0.5591957769170892
  0.0844822866416651  0.8753152705399971  0.5677964247476505
  0.4204158590077529  0.8775651893152875  0.2280517941929494
  0.2535976892474297  0.8741467435131076  0.2113859877192074
  0.0884552375255614  0.8771854065568213  0.2279861325000756
  0.1526566384935595  0.4979105211433664  0.3132424151533194
  0.0008450288348596  0.5041635639574514  0.3028682000046776
  0.3452809324585712  0.4987393698070805  0.3236423846797519
  0.3965616893440639  0.5008650109414089  0.4026529983555777
  0.2404081941485757  0.4971375780093163  0.3889603131383047
  0.0907828752476387  0.4944910442621281  0.3995697143575449
  0.1417442575343412  0.4991891863345815  0.4841798729626755
  0.9959886178784213  0.5018523391021860  0.4722281355901608
  0.3498030701457802  0.5027928529883791  0.4922145110388721
  0.3967663799831008  0.5069360053455778  0.5776365850104597
  0.2466046690886742  0.4931574196258386  0.5684560551290163
  0.0605453253021449  0.5185538029584947  0.5829555405967732
  0.8917082497423445  0.9953859239926123  0.2311318688601142
  0.7544454086218891  0.9982908331336674  0.1780193297858655
  0.5880521410808539  0.9953465071832319  0.2337456362986657
  0.6598081295308433  0.1192755112217076  0.3194708050790628
  0.4960570006602505  0.1299751208405771  0.3047297490127103
  0.8471707652317506  0.1302533870787720  0.3142450242164873
  0.9008836089691381  0.1240492484917848  0.4025523155746439
  0.7478802501987633  0.1267180828700283  0.3873879730026707
  0.5942532246008779  0.1216017409902664  0.4006575488345119
  0.6492958852278816  0.1297130825936900  0.4863512807673440
  0.5026988592555109  0.1225470643428993  0.4712239782088356
  0.8463067396945705  0.1249363525760280  0.4872316414294291
  0.9135797871697071  0.1199232121499172  0.5665005148654266
  0.7527418926064892  0.1245712576163787  0.5537409560700549
  0.5894459460457190  0.1282432675673619  0.5652725718180677
  0.8962130133383438  0.1282124475073598  0.2332512966145133
  0.7458965448496456  0.1202986122683689  0.2114316245644359
  0.5972745027399796  0.1198589630334005  0.2361033303274648
  0.6545670210537659  0.2454142666970869  0.3201663467482243
  0.4949774428119087  0.2476642743405079  0.3031934109041264
  0.8387264541091008  0.2499382440965156  0.3186932377635174
  0.8965081355376068  0.2524904090245756  0.4038040774934149
  0.7465360105502068  0.2489968372926189  0.3878871980282659
  0.5936997397709940  0.2534705360958942  0.4023466345097904
  0.6533390011034915  0.2459925205953179  0.4892635360024549
  0.5001375275432034  0.2481486715088708  0.4749488672851103
  0.8478059046014508  0.2477740339286237  0.4887011451906636
  0.9144800691458038  0.2453371264978192  0.5696074502532188
  0.7638032426850800  0.2451334800273925  0.5602419751012667
  0.5949214709603691  0.2373646100436128  0.5756299180313956
  0.8944078357642882  0.2517704268935377  0.2290252068585711
  0.7476526550855767  0.2440339210364039  0.1824490972936972
  0.5918461400658448  0.2437668886316208  0.2346352120162790
  0.6519407878556001  0.3710453728740625  0.3170245950722289
  0.4982382914885349  0.3775052062536160  0.2990189004606372
  0.8531494497597986  0.3749195724179387  0.3138544562433699
  0.8953149554570785  0.3762811406732721  0.4034955702335201
  0.7499952545554103  0.3744369772705673  0.3802366339994364
  0.5998942932902113  0.3775206102969690  0.4084201428525222
  0.6549621688836518  0.3866098330252727  0.4887341471081916
  0.4978591000825012  0.3780651919558553  0.4751968224979071
  0.8479640897980072  0.3746693463591640  0.4875009299501600
  0.8991690178880607  0.3765893562409006  0.5669300950803885
  0.7569324500576434  0.3742698077745488  0.5664411354708624
  0.5769965997694565  0.3750359713064675  0.5830102459088464
  0.9042250343780273  0.3730968232362337  0.2300908037095200
  0.7426635478263479  0.3807168380221544  0.2108581095611521
  0.5881248648151040  0.3669868864085168  0.2269827700149053
  0.6528263834461984  0.9997704623180860  0.3187568989245861
  0.4986068878333608  0.0042689109220807  0.3015969286927149
  0.8466916378455230  0.9967727129343714  0.3116334985180030
  0.9014180198741272  0.0032508819671544  0.3989547180156132
  0.7546327245915766  0.0017204107413857  0.3903956062585978
  0.5997618261824783  0.9979518813703884  0.4043235715314687
  0.6523256695940653  0.9969945261842033  0.4876974904422182
  0.5021423131361887  0.9979971099726722  0.4706241573603931
  0.8437752105780250  0.0036214810069949  0.4852720894229364
  0.9134022599087427  0.9997946471091892  0.5724629303999159
  0.7513485563719278  0.9991042617421955  0.5604602542631488
  0.5900246196547264  0.0022621788542821  0.5680705236679976
  0.9008145088947234  0.5002414500436859  0.2329843661087320
  0.7517658945234688  0.4973251541833946  0.2078955174666190
  0.5884982390069309  0.4974253632730762  0.2345112485881385
  0.6495668205770281  0.6235164331679697  0.3095365518427696
  0.4944267848843043  0.6265329875949455  0.2999668499592656
  0.8419601692973534  0.6220011543582491  0.3116674640418973
  0.8980539643700191  0.6285802508987434  0.3981426734687897
  0.7468942882106141  0.6308940545124747  0.3860034635511668
  0.5973338665804636  0.6268034842292290  0.3992103647350471
  0.6441239856393339  0.6267503402021583  0.4796776402043764
  0.4880789182285215  0.6335316685541272  0.4700271343233502
  0.8456873592564591  0.6226836980603266  0.4873921729579333
  0.8970531635034356  0.6291512470521012  0.5652391189308652
  0.7453291393944593  0.6236328683585549  0.5499572970067904
  0.5580492826833008  0.6273790963604747  0.5674981686208387
  0.8980090923627934  0.6221253754537792  0.2315012295731757
  0.7445403581778343  0.6242085640788425  0.2021464900807311
  0.5897965905533101  0.6268229192429021  0.2255260248854756
  0.6477228726459225  0.7492495468575739  0.3172033284426816
  0.4966046357100175  0.7439049302711469  0.3026317038908228
  0.8465478490239907  0.7528924209230748  0.3095749049982517
  0.8962806097898265  0.7464356794593934  0.4013271240637682
  0.7402152928915785  0.7449954841983990  0.3825217608203351
  0.5972355909712740  0.7461195160352420  0.4000594264335290
  0.6608910777935296  0.7549644110148698  0.4826850127894882
  0.5001258019966871  0.7501955077712378  0.4738349225838590
  0.8560719330211001  0.7526595282002143  0.4840414946337349
  0.9093637311775006  0.7521281999072772  0.5665320837221220
  0.7542638486575728  0.7514875860714142  0.5646112360499151
  0.6070870597260754  0.7434821041276828  0.5587545301886002
  0.9046116068998838  0.7504126011481246  0.2282657483499838
  0.7427719347070240  0.7476827788049576  0.1697085870859893
  0.6020792910851980  0.7511307414295182  0.2303391955949338
  0.6467652663299120  0.8759304311682449  0.3228219889070070
  0.5032231220389584  0.8738785956528087  0.3018620957279729
  0.8501120302855533  0.8747737888661963  0.3142515122351595
  0.9003336553282764  0.8721872034724637  0.3990708099928251
  0.7512542140599667  0.8772943462192202  0.3871709958034933
  0.5925582832057950  0.8774334762647769  0.4044855283311188
  0.6611385038666446  0.8765939433414234  0.4887968054438708
  0.5019567676304565  0.8768995989483852  0.4747661945868601
  0.8503763699477345  0.8785492969174489  0.4891250834732204
  0.9087771340400357  0.8795459244616727  0.5707651656468384
  0.7524675152481625  0.8802838924318863  0.5647205329625022
  0.5938503809071111  0.8741053686266856  0.5729152402708363
  0.9049374541614313  0.8685595333481332  0.2272848819042599
  0.7532787900657072  0.8743448590556794  0.2141239475717412
  0.6087234839647313  0.8762799830855837  0.2363851517092277
  0.6467284314928743  0.5044651646557603  0.3167898224670980
  0.4960412020464811  0.5019213414418432  0.3025294643119157
  0.8443150453187396  0.4999983934649061  0.3140171616628987
  0.8964522204129272  0.5006769728990494  0.3985496155842019
  0.7488459695158789  0.4983803761402235  0.3849237446084415
  0.5964065740520439  0.5047090836701820  0.3999032823436905
  0.6471687485371094  0.5008570733184088  0.4821075812108405
  0.4938703377275951  0.5040770856628859  0.4696778048075227
  0.8408178576036367  0.5004401356307282  0.4864939834261603
  0.9059245178038858  0.4922333730596710  0.5642404086283135
  0.7489956346432268  0.5017509169431568  0.5609491913876010
  0.5962529148608975  0.5192399424356063  0.5563082940319400
  0.0025992049136817  0.8780342632323085  0.5386717214131822
  0.5047314765206672  0.8740645770124665  0.5448105264541542
  0.9993668511997401  0.9943556020788424  0.5406928115103415
  0.4951143673292076  0.9849355289483267  0.5369421046438625
  0.0059126300682627  0.1288099647269410  0.5348277564256356
  0.9954832744089828  0.3745161633091360  0.5460446612270505
  0.1870203218617523  0.4350090985978206  0.5304731185292935
  0.9938945777978891  0.6342855519151023  0.5387601145437149
  0.1829214063923945  0.6918888720880236  0.5295144633730735
  0.5000623309550711  0.1327387233809960  0.5362841060429926
  0.5007473077436531  0.3766078459224081  0.5427464460420217
  0.6201956821438220  0.4463366130355915  0.5398961895085803
  0.4699649520254698  0.6185627853118877  0.5361943778357932
  0.6897452278564056  0.6946351197457771  0.5297337658168323
  0.0044653796639922  0.2446221121149413  0.5426072543977074
  0.1885697796035686  0.3090086419991243  0.5316469882139190
  0.1096024213800967  0.5666512832151330  0.5429763854738527
  0.0068606570750427  0.7596431106368237  0.5418135191390784
  0.9988236745637626  0.4891621643397018  0.5399714471759074
  0.5045533648013389  0.2375005339786361  0.5511753276504668
  0.6948571556430617  0.3175503256790825  0.5267498329897929
  0.6842308497324445  0.5650444047912234  0.5245187101748887
  0.5036007832062778  0.7579984030453254  0.5412877663552146
  0.4889114638760387  0.5119217889867291  0.5373471390410283
  0.4091819766683070  0.4077887248813432  0.6355588926840829
  0.5700237966105712  0.4433515779170875  0.6190804017668390
  0.4989796442575229  0.4439415930625555  0.6909851082866353
  0.7676727855979101  0.3515201521501115  0.6748454258622725
  0.8402301829040363  0.3774128555347011  0.6147087875132170
  0.1361346993438573  0.4002036802528927  0.6175304191663129