POSCAR                                  
   1.00000000000000     
     6.4995327069412312    0.0000000000000000    0.0000000000000000
    -3.2497663534706156    5.6128725645051345   -0.0149727340141284
     0.0000000000000000   -0.0264956911106536    9.7000418768101770
   Al   N    Li   Ta
    12    16     2     2
Direct
  0.1749376757239939  0.3337269801860612  0.0093180752408026
  0.6587893044620604  0.3337269801860612  0.0093180752408026
  0.1704697425111574  0.8409394850223221 -0.0008594247262572
  0.6647978594862967  0.8295957189726001  0.9920247643115865
  0.1639217884673883  0.8278435769347838  0.5075048508206028
  0.6633899019022903  0.8267798038045880  0.5055477932557897
  0.8349825987880644  0.1699651975761211  0.7517422160431994
  0.3259543879039190  0.6663031354134951  0.7509484507135940
  0.8403487475095831  0.6663031354134951  0.7509484507135940
  0.8317453665638331  0.1634907331276587  0.2265651107717871
  0.3335379815237529  0.6787615713408943  0.2347925567424577
  0.8452235898171491  0.6787615713408943  0.2347925567424577
  0.1601868620626578  0.3458024946657022  0.2119871993985639
  0.6856156326030370  0.3458024946657022  0.2119871993985639
  0.1590272988523816  0.8180545977047703  0.1908910624292174
  0.6662418293410470  0.8324836586820999  0.1886508186355900
  0.1505912288139538  0.3446630810626658  0.6738775224317873
  0.6940718522487047  0.3446630810626658  0.6738775224317873
  0.1567506953951406  0.8135013907902886  0.6948588091133653
  0.6665083851868399  0.8330167703736864  0.6976907965555360
  0.3360894827380689  0.1721789654761307  0.9614880577545988
  0.8354910973641551  0.1709821947283033  0.9492906142934936
  0.3322506083031074  0.6623247718741365  0.9456520816506930
  0.8300741635710367  0.6623247718741365  0.9456520816506930
  0.3223584350869114  0.1447168701738158  0.4469614944875228
  0.8185557083925048  0.1371114167850024  0.4338167701025832
  0.3463388169179623  0.6852772620668620  0.4395692892574846
  0.8389384451489068  0.6852772620668620  0.4395692892574846
  0.3307493263442491  0.1614986526884910  0.7525720447057803
  0.3293662614531345  0.1587325229062621  0.2226293029161116
  0.1669813440204601  0.3326949255167206  0.4731672838293708
  0.6657135814962534  0.3326949255167206  0.4731672838293708
 
  0.00000000E+00  0.00000000E+00  0.00000000E+00
  0.00000000E+00  0.00000000E+00  0.00000000E+00
  0.00000000E+00  0.00000000E+00  0.00000000E+00
  0.00000000E+00  0.00000000E+00  0.00000000E+00
  0.00000000E+00  0.00000000E+00  0.00000000E+00
  0.00000000E+00  0.00000000E+00  0.00000000E+00
  0.00000000E+00  0.00000000E+00  0.00000000E+00
  0.00000000E+00  0.00000000E+00  0.00000000E+00
  0.00000000E+00  0.00000000E+00  0.00000000E+00
  0.00000000E+00  0.00000000E+00  0.00000000E+00
  0.00000000E+00  0.00000000E+00  0.00000000E+00
  0.00000000E+00  0.00000000E+00  0.00000000E+00
  0.00000000E+00  0.00000000E+00  0.00000000E+00
  0.00000000E+00  0.00000000E+00  0.00000000E+00
  0.00000000E+00  0.00000000E+00  0.00000000E+00
  0.00000000E+00  0.00000000E+00  0.00000000E+00
  0.00000000E+00  0.00000000E+00  0.00000000E+00
  0.00000000E+00  0.00000000E+00  0.00000000E+00
  0.00000000E+00  0.00000000E+00  0.00000000E+00
  0.00000000E+00  0.00000000E+00  0.00000000E+00
  0.00000000E+00  0.00000000E+00  0.00000000E+00
  0.00000000E+00  0.00000000E+00  0.00000000E+00
  0.00000000E+00  0.00000000E+00  0.00000000E+00
  0.00000000E+00  0.00000000E+00  0.00000000E+00
  0.00000000E+00  0.00000000E+00  0.00000000E+00
  0.00000000E+00  0.00000000E+00  0.00000000E+00
  0.00000000E+00  0.00000000E+00  0.00000000E+00
  0.00000000E+00  0.00000000E+00  0.00000000E+00
  0.00000000E+00  0.00000000E+00  0.00000000E+00
  0.00000000E+00  0.00000000E+00  0.00000000E+00
  0.00000000E+00  0.00000000E+00  0.00000000E+00
  0.00000000E+00  0.00000000E+00  0.00000000E+00
