POSCAR                                  
   1.00000000000000     
     6.3105638955441883    0.0000000000000000    0.0000000000000000
    -3.15528194777209415   5.4651086457461558    0.0000000000000000
     0.0000000000000000    0.0000000000000000    9.9268483470572839
   Al   N    Li       Ta
    12    16     2     2
Direct
  0.1666666666666667  0.3333333333333333 -0.0058846411091380
  0.6666666666666667  0.3333333333333333 -0.0058846411091380
  0.1666666666666667  0.8333333333333333  0.9959137584681043
  0.6666666666666667  0.8333333333333333 -0.0007385255789953
  0.1666666666666667  0.8333333333333333  0.4884739232172228
  0.6666666666666667  0.8333333333333333  0.4946799468785490
  0.8333333333333333  0.1666666666666667  0.7374546079207821
  0.3333333333333333  0.6666666666666667  0.7451076150309145
  0.8333333333333333  0.6666666666666667  0.7451076150309145
  0.8333333333333333  0.1666666666666667  0.2678714996573465
  0.3333333333333333  0.6666666666666667  0.2577555928896066
  0.8333333333333333  0.6666666666666667  0.2577555928896066
  0.1666666666666667  0.3333333333333333  0.1879538339622155
  0.6666666666666667  0.3333333333333333  0.1879538339622155
  0.1666666666666667  0.8333333333333333  0.1871178477997771
  0.6666666666666667  0.8333333333333333  0.1892271630334487
  0.1666666666666667  0.3333333333333333  0.7081442359462646
  0.6666666666666667  0.3333333333333333  0.7081442359462646
  0.1666666666666667  0.8333333333333333  0.6910920026393679
  0.6666666666666667  0.8333333333333333  0.6921232121579806
  0.3333333333333333  0.1666666666666667  0.9401541120971451
  0.8333333333333333  0.1666666666666667  0.9356638923513489
  0.3333333333333333  0.6666666666666667  0.9383453607369222
  0.8333333333333333  0.6666666666666667  0.9383453607369222
  0.3333333333333333  0.1666666666666667  0.4129355481883673
  0.8333333333333333  0.1666666666666667  0.4493542463150097
  0.3333333333333333  0.6666666666666667  0.4423924425758997
  0.8333333333333333  0.6666666666666667  0.4423924425758997
  0.3333333333333333  0.1666666666666667  0.7463039033515766
  0.3333333333333333  0.1666666666666667  0.2444146628615742
  0.1666666666666667  0.3333333333333333  0.4901646592880118
  0.6666666666666667  0.3333333333333333  0.4901646592880118
