Mo  S Cu                                
   1.00000000000000     
    15.9214998300000001    0.0000000000000000    0.0000000000000000
    -7.9622501300000001   13.7910221699999997    0.0000000000000000
     0.0000000000000000    0.0000000000000000   13.5821998300000004
   Mo   S    Ru
    25    50     4
Direct
  0.1316982077008362  0.0673929305485075  0.6716559945937206
  0.1242553075568082  0.2616098119629058  0.6719745136128381
  0.1349869335646829  0.4649885974471033  0.6809796911456942
  0.1326741202315915  0.6659702437315858  0.6763984954253317
  0.1320250356724912  0.8661272996888201  0.6710256028226596
  0.3281413179023716  0.0621039933305454  0.6831816710405505
  0.3229702485394839  0.2727622584243150  0.6965956510306484
  0.3428993146722732  0.4753770438404104  0.6775606125717033
  0.3334451840209738  0.6671596128098258  0.6733896420337970
  0.3308001022560561  0.8641771754645333  0.6742176346183300
  0.5284915007023514  0.0612795339137904  0.6812453230072109
  0.5194199098586125  0.2452163709938162  0.7131813470854098
  0.5475064831205074  0.4859667307324287  0.6825254008845008
  0.5367298931079105  0.6723960625091792  0.6678086631348492
  0.5327092184419158  0.8669663260210143  0.6684389024718556
  0.7316170299512308  0.0673407937121198  0.6704772940933879
  0.7355454963359023  0.2660150760511115  0.6891635474569284
  0.7382157973309091  0.4845978562450313  0.6850943613872573
  0.7383254769105250  0.6763958661840448  0.6664511395488688
  0.7346645883372886  0.8717472017184349  0.6630207257582654
  0.9326404146515230  0.0680739955407930  0.6656362986076445
  0.9328784411058990  0.2680678902993066  0.6780280267496508
  0.9312521637979003  0.4664391986094358  0.6859658931569044
  0.9358841642368461  0.6712734024393043  0.6724910253603014
  0.9354031449070064  0.8712510068650232  0.6644108487332261
  0.0685221476240798  0.1341926910055307  0.5512628226870646
  0.0606534447993710  0.1290452682277419  0.7853240468987934
  0.0641205703216130  0.3351133739176433  0.5606232118897836
  0.0668264178469187  0.3312128440759849  0.7975582863952440
  0.0628261710221878  0.5284656736253908  0.5678432791663894
  0.0687218128022238  0.5346120460510306  0.7953924067035913
  0.0676139116149841  0.7318274142076930  0.5572216867247803
  0.0671422688322636  0.7360626155395451  0.7883421588865076
  0.0714387481095358  0.9372094624438887  0.5529624053972171
  0.0637900897503201  0.9330926895716871  0.7837015964616327
  0.2738786118301988  0.1437317208386233  0.5700158256905610
  0.2545352765452265  0.1283502391071636  0.7962846771686145
  0.2682814111503760  0.3350292587610113  0.5706487273491447
  0.2850399209562582  0.3257519075843831  0.9488420425997575
  0.2668059287231799  0.5316134919664108  0.5620553078382997
  0.2710152450524461  0.5329568281939743  0.7953216830183081
  0.2641964742019809  0.7313214487542936  0.5590377804745472
  0.2664921863002334  0.7319050044477962  0.7900792765657840
  0.2676583502904180  0.9359094451262706  0.5601984467533967
  0.2588825139286257  0.9247943500920712  0.7911382350458567
  0.4647764106402761  0.1363400397255745  0.5748230030841199
  0.4488514808169484  0.1017008673713278  0.8066309041077488
  0.4671532141707715  0.3316734417676415  0.6009733339447862
  0.4479160700135978  0.2755305645977799  0.8641979556077644
  0.4720651623726368  0.5342086069872565  0.5577142751455426
  0.4764010433802994  0.5483788479251146  0.7953413840902783
  0.4642827762871491  0.7333407438645096  0.5538675037191041
  0.4694160231247508  0.7365510787168290  0.7847427098781665
  0.4640433173442489  0.9351528051680873  0.5584860292403775
  0.4638515475354410  0.9246048846502504  0.7895351838061657
  0.6622685444558982  0.1388863708804351  0.5650109580747369
  0.6653878177375745  0.1250924582579671  0.7936098260931885
  0.6562584696778657  0.3326382617701924  0.5974639877066608
  0.6225067146089387  0.2741277247068012  0.8666843971569378
  0.6700156689714447  0.5373985513509254  0.5586949915784345
  0.6790963368691223  0.5588945888972532  0.7976448957697926
  0.6679405695491809  0.7375839939500821  0.5492410200322482
  0.6717539288740397  0.7441082220441260  0.7804184967127412
  0.6649221564647121  0.9380604633473695  0.5508813388527685
  0.6670506774753449  0.9331145908722007  0.7819847250481970
  0.8661659953289060  0.1402459002058407  0.5560590976875162
  0.8646136509713145  0.1293518128626800  0.7851718085325672
  0.8608051934996936  0.3341228877131641  0.5694649753379721
  0.8684924042117075  0.3301323505560063  0.8047713627518718
  0.8652409009483435  0.5315135667793101  0.5656448225477462
  0.8713470249158490  0.5480074707804476  0.7991070969543159
  0.8707973589238023  0.7363500010283062  0.5513518506391719
  0.8708788521553146  0.7438812138016146  0.7823817249910903
  0.8682628484237966  0.9375461447261770  0.5477994282946952
  0.8664565689891646  0.9356713154745719  0.7789967227126624
  0.4091730164481575  0.3886624595826191  0.8456627437305997
  0.5982406346903062  0.4001139854575229  0.8466567906042641
  0.7691077524001102  0.3915298617567444  0.8461369435353632
  0.2293292199684132  0.3588936394896720  0.8168329388459128
 
  0.00000000E+00  0.00000000E+00  0.00000000E+00
  0.00000000E+00  0.00000000E+00  0.00000000E+00
  0.00000000E+00  0.00000000E+00  0.00000000E+00
  0.00000000E+00  0.00000000E+00  0.00000000E+00
  0.00000000E+00  0.00000000E+00  0.00000000E+00
  0.00000000E+00  0.00000000E+00  0.00000000E+00
  0.00000000E+00  0.00000000E+00  0.00000000E+00
  0.00000000E+00  0.00000000E+00  0.00000000E+00
  0.00000000E+00  0.00000000E+00  0.00000000E+00
  0.00000000E+00  0.00000000E+00  0.00000000E+00
  0.00000000E+00  0.00000000E+00  0.00000000E+00
  0.00000000E+00  0.00000000E+00  0.00000000E+00
  0.00000000E+00  0.00000000E+00  0.00000000E+00
  0.00000000E+00  0.00000000E+00  0.00000000E+00
  0.00000000E+00  0.00000000E+00  0.00000000E+00
  0.00000000E+00  0.00000000E+00  0.00000000E+00
  0.00000000E+00  0.00000000E+00  0.00000000E+00
  0.00000000E+00  0.00000000E+00  0.00000000E+00
  0.00000000E+00  0.00000000E+00  0.00000000E+00
  0.00000000E+00  0.00000000E+00  0.00000000E+00
  0.00000000E+00  0.00000000E+00  0.00000000E+00
  0.00000000E+00  0.00000000E+00  0.00000000E+00
  0.00000000E+00  0.00000000E+00  0.00000000E+00
  0.00000000E+00  0.00000000E+00  0.00000000E+00
  0.00000000E+00  0.00000000E+00  0.00000000E+00
  0.00000000E+00  0.00000000E+00  0.00000000E+00
  0.00000000E+00  0.00000000E+00  0.00000000E+00
  0.00000000E+00  0.00000000E+00  0.00000000E+00
  0.00000000E+00  0.00000000E+00  0.00000000E+00
  0.00000000E+00  0.00000000E+00  0.00000000E+00
  0.00000000E+00  0.00000000E+00  0.00000000E+00
  0.00000000E+00  0.00000000E+00  0.00000000E+00
  0.00000000E+00  0.00000000E+00  0.00000000E+00
  0.00000000E+00  0.00000000E+00  0.00000000E+00
  0.00000000E+00  0.00000000E+00  0.00000000E+00
  0.00000000E+00  0.00000000E+00  0.00000000E+00
  0.00000000E+00  0.00000000E+00  0.00000000E+00
  0.00000000E+00  0.00000000E+00  0.00000000E+00
  0.00000000E+00  0.00000000E+00  0.00000000E+00
  0.00000000E+00  0.00000000E+00  0.00000000E+00
  0.00000000E+00  0.00000000E+00  0.00000000E+00
  0.00000000E+00  0.00000000E+00  0.00000000E+00
  0.00000000E+00  0.00000000E+00  0.00000000E+00
  0.00000000E+00  0.00000000E+00  0.00000000E+00
  0.00000000E+00  0.00000000E+00  0.00000000E+00
  0.00000000E+00  0.00000000E+00  0.00000000E+00
  0.00000000E+00  0.00000000E+00  0.00000000E+00
  0.00000000E+00  0.00000000E+00  0.00000000E+00
  0.00000000E+00  0.00000000E+00  0.00000000E+00
  0.00000000E+00  0.00000000E+00  0.00000000E+00
  0.00000000E+00  0.00000000E+00  0.00000000E+00
  0.00000000E+00  0.00000000E+00  0.00000000E+00
  0.00000000E+00  0.00000000E+00  0.00000000E+00
  0.00000000E+00  0.00000000E+00  0.00000000E+00
  0.00000000E+00  0.00000000E+00  0.00000000E+00
  0.00000000E+00  0.00000000E+00  0.00000000E+00
  0.00000000E+00  0.00000000E+00  0.00000000E+00
  0.00000000E+00  0.00000000E+00  0.00000000E+00
  0.00000000E+00  0.00000000E+00  0.00000000E+00
  0.00000000E+00  0.00000000E+00  0.00000000E+00
  0.00000000E+00  0.00000000E+00  0.00000000E+00
  0.00000000E+00  0.00000000E+00  0.00000000E+00
  0.00000000E+00  0.00000000E+00  0.00000000E+00
  0.00000000E+00  0.00000000E+00  0.00000000E+00
  0.00000000E+00  0.00000000E+00  0.00000000E+00
  0.00000000E+00  0.00000000E+00  0.00000000E+00
  0.00000000E+00  0.00000000E+00  0.00000000E+00
  0.00000000E+00  0.00000000E+00  0.00000000E+00
  0.00000000E+00  0.00000000E+00  0.00000000E+00
  0.00000000E+00  0.00000000E+00  0.00000000E+00
  0.00000000E+00  0.00000000E+00  0.00000000E+00
  0.00000000E+00  0.00000000E+00  0.00000000E+00
  0.00000000E+00  0.00000000E+00  0.00000000E+00
  0.00000000E+00  0.00000000E+00  0.00000000E+00
  0.00000000E+00  0.00000000E+00  0.00000000E+00
  0.00000000E+00  0.00000000E+00  0.00000000E+00
  0.00000000E+00  0.00000000E+00  0.00000000E+00
  0.00000000E+00  0.00000000E+00  0.00000000E+00
  0.00000000E+00  0.00000000E+00  0.00000000E+00
