Mo  S Co                                
   1.00000000000000     
    15.9214998300000001    0.0000000000000000    0.0000000000000000
    -7.9622501300000001   13.7910221699999997    0.0000000000000000
     0.0000000000000000    0.0000000000000000   13.5821998300000004
   Mo   S    Ru
    25    49     4
Direct
  0.1300662328915294  0.0665686411402930  0.6727718230866486
  0.1314714666912238  0.2647381872728971  0.6697984442278724
  0.1309588981751233  0.4627594427981876  0.6751404881128735
  0.1303795528554517  0.6642235891432051  0.6771705808792134
  0.1301462602484591  0.8652303591165591  0.6759936611121873
  0.3295407507212005  0.0659223411905856  0.6769163616070912
  0.3260142710278870  0.2672591237075608  0.6733829207688800
  0.3299137044636780  0.4590207745745403  0.6743325811910381
  0.3302363731891376  0.6633268664962557  0.6787186779914052
  0.3297406678300376  0.8645290423694476  0.6783993769517025
  0.5296054363577269  0.0647173575291049  0.6792360687318180
  0.5286197688375580  0.2638852042946382  0.6774880501328298
  0.5286347244414813  0.4633860799613885  0.6816602947792205
  0.5305246136265680  0.6648645014693528  0.6804273405267409
  0.5299733069192953  0.8647679359285902  0.6796759173186047
  0.7301571407160239  0.0650569655725661  0.6793591859669306
  0.7302191310529906  0.2648580029011711  0.6811477787559141
  0.7305599553655142  0.4646423377546469  0.6774446924665725
  0.7305164851372439  0.6669109541457132  0.6774129578699046
  0.7302521409279095  0.8654408027357547  0.6786602041699084
  0.9307936006017243  0.0657375120412595  0.6763215279766754
  0.9308686117388234  0.2647766026236980  0.6775539149823899
  0.9306293131821448  0.4644331816525735  0.6775818869043704
  0.9303277932233200  0.6649509148809827  0.6766830309479985
  0.9305921159085955  0.8657423631197929  0.6757078618483803
  0.0617373154016008  0.1316915382272015  0.5573010301605805
  0.0684778317411485  0.1361811823618737  0.7887972760867186
  0.0621772259137003  0.3302971286843785  0.5588491096735666
  0.0688166678997888  0.3304692848488315  0.7896586076346424
  0.0637552664961518  0.5308530809986891  0.5618834277283824
  0.0649632914180103  0.5302019521014429  0.7913022573219308
  0.0638149938565107  0.7310957408001926  0.5616922496535466
  0.0637866983262185  0.7319226385735149  0.7913730276979081
  0.0633601388215226  0.9312476442225375  0.5597280345012834
  0.0644852474819473  0.9339315072262337  0.7895113109053824
  0.2652414764422844  0.1341080574536235  0.5589387010374267
  0.2602369546665031  0.1349429196444021  0.7893098259372593
  0.2631635301053024  0.3321463302385084  0.5564861667060725
  0.2663313535256364  0.5306408796200301  0.5616972873413388
  0.2628248984212149  0.5245970817828862  0.7903251234300299
  0.2644256353529926  0.7309154148778916  0.5633520116693020
  0.2627407632117666  0.7301713979906168  0.7931923553629190
  0.2642217697567588  0.9318904860606310  0.5622438941118517
  0.2624313763999311  0.9323254655701305  0.7920591277271214
  0.4632492062943641  0.1311106684442649  0.5628901301017777
  0.4614986551709634  0.1308082768929708  0.7931494366468854
  0.4625494870479514  0.3321657126310456  0.5636609642288093
  0.4520107413940693  0.3218435028475213  0.7978782510809452
  0.4643229301396801  0.5312340998096374  0.5649611030396571
  0.4583802802261872  0.5286351280438382  0.7975431959750523
  0.4638201080532838  0.7310473577022449  0.5649946340619465
  0.4627365961622516  0.7312035940189148  0.7947138572658687
  0.4636005402551220  0.9313537742881692  0.5641825071386251
  0.4624733862873072  0.9312378076023364  0.7942275342970149
  0.6635570695692294  0.1323015931463658  0.5650667371360782
  0.6630363695618584  0.1309127855263696  0.7949583060187493
  0.6631954370344033  0.3306569789923017  0.5646431330219883
  0.6607771450652535  0.3321215560699287  0.7955216274027279
  0.6615105425236436  0.5306458631602098  0.5653207090919565
  0.6693247379182665  0.5366380629236289  0.7955757472271259
  0.6622298461507867  0.7320472840577565  0.5634711433166473
  0.6644469967209901  0.7324399031632467  0.7943941952813205
  0.6629279001276700  0.9318380813270366  0.5642049600670944
  0.6638222849010873  0.9317561883862453  0.7944728772173306
  0.8623825470459181  0.1315376879833678  0.5629422899427894
  0.8649928480256861  0.1319441239488413  0.7930096177127268
  0.8620277419384550  0.3304093231497092  0.5638861324592312
  0.8656066347386044  0.3320311911846900  0.7938954731205641
  0.8635041634840874  0.5309638483559311  0.5621502425383653
  0.8648237999194635  0.5320833071050757  0.7921543245383873
  0.8631701224052009  0.7314868651466924  0.5613627724574641
  0.8652763217380368  0.7334938015129282  0.7914694665708382
  0.8623903957730974  0.9317579305036503  0.5619076773305238
  0.8653831215672980  0.9329738559111433  0.7919660592383480
  0.5310951110304458  0.4555731853537779  0.8979991795336701
  0.6149509436567016  0.3785640652292486  0.9558993945590970
  0.5505105613851526  0.3718684053994323  0.1028051745064502
  0.4720237629798660  0.4429626333288894  0.0530950221075841
 
  0.00000000E+00  0.00000000E+00  0.00000000E+00
  0.00000000E+00  0.00000000E+00  0.00000000E+00
  0.00000000E+00  0.00000000E+00  0.00000000E+00
  0.00000000E+00  0.00000000E+00  0.00000000E+00
  0.00000000E+00  0.00000000E+00  0.00000000E+00
  0.00000000E+00  0.00000000E+00  0.00000000E+00
  0.00000000E+00  0.00000000E+00  0.00000000E+00
  0.00000000E+00  0.00000000E+00  0.00000000E+00
  0.00000000E+00  0.00000000E+00  0.00000000E+00
  0.00000000E+00  0.00000000E+00  0.00000000E+00
  0.00000000E+00  0.00000000E+00  0.00000000E+00
  0.00000000E+00  0.00000000E+00  0.00000000E+00
  0.00000000E+00  0.00000000E+00  0.00000000E+00
  0.00000000E+00  0.00000000E+00  0.00000000E+00
  0.00000000E+00  0.00000000E+00  0.00000000E+00
  0.00000000E+00  0.00000000E+00  0.00000000E+00
  0.00000000E+00  0.00000000E+00  0.00000000E+00
  0.00000000E+00  0.00000000E+00  0.00000000E+00
  0.00000000E+00  0.00000000E+00  0.00000000E+00
  0.00000000E+00  0.00000000E+00  0.00000000E+00
  0.00000000E+00  0.00000000E+00  0.00000000E+00
  0.00000000E+00  0.00000000E+00  0.00000000E+00
  0.00000000E+00  0.00000000E+00  0.00000000E+00
  0.00000000E+00  0.00000000E+00  0.00000000E+00
  0.00000000E+00  0.00000000E+00  0.00000000E+00
  0.00000000E+00  0.00000000E+00  0.00000000E+00
  0.00000000E+00  0.00000000E+00  0.00000000E+00
  0.00000000E+00  0.00000000E+00  0.00000000E+00
  0.00000000E+00  0.00000000E+00  0.00000000E+00
  0.00000000E+00  0.00000000E+00  0.00000000E+00
  0.00000000E+00  0.00000000E+00  0.00000000E+00
  0.00000000E+00  0.00000000E+00  0.00000000E+00
  0.00000000E+00  0.00000000E+00  0.00000000E+00
  0.00000000E+00  0.00000000E+00  0.00000000E+00
  0.00000000E+00  0.00000000E+00  0.00000000E+00
  0.00000000E+00  0.00000000E+00  0.00000000E+00
  0.00000000E+00  0.00000000E+00  0.00000000E+00
  0.00000000E+00  0.00000000E+00  0.00000000E+00
  0.00000000E+00  0.00000000E+00  0.00000000E+00
  0.00000000E+00  0.00000000E+00  0.00000000E+00
  0.00000000E+00  0.00000000E+00  0.00000000E+00
  0.00000000E+00  0.00000000E+00  0.00000000E+00
  0.00000000E+00  0.00000000E+00  0.00000000E+00
  0.00000000E+00  0.00000000E+00  0.00000000E+00
  0.00000000E+00  0.00000000E+00  0.00000000E+00
  0.00000000E+00  0.00000000E+00  0.00000000E+00
  0.00000000E+00  0.00000000E+00  0.00000000E+00
  0.00000000E+00  0.00000000E+00  0.00000000E+00
  0.00000000E+00  0.00000000E+00  0.00000000E+00
  0.00000000E+00  0.00000000E+00  0.00000000E+00
  0.00000000E+00  0.00000000E+00  0.00000000E+00
  0.00000000E+00  0.00000000E+00  0.00000000E+00
  0.00000000E+00  0.00000000E+00  0.00000000E+00
  0.00000000E+00  0.00000000E+00  0.00000000E+00
  0.00000000E+00  0.00000000E+00  0.00000000E+00
  0.00000000E+00  0.00000000E+00  0.00000000E+00
  0.00000000E+00  0.00000000E+00  0.00000000E+00
  0.00000000E+00  0.00000000E+00  0.00000000E+00
  0.00000000E+00  0.00000000E+00  0.00000000E+00
  0.00000000E+00  0.00000000E+00  0.00000000E+00
  0.00000000E+00  0.00000000E+00  0.00000000E+00
  0.00000000E+00  0.00000000E+00  0.00000000E+00
  0.00000000E+00  0.00000000E+00  0.00000000E+00
  0.00000000E+00  0.00000000E+00  0.00000000E+00
  0.00000000E+00  0.00000000E+00  0.00000000E+00
  0.00000000E+00  0.00000000E+00  0.00000000E+00
  0.00000000E+00  0.00000000E+00  0.00000000E+00
  0.00000000E+00  0.00000000E+00  0.00000000E+00
  0.00000000E+00  0.00000000E+00  0.00000000E+00
  0.00000000E+00  0.00000000E+00  0.00000000E+00
  0.00000000E+00  0.00000000E+00  0.00000000E+00
  0.00000000E+00  0.00000000E+00  0.00000000E+00
  0.00000000E+00  0.00000000E+00  0.00000000E+00
  0.00000000E+00  0.00000000E+00  0.00000000E+00
  0.00000000E+00  0.00000000E+00  0.00000000E+00
  0.00000000E+00  0.00000000E+00  0.00000000E+00
  0.00000000E+00  0.00000000E+00  0.00000000E+00
  0.00000000E+00  0.00000000E+00  0.00000000E+00
