Co  N  H                                
   1.00000000000000     
     7.4670000076000003    0.0000000000000000    0.0000000000000000
     0.0000000000000000   12.1049995421999999    0.0000000000000000
     0.0000000000000000    0.0000000000000000   22.9036006926999995
   Co   N    H 
    73    12    16
Selective dynamics
Direct
  0.0000000000000000  0.0833299949999997  0.0627399999999980   F   F   F
  0.1666699929999993  0.0833299949999997  0.1568599980000016   F   F   F
  0.0104416275655970  0.0810440205686185  0.2466430667663863   T   T   T
  0.2217071591222974  0.0915879044561722  0.3476458118401539   T   T   T
  0.0000000000000000  0.2500000000000000  0.0000000000000000   F   F   F
  0.1666699929999993  0.2500000000000000  0.0941099940000001   F   F   F
  0.0028090989069341  0.2515261892485886  0.1870930020790696   T   T   T
  0.1653905556277082  0.2481027676125597  0.2816151212144834   T   T   T
  0.3333299909999994  0.0833299949999997  0.0627399999999980   F   F   F
  0.5000000000000000  0.0833299949999997  0.1568599980000016   F   F   F
  0.3369494726266022  0.0815737707817439  0.2478247241378653   T   T   T
  0.6004535315555143  0.0978280297210399  0.3717699983999994   T   T   T
  0.3333299909999994  0.2500000000000000  0.0000000000000000   F   F   F
  0.5000000000000000  0.2500000000000000  0.0941099940000001   F   F   F
  0.3351028041368798  0.2499237968481271  0.1876718010491954   T   T   T
  0.5086570880848924  0.2399732688958569  0.2830723801942090   T   T   T
  0.6666700090000006  0.0833299949999997  0.0627399999999980   F   F   F
  0.8333299909999994  0.0833299949999997  0.1568599980000016   F   F   F
  0.6733609917864203  0.0796903360841750  0.2487557374794567   T   T   T
  0.9147616538149489  0.1002157569080341  0.3441551939551662   T   T   T
  0.6666700090000006  0.2500000000000000  0.0000000000000000   F   F   F
  0.8333299909999994  0.2500000000000000  0.0941099940000001   F   F   F
  0.6674752336033022  0.2505487913685553  0.1866854181313647   T   T   T
  0.8478202041751638  0.2604459543170762  0.2782473201260781   T   T   T
  0.0000000000000000  0.4166699760000014  0.0627399999999980   F   F   F
  0.1666699929999993  0.4166699760000014  0.1568599980000016   F   F   F
  0.0114790191369371  0.4214205581781196  0.2486537733667103   T   T   T
  0.1693819392928612  0.4142168624404737  0.3468908424517037   T   T   T
  0.0000000000000000  0.5833299849999989  0.0000000000000000   F   F   F
  0.1666699929999993  0.5833299849999989  0.0941099940000001   F   F   F
  0.0005887107494595  0.5849638788879328  0.1875765737480549   T   T   T
  0.1690364057309295  0.5831477348812537  0.2818067834541904   T   T   T
  0.3333299909999994  0.4166699760000014  0.0627399999999980   F   F   F
  0.5000000000000000  0.4166699760000014  0.1568599980000016   F   F   F
  0.3426801453204537  0.4165841780898933  0.2507044422988786   T   T   T
  0.5378166574869588  0.4051645774833910  0.3450339825190541   T   T   T
  0.3333299909999994  0.5833299849999989  0.0000000000000000   F   F   F
  0.5000000000000000  0.5833299849999989  0.0941099940000001   F   F   F
  0.3343919405662230  0.5825377470135471  0.1887742073693419   T   T   T
  0.5029933798308042  0.5829802860568047  0.2865441067090168   T   T   T
  0.6666700090000006  0.4166699760000014  0.0627399999999980   F   F   F
  0.8333299909999994  0.4166699760000014  0.1568599980000016   F   F   F
  0.6733649974499059  0.4177935014573121  0.2478211609557570   T   T   T
  0.8620039737883763  0.4313534737296848  0.3396707461875744   T   T   T
  0.6666700090000006  0.5833299849999989  0.0000000000000000   F   F   F
  0.8333299909999994  0.5833299849999989  0.0941099940000001   F   F   F
  0.6665397468151424  0.5850545509003124  0.1879565378364791   T   T   T
  0.8357202851696701  0.5904750497702047  0.2800755084808050   T   T   T
  0.0000000000000000  0.7500000000000000  0.0627399999999980   F   F   F
  0.1666699929999993  0.7500000000000000  0.1568599980000016   F   F   F
  0.0034088497689241  0.7508185228872130  0.2506564263910461   T   T   T
  0.1724078100129646  0.7499924727536559  0.3469035550942092   T   T   T
  0.0000000000000000  0.9166700540000008  0.0000000000000000   F   F   F
  0.1666699929999993  0.9166700540000008  0.0941099940000001   F   F   F
  0.9992345440815731  0.9157378362973654  0.1868635203347599   T   T   T
  0.1633485816143356  0.9184520113469559  0.2814745013732279   T   T   T
  0.3333299909999994  0.7500000000000000  0.0627399999999980   F   F   F
  0.5000000000000000  0.7500000000000000  0.1568599980000016   F   F   F
  0.3344445215470569  0.7502958925480894  0.2485554920449736   T   T   T
  0.4864676989597013  0.7653608654153620  0.3665232398091685   T   T   T
  0.3333299909999994  0.9166700540000008  0.0000000000000000   F   F   F
  0.5000000000000000  0.9166700540000008  0.0941099940000001   F   F   F
  0.3338859175715145  0.9162272158056936  0.1883208472403093   T   T   T
  0.4981207760862981  0.9187063383976974  0.2887975879079262   T   T   T
  0.6666700090000006  0.7500000000000000  0.0627399999999980   F   F   F
  0.8333299909999994  0.7500000000000000  0.1568599980000016   F   F   F
  0.6674539308796756  0.7511842852819557  0.2493443733879044   T   T   T
  0.8423684686625491  0.7556768257717668  0.3448346118706170   T   T   T
  0.6666700090000006  0.9166700540000008  0.0000000000000000   F   F   F
  0.8333299909999994  0.9166700540000008  0.0941099940000001   F   F   F
  0.6656591537574351  0.9164285130528238  0.1882476690914759   T   T   T
  0.8370749691813359  0.9182359090360983  0.2820419874322545   T   T   T
  0.4236792183152993  0.2559762577981893  0.3984224577514559   T   T   T
  0.2796784522469494  0.1371981171635232  0.4285952761666550   T   T   T
  0.8098879602101472  0.0509767253458324  0.4196776387751788   T   T   T
  0.0181773994465681  0.4820664653308994  0.4029847233963114   T   T   T
  0.2843873945974682  0.7521469751912411  0.4263064982311615   T   T   T
  0.6234549123620234  0.3415214982116267  0.4195690995720253   T   T   T
  0.7042020402678026  0.7260522622569912  0.4180132957128984   T   T   T
  0.3396685843790368  0.3174829073889434  0.3304275330041402   T   T   T
  0.3310698363289041  0.6262845097767422  0.3430642882788391   T   T   T
  0.3128867240169164  0.8835647289665557  0.3446082760155378   T   T   T
  0.7028414797951041  0.1666330257329839  0.3151943571557458   T   T   T
  0.6738695482419393  0.5335704561322361  0.3439035207694066   T   T   T
  0.6774915449307803  0.8765457847856649  0.3434095418933040   T   T   T
  0.3424515352486823  0.0867804189979864  0.4579396699965641   T   T   T
  0.1568606171921331  0.1611944107238597  0.4446519130817068   T   T   T
  0.8549886588204563  0.9721040144019527  0.4272623939459784   T   T   T
  0.8293313739622247  0.0945088950494704  0.4573259471373258   T   T   T
  0.0082682313318598  0.4500164123798109  0.4444385854859506   T   T   T
  0.0234217221393454  0.5676009517681400  0.4058277904011251   T   T   T
  0.2896125518186651  0.6828291917988786  0.4516250294934546   T   T   T
  0.2654507546123335  0.8187072164582466  0.4531847859365219   T   T   T
  0.7487856545395352  0.3056741678776511  0.4155843279204657   T   T   T
  0.6287244809538288  0.4040426229024076  0.4495183830584986   T   T   T
  0.7127214270910555  0.6555079280993831  0.4429192838727118   T   T   T
  0.7046247690873203  0.7887239810917788  0.4482955479298035   T   T   T
  0.3306882457117140  0.5748027066304758  0.3795653511814481   T   T   T
  0.3070154071240018  0.9285829594093807  0.3830419065439173   T   T   T
  0.6711381250808568  0.5849030169242962  0.3791805917333071   T   T   T
  0.6767054288605556  0.9236733035018159  0.3816915278541450   T   T   T
 
  0.00000000E+00  0.00000000E+00  0.00000000E+00
  0.00000000E+00  0.00000000E+00  0.00000000E+00
  0.00000000E+00  0.00000000E+00  0.00000000E+00
  0.00000000E+00  0.00000000E+00  0.00000000E+00
  0.00000000E+00  0.00000000E+00  0.00000000E+00
  0.00000000E+00  0.00000000E+00  0.00000000E+00
  0.00000000E+00  0.00000000E+00  0.00000000E+00
  0.00000000E+00  0.00000000E+00  0.00000000E+00
  0.00000000E+00  0.00000000E+00  0.00000000E+00
  0.00000000E+00  0.00000000E+00  0.00000000E+00
  0.00000000E+00  0.00000000E+00  0.00000000E+00
  0.00000000E+00  0.00000000E+00  0.00000000E+00
  0.00000000E+00  0.00000000E+00  0.00000000E+00
  0.00000000E+00  0.00000000E+00  0.00000000E+00
  0.00000000E+00  0.00000000E+00  0.00000000E+00
  0.00000000E+00  0.00000000E+00  0.00000000E+00
  0.00000000E+00  0.00000000E+00  0.00000000E+00
  0.00000000E+00  0.00000000E+00  0.00000000E+00
  0.00000000E+00  0.00000000E+00  0.00000000E+00
  0.00000000E+00  0.00000000E+00  0.00000000E+00
  0.00000000E+00  0.00000000E+00  0.00000000E+00
  0.00000000E+00  0.00000000E+00  0.00000000E+00
  0.00000000E+00  0.00000000E+00  0.00000000E+00
  0.00000000E+00  0.00000000E+00  0.00000000E+00
  0.00000000E+00  0.00000000E+00  0.00000000E+00
  0.00000000E+00  0.00000000E+00  0.00000000E+00
  0.00000000E+00  0.00000000E+00  0.00000000E+00
  0.00000000E+00  0.00000000E+00  0.00000000E+00
  0.00000000E+00  0.00000000E+00  0.00000000E+00
  0.00000000E+00  0.00000000E+00  0.00000000E+00
  0.00000000E+00  0.00000000E+00  0.00000000E+00
  0.00000000E+00  0.00000000E+00  0.00000000E+00
  0.00000000E+00  0.00000000E+00  0.00000000E+00
  0.00000000E+00  0.00000000E+00  0.00000000E+00
  0.00000000E+00  0.00000000E+00  0.00000000E+00
  0.00000000E+00  0.00000000E+00  0.00000000E+00
  0.00000000E+00  0.00000000E+00  0.00000000E+00
  0.00000000E+00  0.00000000E+00  0.00000000E+00
  0.00000000E+00  0.00000000E+00  0.00000000E+00
  0.00000000E+00  0.00000000E+00  0.00000000E+00
  0.00000000E+00  0.00000000E+00  0.00000000E+00
  0.00000000E+00  0.00000000E+00  0.00000000E+00
  0.00000000E+00  0.00000000E+00  0.00000000E+00
  0.00000000E+00  0.00000000E+00  0.00000000E+00
  0.00000000E+00  0.00000000E+00  0.00000000E+00
  0.00000000E+00  0.00000000E+00  0.00000000E+00
  0.00000000E+00  0.00000000E+00  0.00000000E+00
  0.00000000E+00  0.00000000E+00  0.00000000E+00
  0.00000000E+00  0.00000000E+00  0.00000000E+00
  0.00000000E+00  0.00000000E+00  0.00000000E+00
  0.00000000E+00  0.00000000E+00  0.00000000E+00
  0.00000000E+00  0.00000000E+00  0.00000000E+00
  0.00000000E+00  0.00000000E+00  0.00000000E+00
  0.00000000E+00  0.00000000E+00  0.00000000E+00
  0.00000000E+00  0.00000000E+00  0.00000000E+00
  0.00000000E+00  0.00000000E+00  0.00000000E+00
  0.00000000E+00  0.00000000E+00  0.00000000E+00
  0.00000000E+00  0.00000000E+00  0.00000000E+00
  0.00000000E+00  0.00000000E+00  0.00000000E+00
  0.00000000E+00  0.00000000E+00  0.00000000E+00
  0.00000000E+00  0.00000000E+00  0.00000000E+00
  0.00000000E+00  0.00000000E+00  0.00000000E+00
  0.00000000E+00  0.00000000E+00  0.00000000E+00
  0.00000000E+00  0.00000000E+00  0.00000000E+00
  0.00000000E+00  0.00000000E+00  0.00000000E+00
  0.00000000E+00  0.00000000E+00  0.00000000E+00
  0.00000000E+00  0.00000000E+00  0.00000000E+00
  0.00000000E+00  0.00000000E+00  0.00000000E+00
  0.00000000E+00  0.00000000E+00  0.00000000E+00
  0.00000000E+00  0.00000000E+00  0.00000000E+00
  0.00000000E+00  0.00000000E+00  0.00000000E+00
  0.00000000E+00  0.00000000E+00  0.00000000E+00
  0.00000000E+00  0.00000000E+00  0.00000000E+00
  0.00000000E+00  0.00000000E+00  0.00000000E+00
  0.00000000E+00  0.00000000E+00  0.00000000E+00
  0.00000000E+00  0.00000000E+00  0.00000000E+00
  0.00000000E+00  0.00000000E+00  0.00000000E+00
  0.00000000E+00  0.00000000E+00  0.00000000E+00
  0.00000000E+00  0.00000000E+00  0.00000000E+00
  0.00000000E+00  0.00000000E+00  0.00000000E+00
  0.00000000E+00  0.00000000E+00  0.00000000E+00
  0.00000000E+00  0.00000000E+00  0.00000000E+00
  0.00000000E+00  0.00000000E+00  0.00000000E+00
  0.00000000E+00  0.00000000E+00  0.00000000E+00
  0.00000000E+00  0.00000000E+00  0.00000000E+00
  0.00000000E+00  0.00000000E+00  0.00000000E+00
  0.00000000E+00  0.00000000E+00  0.00000000E+00
  0.00000000E+00  0.00000000E+00  0.00000000E+00
  0.00000000E+00  0.00000000E+00  0.00000000E+00
  0.00000000E+00  0.00000000E+00  0.00000000E+00
  0.00000000E+00  0.00000000E+00  0.00000000E+00
  0.00000000E+00  0.00000000E+00  0.00000000E+00
  0.00000000E+00  0.00000000E+00  0.00000000E+00
  0.00000000E+00  0.00000000E+00  0.00000000E+00
  0.00000000E+00  0.00000000E+00  0.00000000E+00
  0.00000000E+00  0.00000000E+00  0.00000000E+00
  0.00000000E+00  0.00000000E+00  0.00000000E+00
  0.00000000E+00  0.00000000E+00  0.00000000E+00
  0.00000000E+00  0.00000000E+00  0.00000000E+00
  0.00000000E+00  0.00000000E+00  0.00000000E+00
  0.00000000E+00  0.00000000E+00  0.00000000E+00
