Co  N  H  C                             
   1.00000000000000     
     7.4670000076000003    0.0000000000000000    0.0000000000000000
     0.0000000000000000   12.1049995421999999    0.0000000000000000
     0.0000000000000000    0.0000000000000000   22.9036006926999995
   Co   N    H    C 
    73    12    28    10
Selective dynamics
Direct
  0.0000000000000000  0.0833299949999997  0.0627399999999980   F   F   F
  0.1666699929999993  0.0833299949999997  0.1568599980000016   F   F   F
  0.0005387333961399  0.0838107159614310  0.2479986537052182   T   T   T
  0.1685925040988895  0.0863685700790753  0.3406358268584310   T   T   T
  0.0000000000000000  0.2500000000000000  0.0000000000000000   F   F   F
  0.1666699929999993  0.2500000000000000  0.0941099940000001   F   F   F
 -0.0003143542725500  0.2504065643562685  0.1883045497093482   T   T   T
  0.1630510176574745  0.2510447076578472  0.2835510842046893   T   T   T
  0.3333299909999994  0.0833299949999997  0.0627399999999980   F   F   F
  0.5000000000000000  0.0833299949999997  0.1568599980000016   F   F   F
  0.3351208150914669  0.0832723506611867  0.2499613283905038   T   T   T
  0.4943442789181239  0.0869814271536428  0.3418492333195048   T   T   T
  0.3333299909999994  0.2500000000000000  0.0000000000000000   F   F   F
  0.5000000000000000  0.2500000000000000  0.0941099940000001   F   F   F
  0.3325181644641433  0.2498663291960994  0.1889122280415267   T   T   T
  0.5004758963495196  0.2494358270603139  0.2838202402349122   T   T   T
  0.6666700090000006  0.0833299949999997  0.0627399999999980   F   F   F
  0.8333299909999994  0.0833299949999997  0.1568599980000016   F   F   F
  0.6656187811405624  0.0803536659970234  0.2486041778211415   T   T   T
  0.8531151618045103  0.0838133246455183  0.3409619434918050   T   T   T
  0.6666700090000006  0.2500000000000000  0.0000000000000000   F   F   F
  0.8333299909999994  0.2500000000000000  0.0941099940000001   F   F   F
  0.6658167663338045  0.2498154151193767  0.1885591071976015   T   T   T
  0.8317610840919627  0.2486672705690863  0.2824096548030735   T   T   T
  0.0000000000000000  0.4166699760000014  0.0627399999999980   F   F   F
  0.1666699929999993  0.4166699760000014  0.1568599980000016   F   F   F
 -0.0009042851857676  0.4168019947278682  0.2485237933928086   T   T   T
  0.1512163063179049  0.4202589776624293  0.3423676572381079   T   T   T
  0.0000000000000000  0.5833299849999989  0.0000000000000000   F   F   F
  0.1666699929999993  0.5833299849999989  0.0941099940000001   F   F   F
 -0.0006650460632386  0.5833114222379470  0.1881043287060049   T   T   T
  0.1652557112027813  0.5837689477517266  0.2815554828764203   T   T   T
  0.3333299909999994  0.4166699760000014  0.0627399999999980   F   F   F
  0.5000000000000000  0.4166699760000014  0.1568599980000016   F   F   F
  0.3325503538966033  0.4194507733739811  0.2482665637063459   T   T   T
  0.4986870221719945  0.4178032305520664  0.3382828022395178   T   T   T
  0.3333299909999994  0.5833299849999989  0.0000000000000000   F   F   F
  0.5000000000000000  0.5833299849999989  0.0941099940000001   F   F   F
  0.3343667381551887  0.5835033113349228  0.1878133507808497   T   T   T
  0.5005297547476756  0.5884617022527393  0.2838005304861956   T   T   T
  0.6666700090000006  0.4166699760000014  0.0627399999999980   F   F   F
  0.8333299909999994  0.4166699760000014  0.1568599980000016   F   F   F
  0.6670008453512213  0.4160233425917939  0.2480877276302141   T   T   T
  0.8448607343695297  0.4143866770008166  0.3419047399058875   T   T   T
  0.6666700090000006  0.5833299849999989  0.0000000000000000   F   F   F
  0.8333299909999994  0.5833299849999989  0.0941099940000001   F   F   F
  0.6674326643805661  0.5838815346978392  0.1880660020027503   T   T   T
  0.8356498926433220  0.5837663660169011  0.2832502448158108   T   T   T
  0.0000000000000000  0.7500000000000000  0.0627399999999980   F   F   F
  0.1666699929999993  0.7500000000000000  0.1568599980000016   F   F   F
  0.0003343800027347  0.7489456904971648  0.2502634227639069   T   T   T
  0.1686135842539916  0.7513194271166995  0.3454107768094355   T   T   T
  0.0000000000000000  0.9166700540000008  0.0000000000000000   F   F   F
  0.1666699929999993  0.9166700540000008  0.0941099940000001   F   F   F
 -0.0009393921520478  0.9165771612930477  0.1865796043313937   T   T   T
  0.1600700861293376  0.9200952361125266  0.2799641929425471   T   T   T
  0.3333299909999994  0.7500000000000000  0.0627399999999980   F   F   F
  0.5000000000000000  0.7500000000000000  0.1568599980000016   F   F   F
  0.3311917183645154  0.7502370907363372  0.2476118834887998   T   T   T
  0.4862614833913398  0.7669596024374080  0.3663211326348182   T   T   T
  0.3333299909999994  0.9166700540000008  0.0000000000000000   F   F   F
  0.5000000000000000  0.9166700540000008  0.0941099940000001   F   F   F
  0.3336127977107566  0.9170318132752164  0.1880884968042624   T   T   T
  0.5001018837248415  0.9136008215079714  0.2867469731622784   T   T   T
  0.6666700090000006  0.7500000000000000  0.0627399999999980   F   F   F
  0.8333299909999994  0.7500000000000000  0.1568599980000016   F   F   F
  0.6699695953723303  0.7481271164373018  0.2489375527619711   T   T   T
  0.8386516585803048  0.7542763480116074  0.3433746115746557   T   T   T
  0.6666700090000006  0.9166700540000008  0.0000000000000000   F   F   F
  0.8333299909999994  0.9166700540000008  0.0941099940000001   F   F   F
  0.6648601941008155  0.9165201265911651  0.1878877975552816   T   T   T
  0.8340800834499034  0.9171461967740109  0.2805028086343532   T   T   T
  0.5229861059758028  0.4073245865237018  0.5771080042377489   T   T   T
  0.3303734867262754  0.0868197086388928  0.4105603708893688   T   T   T
  0.8435694044244181  0.0375289474823917  0.4196019483883248   T   T   T
  0.1959374655594192  0.4732599981296929  0.4196796365264929   T   T   T
  0.2797935773274698  0.7534733171458408  0.4244276072794059   T   T   T
  0.7975534677350055  0.3626630321343995  0.4187294066385098   T   T   T
  0.7031076682688902  0.7267501931814850  0.4159841878610072   T   T   T
  0.3239632414561923  0.3070516747461929  0.3447879734210398   T   T   T
  0.3339425271921561  0.6324980888331664  0.3408479879945558   T   T   T
  0.3116487036071616  0.8819272939970547  0.3418378167134863   T   T   T
  0.6754040599798036  0.1947159671582190  0.3449664342786508   T   T   T
  0.6728576159315490  0.5285169918983901  0.3429281518969283   T   T   T
  0.6795509719879353  0.8776976799683236  0.3441611570737357   T   T   T
  0.3469804524639036  0.0218434623448946  0.4389447786955155   T   T   T
  0.3166714059308472  0.1536705308781674  0.4377123492501067   T   T   T
  0.9553143355441592  0.0054916529505539  0.4391133543119060   T   T   T
  0.7823279498723613  0.0899870592261401  0.4485658969124289   T   T   T
  0.2361760975466453  0.4149193081400026  0.4495425347216380   T   T   T
  0.0835338233187449  0.5104718138467993  0.4364722290171157   T   T   T
  0.2790250910283271  0.6814826042012831  0.4480310599441025   T   T   T
  0.2579387200856906  0.8180189296041511  0.4524139824605362   T   T   T
  0.9042931132043053  0.3225719079972133  0.4373057875763743   T   T   T
  0.7503831088306736  0.4181966785672750  0.4488478293677512   T   T   T
  0.7089902536356589  0.6579981740470552  0.4421540522730554   T   T   T
  0.7130761431781013  0.7923037100864619  0.4442930376942800   T   T   T
  0.3294030909764132  0.2653481762285043  0.3837970263339767   T   T   T
  0.3196090001894722  0.5821809626557241  0.3779148105028811   T   T   T
  0.2999474703277299  0.9265353997782249  0.3797103635362207   T   T   T
  0.6860050744040714  0.2462213883524672  0.3818721913887317   T   T   T
  0.6669889095717737  0.5742230798221727  0.3806577823441504   T   T   T
  0.7072102696562879  0.9272967731589369  0.3810881936095246   T   T   T
  0.3451300793810983  0.2717780694600336  0.6600528995033704   T   T   T
  0.7072975764793276  0.2679020099207577  0.6568667634242878   T   T   T
  0.8101582843646241  0.2657319889135602  0.5430282984410327   T   T   T
  0.5162853156513718  0.2744316198650613  0.4766965561932229   T   T   T
  0.2226346136520585  0.2715186723899530  0.5486678882847777   T   T   T
  0.3692868934275682  0.5475322269470403  0.6630329855190533   T   T   T
  0.7299129725131176  0.5455024029478130  0.6514752506851449   T   T   T
  0.8085959615488530  0.5429757340968919  0.5359861342279003   T   T   T
  0.4901328341837711  0.5383333740066749  0.4764420964576140   T   T   T
  0.2232850111239169  0.5476444968569961  0.5543419116455618   T   T   T
  0.3623337751375981  0.2683932001417734  0.5620758813732811   T   T   T
  0.4267322106700209  0.2692381627358640  0.6207199253363136   T   T   T
  0.6194664536265293  0.2671768671127673  0.6190459677392733   T   T   T
  0.6738016460052697  0.2653500152684894  0.5594389974329356   T   T   T
  0.5153410297690826  0.2698571318628245  0.5241310298274595   T   T   T
  0.3652760598895047  0.5487562071084904  0.5649505190975789   T   T   T
  0.4421773401963444  0.5478882744536011  0.6218968162633152   T   T   T
  0.6341386380049046  0.5468236267520149  0.6157655716728677   T   T   T
  0.6753408385261301  0.5460697213682111  0.5550271906571397   T   T   T
  0.5089055924400251  0.5436532247335073  0.5235386381690146   T   T   T
 
  0.00000000E+00  0.00000000E+00  0.00000000E+00
  0.00000000E+00  0.00000000E+00  0.00000000E+00
  0.00000000E+00  0.00000000E+00  0.00000000E+00
  0.00000000E+00  0.00000000E+00  0.00000000E+00
  0.00000000E+00  0.00000000E+00  0.00000000E+00
  0.00000000E+00  0.00000000E+00  0.00000000E+00
  0.00000000E+00  0.00000000E+00  0.00000000E+00
  0.00000000E+00  0.00000000E+00  0.00000000E+00
  0.00000000E+00  0.00000000E+00  0.00000000E+00
  0.00000000E+00  0.00000000E+00  0.00000000E+00
  0.00000000E+00  0.00000000E+00  0.00000000E+00
  0.00000000E+00  0.00000000E+00  0.00000000E+00
  0.00000000E+00  0.00000000E+00  0.00000000E+00
  0.00000000E+00  0.00000000E+00  0.00000000E+00
  0.00000000E+00  0.00000000E+00  0.00000000E+00
  0.00000000E+00  0.00000000E+00  0.00000000E+00
  0.00000000E+00  0.00000000E+00  0.00000000E+00
  0.00000000E+00  0.00000000E+00  0.00000000E+00
  0.00000000E+00  0.00000000E+00  0.00000000E+00
  0.00000000E+00  0.00000000E+00  0.00000000E+00
  0.00000000E+00  0.00000000E+00  0.00000000E+00
  0.00000000E+00  0.00000000E+00  0.00000000E+00
  0.00000000E+00  0.00000000E+00  0.00000000E+00
  0.00000000E+00  0.00000000E+00  0.00000000E+00
  0.00000000E+00  0.00000000E+00  0.00000000E+00
  0.00000000E+00  0.00000000E+00  0.00000000E+00
  0.00000000E+00  0.00000000E+00  0.00000000E+00
  0.00000000E+00  0.00000000E+00  0.00000000E+00
  0.00000000E+00  0.00000000E+00  0.00000000E+00
  0.00000000E+00  0.00000000E+00  0.00000000E+00
  0.00000000E+00  0.00000000E+00  0.00000000E+00
  0.00000000E+00  0.00000000E+00  0.00000000E+00
  0.00000000E+00  0.00000000E+00  0.00000000E+00
  0.00000000E+00  0.00000000E+00  0.00000000E+00
  0.00000000E+00  0.00000000E+00  0.00000000E+00
  0.00000000E+00  0.00000000E+00  0.00000000E+00
  0.00000000E+00  0.00000000E+00  0.00000000E+00
  0.00000000E+00  0.00000000E+00  0.00000000E+00
  0.00000000E+00  0.00000000E+00  0.00000000E+00
  0.00000000E+00  0.00000000E+00  0.00000000E+00
  0.00000000E+00  0.00000000E+00  0.00000000E+00
  0.00000000E+00  0.00000000E+00  0.00000000E+00
  0.00000000E+00  0.00000000E+00  0.00000000E+00
  0.00000000E+00  0.00000000E+00  0.00000000E+00
  0.00000000E+00  0.00000000E+00  0.00000000E+00
  0.00000000E+00  0.00000000E+00  0.00000000E+00
  0.00000000E+00  0.00000000E+00  0.00000000E+00
  0.00000000E+00  0.00000000E+00  0.00000000E+00
  0.00000000E+00  0.00000000E+00  0.00000000E+00
  0.00000000E+00  0.00000000E+00  0.00000000E+00
  0.00000000E+00  0.00000000E+00  0.00000000E+00
  0.00000000E+00  0.00000000E+00  0.00000000E+00
  0.00000000E+00  0.00000000E+00  0.00000000E+00
  0.00000000E+00  0.00000000E+00  0.00000000E+00
  0.00000000E+00  0.00000000E+00  0.00000000E+00
  0.00000000E+00  0.00000000E+00  0.00000000E+00
  0.00000000E+00  0.00000000E+00  0.00000000E+00
  0.00000000E+00  0.00000000E+00  0.00000000E+00
  0.00000000E+00  0.00000000E+00  0.00000000E+00
  0.00000000E+00  0.00000000E+00  0.00000000E+00
  0.00000000E+00  0.00000000E+00  0.00000000E+00
  0.00000000E+00  0.00000000E+00  0.00000000E+00
  0.00000000E+00  0.00000000E+00  0.00000000E+00
  0.00000000E+00  0.00000000E+00  0.00000000E+00
  0.00000000E+00  0.00000000E+00  0.00000000E+00
  0.00000000E+00  0.00000000E+00  0.00000000E+00
  0.00000000E+00  0.00000000E+00  0.00000000E+00
  0.00000000E+00  0.00000000E+00  0.00000000E+00
  0.00000000E+00  0.00000000E+00  0.00000000E+00
  0.00000000E+00  0.00000000E+00  0.00000000E+00
  0.00000000E+00  0.00000000E+00  0.00000000E+00
  0.00000000E+00  0.00000000E+00  0.00000000E+00
  0.00000000E+00  0.00000000E+00  0.00000000E+00
  0.00000000E+00  0.00000000E+00  0.00000000E+00
  0.00000000E+00  0.00000000E+00  0.00000000E+00
  0.00000000E+00  0.00000000E+00  0.00000000E+00
  0.00000000E+00  0.00000000E+00  0.00000000E+00
  0.00000000E+00  0.00000000E+00  0.00000000E+00
  0.00000000E+00  0.00000000E+00  0.00000000E+00
  0.00000000E+00  0.00000000E+00  0.00000000E+00
  0.00000000E+00  0.00000000E+00  0.00000000E+00
  0.00000000E+00  0.00000000E+00  0.00000000E+00
  0.00000000E+00  0.00000000E+00  0.00000000E+00
  0.00000000E+00  0.00000000E+00  0.00000000E+00
  0.00000000E+00  0.00000000E+00  0.00000000E+00
  0.00000000E+00  0.00000000E+00  0.00000000E+00
  0.00000000E+00  0.00000000E+00  0.00000000E+00
  0.00000000E+00  0.00000000E+00  0.00000000E+00
  0.00000000E+00  0.00000000E+00  0.00000000E+00
  0.00000000E+00  0.00000000E+00  0.00000000E+00
  0.00000000E+00  0.00000000E+00  0.00000000E+00
  0.00000000E+00  0.00000000E+00  0.00000000E+00
  0.00000000E+00  0.00000000E+00  0.00000000E+00
  0.00000000E+00  0.00000000E+00  0.00000000E+00
  0.00000000E+00  0.00000000E+00  0.00000000E+00
  0.00000000E+00  0.00000000E+00  0.00000000E+00
  0.00000000E+00  0.00000000E+00  0.00000000E+00
  0.00000000E+00  0.00000000E+00  0.00000000E+00
  0.00000000E+00  0.00000000E+00  0.00000000E+00
  0.00000000E+00  0.00000000E+00  0.00000000E+00
  0.00000000E+00  0.00000000E+00  0.00000000E+00
  0.00000000E+00  0.00000000E+00  0.00000000E+00
  0.00000000E+00  0.00000000E+00  0.00000000E+00
  0.00000000E+00  0.00000000E+00  0.00000000E+00
  0.00000000E+00  0.00000000E+00  0.00000000E+00
  0.00000000E+00  0.00000000E+00  0.00000000E+00
  0.00000000E+00  0.00000000E+00  0.00000000E+00
  0.00000000E+00  0.00000000E+00  0.00000000E+00
  0.00000000E+00  0.00000000E+00  0.00000000E+00
  0.00000000E+00  0.00000000E+00  0.00000000E+00
  0.00000000E+00  0.00000000E+00  0.00000000E+00
  0.00000000E+00  0.00000000E+00  0.00000000E+00
  0.00000000E+00  0.00000000E+00  0.00000000E+00
  0.00000000E+00  0.00000000E+00  0.00000000E+00
  0.00000000E+00  0.00000000E+00  0.00000000E+00
  0.00000000E+00  0.00000000E+00  0.00000000E+00
  0.00000000E+00  0.00000000E+00  0.00000000E+00
  0.00000000E+00  0.00000000E+00  0.00000000E+00
  0.00000000E+00  0.00000000E+00  0.00000000E+00
  0.00000000E+00  0.00000000E+00  0.00000000E+00
  0.00000000E+00  0.00000000E+00  0.00000000E+00
  0.00000000E+00  0.00000000E+00  0.00000000E+00
  0.00000000E+00  0.00000000E+00  0.00000000E+00
