Co  N  H                                
   1.00000000000000     
     7.4670000076000003    0.0000000000000000    0.0000000000000000
     0.0000000000000000   12.1049995421999999    0.0000000000000000
     0.0000000000000000    0.0000000000000000   22.9036006926999995
   Co   N    H 
    75    12    12
Selective dynamics
Direct
  0.0000000000000000  0.0833299949999997  0.0627399999999980   F   F   F
  0.1666699929999993  0.0833299949999997  0.1568599980000016   F   F   F
  0.0070804660592883  0.0774048082746788  0.2499468897245560   T   T   T
  0.1703189002950654  0.0927762640620590  0.3447759406054966   T   T   T
  0.0000000000000000  0.2500000000000000  0.0000000000000000   F   F   F
  0.1666699929999993  0.2500000000000000  0.0941099940000001   F   F   F
 -0.0004865508700116  0.2492624753263649  0.1875115788492557   T   T   T
  0.1610889995009921  0.2449478131443007  0.2784831816238317   T   T   T
  0.3333299909999994  0.0833299949999997  0.0627399999999980   F   F   F
  0.5000000000000000  0.0833299949999997  0.1568599980000016   F   F   F
  0.3308991083801552  0.0824699306271569  0.2486968908563988   T   T   T
  0.5023483028412540  0.0789942171921221  0.3520705651929812   T   T   T
  0.3333299909999994  0.2500000000000000  0.0000000000000000   F   F   F
  0.5000000000000000  0.2500000000000000  0.0941099940000001   F   F   F
  0.3338627172052610  0.2496275957437152  0.1866213257998861   T   T   T
  0.5050635318495499  0.2497260253684924  0.2803209626653984   T   T   T
  0.6666700090000006  0.0833299949999997  0.0627399999999980   F   F   F
  0.8333299909999994  0.0833299949999997  0.1568599980000016   F   F   F
  0.6763881453974337  0.0836508002366029  0.2482299280367266   T   T   T
  0.8477187152163023  0.0727513609391432  0.3452143324820868   T   T   T
  0.6666700090000006  0.2500000000000000  0.0000000000000000   F   F   F
  0.8333299909999994  0.2500000000000000  0.0941099940000001   F   F   F
  0.6683320174881918  0.2517026914128564  0.1868385543220907   T   T   T
  0.8433479972931217  0.2495578873575437  0.2815925464905599   T   T   T
  0.0000000000000000  0.4166699760000014  0.0627399999999980   F   F   F
  0.1666699929999993  0.4166699760000014  0.1568599980000016   F   F   F
 -0.0039866514131757  0.4171189561871307  0.2487202462539349   T   T   T
  0.1383822382574024  0.4091702072175098  0.3438497911834947   T   T   T
  0.0000000000000000  0.5833299849999989  0.0000000000000000   F   F   F
  0.1666699929999993  0.5833299849999989  0.0941099940000001   F   F   F
  0.0003875092172078  0.5835068219363040  0.1882340194169764   T   T   T
  0.1630947248937984  0.5851753933714796  0.2825629259808975   T   T   T
  0.3333299909999994  0.4166699760000014  0.0627399999999980   F   F   F
  0.5000000000000000  0.4166699760000014  0.1568599980000016   F   F   F
  0.3278719795119354  0.4191821339718875  0.2487927829844618   T   T   T
  0.4914312584871331  0.4174143248532675  0.3574038967996027   T   T   T
  0.3333299909999994  0.5833299849999989  0.0000000000000000   F   F   F
  0.5000000000000000  0.5833299849999989  0.0941099940000001   F   F   F
  0.3337294787063016  0.5830928471456892  0.1886024472382937   T   T   T
  0.4939338801777262  0.5908551475216631  0.2880238973740056   T   T   T
  0.6666700090000006  0.4166699760000014  0.0627399999999980   F   F   F
  0.8333299909999994  0.4166699760000014  0.1568599980000016   F   F   F
  0.6653053446038963  0.4194243420627848  0.2498198348091074   T   T   T
  0.8364141268973370  0.4086732886670628  0.3433854621409614   T   T   T
  0.6666700090000006  0.5833299849999989  0.0000000000000000   F   F   F
  0.8333299909999994  0.5833299849999989  0.0941099940000001   F   F   F
  0.6658082250532102  0.5846685845712343  0.1878249545692910   T   T   T
  0.8352302377572449  0.5841437204918181  0.2814349561916606   T   T   T
  0.0000000000000000  0.7500000000000000  0.0627399999999980   F   F   F
  0.1666699929999993  0.7500000000000000  0.1568599980000016   F   F   F
 -0.0021656097130848  0.7483421695089690  0.2504019204057603   T   T   T
  0.1183938699408490  0.7433944751383330  0.3519850326715234   T   T   T
  0.0000000000000000  0.9166700540000008  0.0000000000000000   F   F   F
  0.1666699929999993  0.9166700540000008  0.0941099940000001   F   F   F
  0.0013809752206582  0.9152126187635318  0.1885477932406385   T   T   T
  0.1748277637429749  0.9153117043661768  0.2875369607365723   T   T   T
  0.3333299909999994  0.7500000000000000  0.0627399999999980   F   F   F
  0.5000000000000000  0.7500000000000000  0.1568599980000016   F   F   F
  0.3256079855119581  0.7511494291445847  0.2461974760640959   T   T   T
  0.4317727609949373  0.7903445905410078  0.3459177226402283   T   T   T
  0.3333299909999994  0.9166700540000008  0.0000000000000000   F   F   F
  0.5000000000000000  0.9166700540000008  0.0941099940000001   F   F   F
  0.3302916556815957  0.9172973791865231  0.1866971839814939   T   T   T
  0.5028073767741709  0.9249975676465904  0.2735598381179160   T   T   T
  0.6666700090000006  0.7500000000000000  0.0627399999999980   F   F   F
  0.8333299909999994  0.7500000000000000  0.1568599980000016   F   F   F
  0.6643676572510703  0.7506971404664120  0.2494000927677972   T   T   T
  0.7979882716343053  0.7347373680682706  0.3496167880141900   T   T   T
  0.6666700090000006  0.9166700540000008  0.0000000000000000   F   F   F
  0.8333299909999994  0.9166700540000008  0.0941099940000001   F   F   F
  0.6699281440887658  0.9173259905365420  0.1856833792889917   T   T   T
  0.8406639849273545  0.9119761899802162  0.2829822272903780   T   T   T
  0.3344845399906038  0.2519780521855658  0.3850310688753532   T   T   T
  0.2189156670938850  0.5646196802659932  0.3900526838052909   T   T   T
  0.0264340763986615  0.9302717365814771  0.3907780980804784   T   T   T
  0.1837424597690423  0.1515417550235747  0.4244037230333492   T   T   T
  0.7936580375336518 -0.0130940470468075  0.4154071494187865   T   T   T
 -0.0004049521063520  0.4664732272873264  0.4096789638700569   T   T   T
  0.1452027789864763  0.6887254926281311  0.4347350870896319   T   T   T
  0.5113296878706026  0.3331572970910439  0.4283956008760065   T   T   T
  0.7563216810595738  0.6588643668806127  0.4200139530189734   T   T   T
  0.3287371874277070  0.3318769733023799  0.3177192793752475   T   T   T
  0.3336106743922339  0.6508403738354327  0.3401595540704343   T   T   T
  0.2362434197493720  0.8756323381322422  0.3651997455279980   T   T   T
  0.6755490893782029  0.1662024497879407  0.3215573852703608   T   T   T
  0.6606056414735384  0.5006948203069992  0.3224831705967088   T   T   T
  0.6502613389988844  0.8354544011616942  0.3192901161464920   T   T   T
  0.2322632630036027  0.0998806749776128  0.4560203973640992   T   T   T
  0.0644493117363025  0.1842711810811334  0.4384545569354663   T   T   T
  0.6905725882213761  0.9312328221751338  0.4102127326217936   T   T   T
  0.7729066254363500  0.0300186872611791  0.4531438145828223   T   T   T
  0.0040825651448773  0.4211698144469564  0.4474546256430286   T   T   T
  0.9130031030585292  0.5349315532296235  0.4161785682167434   T   T   T
  0.2387508727770176  0.7366822239021344  0.4553473173495133   T   T   T
  0.0314406421409805  0.6815107274909855  0.4593164323699895   T   T   T
  0.6322869229482860  0.2944345392950303  0.4340979392403088   T   T   T
  0.4752058774778235  0.3714023390808275  0.4664489630233801   T   T   T
  0.7494538840464277  0.7087707209386328  0.4562156855559373   T   T   T
  0.6374399474968880  0.6157825718552096  0.4181687625920648   T   T   T
 
  0.00000000E+00  0.00000000E+00  0.00000000E+00
  0.00000000E+00  0.00000000E+00  0.00000000E+00
  0.00000000E+00  0.00000000E+00  0.00000000E+00
  0.00000000E+00  0.00000000E+00  0.00000000E+00
  0.00000000E+00  0.00000000E+00  0.00000000E+00
  0.00000000E+00  0.00000000E+00  0.00000000E+00
  0.00000000E+00  0.00000000E+00  0.00000000E+00
  0.00000000E+00  0.00000000E+00  0.00000000E+00
  0.00000000E+00  0.00000000E+00  0.00000000E+00
  0.00000000E+00  0.00000000E+00  0.00000000E+00
  0.00000000E+00  0.00000000E+00  0.00000000E+00
  0.00000000E+00  0.00000000E+00  0.00000000E+00
  0.00000000E+00  0.00000000E+00  0.00000000E+00
  0.00000000E+00  0.00000000E+00  0.00000000E+00
  0.00000000E+00  0.00000000E+00  0.00000000E+00
  0.00000000E+00  0.00000000E+00  0.00000000E+00
  0.00000000E+00  0.00000000E+00  0.00000000E+00
  0.00000000E+00  0.00000000E+00  0.00000000E+00
  0.00000000E+00  0.00000000E+00  0.00000000E+00
  0.00000000E+00  0.00000000E+00  0.00000000E+00
  0.00000000E+00  0.00000000E+00  0.00000000E+00
  0.00000000E+00  0.00000000E+00  0.00000000E+00
  0.00000000E+00  0.00000000E+00  0.00000000E+00
  0.00000000E+00  0.00000000E+00  0.00000000E+00
  0.00000000E+00  0.00000000E+00  0.00000000E+00
  0.00000000E+00  0.00000000E+00  0.00000000E+00
  0.00000000E+00  0.00000000E+00  0.00000000E+00
  0.00000000E+00  0.00000000E+00  0.00000000E+00
  0.00000000E+00  0.00000000E+00  0.00000000E+00
  0.00000000E+00  0.00000000E+00  0.00000000E+00
  0.00000000E+00  0.00000000E+00  0.00000000E+00
  0.00000000E+00  0.00000000E+00  0.00000000E+00
  0.00000000E+00  0.00000000E+00  0.00000000E+00
  0.00000000E+00  0.00000000E+00  0.00000000E+00
  0.00000000E+00  0.00000000E+00  0.00000000E+00
  0.00000000E+00  0.00000000E+00  0.00000000E+00
  0.00000000E+00  0.00000000E+00  0.00000000E+00
  0.00000000E+00  0.00000000E+00  0.00000000E+00
  0.00000000E+00  0.00000000E+00  0.00000000E+00
  0.00000000E+00  0.00000000E+00  0.00000000E+00
  0.00000000E+00  0.00000000E+00  0.00000000E+00
  0.00000000E+00  0.00000000E+00  0.00000000E+00
  0.00000000E+00  0.00000000E+00  0.00000000E+00
  0.00000000E+00  0.00000000E+00  0.00000000E+00
  0.00000000E+00  0.00000000E+00  0.00000000E+00
  0.00000000E+00  0.00000000E+00  0.00000000E+00
  0.00000000E+00  0.00000000E+00  0.00000000E+00
  0.00000000E+00  0.00000000E+00  0.00000000E+00
  0.00000000E+00  0.00000000E+00  0.00000000E+00
  0.00000000E+00  0.00000000E+00  0.00000000E+00
  0.00000000E+00  0.00000000E+00  0.00000000E+00
  0.00000000E+00  0.00000000E+00  0.00000000E+00
  0.00000000E+00  0.00000000E+00  0.00000000E+00
  0.00000000E+00  0.00000000E+00  0.00000000E+00
  0.00000000E+00  0.00000000E+00  0.00000000E+00
  0.00000000E+00  0.00000000E+00  0.00000000E+00
  0.00000000E+00  0.00000000E+00  0.00000000E+00
  0.00000000E+00  0.00000000E+00  0.00000000E+00
  0.00000000E+00  0.00000000E+00  0.00000000E+00
  0.00000000E+00  0.00000000E+00  0.00000000E+00
  0.00000000E+00  0.00000000E+00  0.00000000E+00
  0.00000000E+00  0.00000000E+00  0.00000000E+00
  0.00000000E+00  0.00000000E+00  0.00000000E+00
  0.00000000E+00  0.00000000E+00  0.00000000E+00
  0.00000000E+00  0.00000000E+00  0.00000000E+00
  0.00000000E+00  0.00000000E+00  0.00000000E+00
  0.00000000E+00  0.00000000E+00  0.00000000E+00
  0.00000000E+00  0.00000000E+00  0.00000000E+00
  0.00000000E+00  0.00000000E+00  0.00000000E+00
  0.00000000E+00  0.00000000E+00  0.00000000E+00
  0.00000000E+00  0.00000000E+00  0.00000000E+00
  0.00000000E+00  0.00000000E+00  0.00000000E+00
  0.00000000E+00  0.00000000E+00  0.00000000E+00
  0.00000000E+00  0.00000000E+00  0.00000000E+00
  0.00000000E+00  0.00000000E+00  0.00000000E+00
  0.00000000E+00  0.00000000E+00  0.00000000E+00
  0.00000000E+00  0.00000000E+00  0.00000000E+00
  0.00000000E+00  0.00000000E+00  0.00000000E+00
  0.00000000E+00  0.00000000E+00  0.00000000E+00
  0.00000000E+00  0.00000000E+00  0.00000000E+00
  0.00000000E+00  0.00000000E+00  0.00000000E+00
  0.00000000E+00  0.00000000E+00  0.00000000E+00
  0.00000000E+00  0.00000000E+00  0.00000000E+00
  0.00000000E+00  0.00000000E+00  0.00000000E+00
  0.00000000E+00  0.00000000E+00  0.00000000E+00
  0.00000000E+00  0.00000000E+00  0.00000000E+00
  0.00000000E+00  0.00000000E+00  0.00000000E+00
  0.00000000E+00  0.00000000E+00  0.00000000E+00
  0.00000000E+00  0.00000000E+00  0.00000000E+00
  0.00000000E+00  0.00000000E+00  0.00000000E+00
  0.00000000E+00  0.00000000E+00  0.00000000E+00
  0.00000000E+00  0.00000000E+00  0.00000000E+00
  0.00000000E+00  0.00000000E+00  0.00000000E+00
  0.00000000E+00  0.00000000E+00  0.00000000E+00
  0.00000000E+00  0.00000000E+00  0.00000000E+00
  0.00000000E+00  0.00000000E+00  0.00000000E+00
  0.00000000E+00  0.00000000E+00  0.00000000E+00
  0.00000000E+00  0.00000000E+00  0.00000000E+00
  0.00000000E+00  0.00000000E+00  0.00000000E+00
