System=Co NHx
ISTART =0
ISPIN=2
ICHARG=2
ENCUT=400
ISMEAR=0
#SIGMA=0.05
ISIF=2
NSW=1000
IBRION=2
PREC=Normal
LREAL=Auto
SYMPREC = 0.001
NPAR=8
MAGMOM=73*1.9   12*0  28*0  10*0  
IVDW=11
