Mo  S Ru                                
   1.00000000000000     
    15.9215000000000000    0.0000000000000000    0.0000000000000000
    -7.9622500000000000   13.7910219999999999    0.0000000000000000
     0.0000000000000000    0.0000000000000000   13.5822000000000003
   Mo   S    Ru
    25    50     1
Direct
  0.1323739343347654  0.0655493298482028  0.6779946656881677
  0.1323052656954999  0.2655963600782485  0.6786533243010098
  0.1323922734531422  0.4657390992892232  0.6781433443462674
  0.1326712812710156  0.6657531210245082  0.6783572445344817
  0.1326467554425008  0.8657926979390993  0.6782648314443307
  0.3327000809656937  0.0658876192561380  0.6785587911780695
  0.3314094827815381  0.2660512005133597  0.6791033514231017
  0.3313764188049220  0.4642053266263488  0.6791657602511449
  0.3327237025465166  0.6656827546169595  0.6787017415292311
  0.3326658155836029  0.8657599584811635  0.6783675627107613
  0.5326495402181450  0.0654916219962161  0.6781050601630199
  0.5342615866622111  0.2660193667917454  0.6791049384239827
  0.5327897605191794  0.4658582966309055  0.6825986873451626
  0.5342636631775477  0.6671268473503815  0.6791997727050116
  0.5326633620539027  0.8660445931837017  0.6781694963102964
  0.7327279885652800  0.0658112436462090  0.6783282493022895
  0.7328214316393939  0.2655749800154723  0.6786833990892376
  0.7325353130311569  0.4642356280005941  0.6791982992732173
  0.7325436240535197  0.6671584915352753  0.6792437159246987
  0.7328076356989186  0.8661121718308209  0.6787110538770804
  0.9325571423100101  0.0658337509106914  0.6782693316575532
  0.9325867122505684  0.2656718756647791  0.6783351952758281
  0.9329707596720809  0.4657600904697503  0.6781289515296507
  0.9325781075938195  0.6657342974114400  0.6786642810069949
  0.9329487399003042  0.8661170785095180  0.6780480257202655
  0.0658555554542843  0.1325138394035221  0.5631492360532988
  0.0656892223151857  0.1321157056277897  0.7933635466728148
  0.0658954377315339  0.3323275476363250  0.5632336873352060
  0.0657176371814501  0.3324481686560219  0.7934517080978196
  0.0661367967070632  0.5326299818825078  0.5629689431399569
  0.0660343755546293  0.5324484172107518  0.7933952630781960
  0.0658255775823733  0.7323229269366607  0.5634103551619134
  0.0660809788975101  0.7325153991231019  0.7934994233549801
  0.0660904284566968  0.9323770840216241  0.5628489057566028
  0.0660305091958833  0.9325184419160877  0.7932623913388142
  0.2663354055402465  0.1328798973034324  0.5633884159741314
  0.2649735911220858  0.1316899792323198  0.7933667293670084
  0.2656893957022177  0.3322943681352584  0.5632938014939626
  0.2649910241297135  0.3318919650659140  0.7946073634445412
  0.2663194748913043  0.5323486214229831  0.5635198677302498
  0.2649982819292731  0.5321436243007511  0.7935097790995869
  0.2661031608419435  0.7323336532111711  0.5634651760106024
  0.2659721800108272  0.7324444734275559  0.7935556714763621
  0.2660852786941064  0.9325594589898429  0.5633784263230055
  0.2659376569408494  0.9324158358092731  0.7934604061207153
  0.4660751214993866  0.1328103878073250  0.5634296798725771
  0.4661859120852156  0.1316728517598946  0.7934154671104707
  0.4673578079842997  0.3350108084369907  0.5668453774152482
  0.4619565095638691  0.3242621323428807  0.8015770811189000
  0.4673077186796348  0.5312745118596567  0.5668885261203229
  0.4619705157399920  0.5365192275888617  0.8015431919641784
  0.4660712673723140  0.7321358484286620  0.5635425449539682
  0.4662385459155018  0.7334379472234431  0.7935343868294069
  0.4657905803092035  0.9323073338475467  0.5629887917366148
  0.4659836199062610  0.9324542645281326  0.7934006653477823
  0.6660897092282099  0.1324548206946403  0.5632135393192357
  0.6659257820246509  0.1321191755961308  0.7934459223078321
  0.6662202519819616  0.3322924496204038  0.5633137093758265
  0.6665052012747239  0.3319020176313074  0.7946390025038852
  0.6637100321916165  0.5313035753610507  0.5669826224926382
  0.6747336856649824  0.5367841657986929  0.8019541325533339
  0.6661954587096872  0.7327679214697866  0.5633780478372969
  0.6665423549597591  0.7334818736848163  0.7947055238829819
  0.6660799637398540  0.9324976292778757  0.5632494227900651
  0.6659641575393920  0.9327227080876668  0.7934833236991068
  0.8659385544291567  0.1324730358118984  0.5631733632409492
  0.8659643570427136  0.1324398627210215  0.7934903562197491
  0.8659467978629891  0.3323276419362244  0.5632354329863318
  0.8662739008073643  0.3324713711801692  0.7934562361307229
  0.8656911193080035  0.5323852751859235  0.5634940183563089
  0.8668662289571358  0.5322133865684791  0.7935093389880308
  0.8656577185693877  0.7321610759127068  0.5634842547118879
  0.8669169719367034  0.7336081012530684  0.7934942646045045
  0.8658667119202121  0.9325163234704235  0.5631877533056127
  0.8662973112729873  0.9327419115570024  0.7934056368393243
  0.5330015786140478  0.4659014567275861  0.8826750251589104
 
  0.00000000E+00  0.00000000E+00  0.00000000E+00
  0.00000000E+00  0.00000000E+00  0.00000000E+00
  0.00000000E+00  0.00000000E+00  0.00000000E+00
  0.00000000E+00  0.00000000E+00  0.00000000E+00
  0.00000000E+00  0.00000000E+00  0.00000000E+00
  0.00000000E+00  0.00000000E+00  0.00000000E+00
  0.00000000E+00  0.00000000E+00  0.00000000E+00
  0.00000000E+00  0.00000000E+00  0.00000000E+00
  0.00000000E+00  0.00000000E+00  0.00000000E+00
  0.00000000E+00  0.00000000E+00  0.00000000E+00
  0.00000000E+00  0.00000000E+00  0.00000000E+00
  0.00000000E+00  0.00000000E+00  0.00000000E+00
  0.00000000E+00  0.00000000E+00  0.00000000E+00
  0.00000000E+00  0.00000000E+00  0.00000000E+00
  0.00000000E+00  0.00000000E+00  0.00000000E+00
  0.00000000E+00  0.00000000E+00  0.00000000E+00
  0.00000000E+00  0.00000000E+00  0.00000000E+00
  0.00000000E+00  0.00000000E+00  0.00000000E+00
  0.00000000E+00  0.00000000E+00  0.00000000E+00
  0.00000000E+00  0.00000000E+00  0.00000000E+00
  0.00000000E+00  0.00000000E+00  0.00000000E+00
  0.00000000E+00  0.00000000E+00  0.00000000E+00
  0.00000000E+00  0.00000000E+00  0.00000000E+00
  0.00000000E+00  0.00000000E+00  0.00000000E+00
  0.00000000E+00  0.00000000E+00  0.00000000E+00
  0.00000000E+00  0.00000000E+00  0.00000000E+00
  0.00000000E+00  0.00000000E+00  0.00000000E+00
  0.00000000E+00  0.00000000E+00  0.00000000E+00
  0.00000000E+00  0.00000000E+00  0.00000000E+00
  0.00000000E+00  0.00000000E+00  0.00000000E+00
  0.00000000E+00  0.00000000E+00  0.00000000E+00
  0.00000000E+00  0.00000000E+00  0.00000000E+00
  0.00000000E+00  0.00000000E+00  0.00000000E+00
  0.00000000E+00  0.00000000E+00  0.00000000E+00
  0.00000000E+00  0.00000000E+00  0.00000000E+00
  0.00000000E+00  0.00000000E+00  0.00000000E+00
  0.00000000E+00  0.00000000E+00  0.00000000E+00
  0.00000000E+00  0.00000000E+00  0.00000000E+00
  0.00000000E+00  0.00000000E+00  0.00000000E+00
  0.00000000E+00  0.00000000E+00  0.00000000E+00
  0.00000000E+00  0.00000000E+00  0.00000000E+00
  0.00000000E+00  0.00000000E+00  0.00000000E+00
  0.00000000E+00  0.00000000E+00  0.00000000E+00
  0.00000000E+00  0.00000000E+00  0.00000000E+00
  0.00000000E+00  0.00000000E+00  0.00000000E+00
  0.00000000E+00  0.00000000E+00  0.00000000E+00
  0.00000000E+00  0.00000000E+00  0.00000000E+00
  0.00000000E+00  0.00000000E+00  0.00000000E+00
  0.00000000E+00  0.00000000E+00  0.00000000E+00
  0.00000000E+00  0.00000000E+00  0.00000000E+00
  0.00000000E+00  0.00000000E+00  0.00000000E+00
  0.00000000E+00  0.00000000E+00  0.00000000E+00
  0.00000000E+00  0.00000000E+00  0.00000000E+00
  0.00000000E+00  0.00000000E+00  0.00000000E+00
  0.00000000E+00  0.00000000E+00  0.00000000E+00
  0.00000000E+00  0.00000000E+00  0.00000000E+00
  0.00000000E+00  0.00000000E+00  0.00000000E+00
  0.00000000E+00  0.00000000E+00  0.00000000E+00
  0.00000000E+00  0.00000000E+00  0.00000000E+00
  0.00000000E+00  0.00000000E+00  0.00000000E+00
  0.00000000E+00  0.00000000E+00  0.00000000E+00
  0.00000000E+00  0.00000000E+00  0.00000000E+00
  0.00000000E+00  0.00000000E+00  0.00000000E+00
  0.00000000E+00  0.00000000E+00  0.00000000E+00
  0.00000000E+00  0.00000000E+00  0.00000000E+00
  0.00000000E+00  0.00000000E+00  0.00000000E+00
  0.00000000E+00  0.00000000E+00  0.00000000E+00
  0.00000000E+00  0.00000000E+00  0.00000000E+00
  0.00000000E+00  0.00000000E+00  0.00000000E+00
  0.00000000E+00  0.00000000E+00  0.00000000E+00
  0.00000000E+00  0.00000000E+00  0.00000000E+00
  0.00000000E+00  0.00000000E+00  0.00000000E+00
  0.00000000E+00  0.00000000E+00  0.00000000E+00
  0.00000000E+00  0.00000000E+00  0.00000000E+00
  0.00000000E+00  0.00000000E+00  0.00000000E+00
  0.00000000E+00  0.00000000E+00  0.00000000E+00
