Ta  N Ru Cu                             
   1.00000000000000     
    18.1096308199999996    0.0000000000000000    0.0000000000000000
     0.0000000000000000   23.3551997799999995    0.0000000000000000
     0.0000000000000000    0.0000000000000000   30.4818171199999988
   Ta   N    Ru   Cu
   228   240    12    29
Selective dynamics
Direct
  0.0000000000000000  0.0000718856546769  0.1971343718284118   F   F   F
  0.3342926847814240  0.0624132518977021  0.2026937805440667   F   F   F
  0.1663206548061567  0.0625684459108768  0.2026879703893130   F   F   F
  0.2502067873593177  0.1250918040142253  0.2779408447657588   F   F   F
  0.0826029581595549  0.0626929404336494  0.2836274496812337   F   F   F
  0.4173382514782702  0.0622475047871944  0.2840383744896471   F   F   F
  0.0000954480274575  0.1250573643395046  0.3693564810584674   T   T   T
  0.3323638847358570  0.0622149165872753  0.3683953870600267   T   T   T
  0.1677545979323253  0.0625275856000669  0.3678115161584681   T   T   T
  0.2508688410143105  0.1255754802511215  0.4556394999088539   T   T   T
  0.0854822580424095  0.0623192811277057  0.4539535093838338   T   T   T
  0.4163134449109182  0.0616188048471460  0.4540008513737817   T   T   T
  0.0002446421164472  0.1226916468572583  0.5414174993268774   T   T   T
  0.3325264661131973  0.0597879501744589  0.5431211499654883   T   T   T
  0.0000000000000000  0.1251997475754436  0.1971274192404451   F   F   F
  0.3343369412500081  0.1874555756944787  0.2027209845130571   F   F   F
  0.1662604173406379  0.1876312578509030  0.2027221982441247   F   F   F
  0.2501999816055047  0.2498887646067161  0.2779024730234809   F   F   F
  0.0825727650861410  0.1876830281330939  0.2837096283809757   F   F   F
  0.4172972896996328  0.1872504991250779  0.2840867748275429   F   F   F
 -0.0000742014335140  0.2500833137537010  0.3695466394163717   T   T   T
  0.3321202582658281  0.1870829942235992  0.3685485305953847   T   T   T
  0.1679505228930317  0.1875184379947782  0.3678877558391320   T   T   T
  0.2498684969870245  0.2480888088866695  0.4555391656982740   T   T   T
  0.0832034132330145  0.1871627763362846  0.4538772460541166   T   T   T
  0.4160894945884779  0.1864405489674532  0.4542513016942710   T   T   T
  0.0033196023538177  0.2465423974649497  0.5419313182421209   T   T   T
  0.3381433174257578  0.1837590370339428  0.5423399122079067   T   T   T
  0.1682148996381719  0.1897725652592958  0.5443782696867382   T   T   T
  0.0000000000000000  0.2500718858687634  0.1971343718284118   F   F   F
  0.3342926847814240  0.3124132516836227  0.2026937805440667   F   F   F
  0.1663206548061567  0.3125684456967974  0.2026879703893130   F   F   F
  0.2502067873593177  0.3750918042283047  0.2779408447657588   F   F   F
  0.0826029581595549  0.3126929402195699  0.2836274496812337   F   F   F
  0.4173382514782702  0.3122475045731150  0.2840383744896471   F   F   F
 -0.0000483022047499  0.3749420000158363  0.3695279350415855   T   T   T
  0.3317790823837244  0.3122678210070337  0.3684971258197742   T   T   T
  0.1675236308366300  0.3125978394410114  0.3681958586323765   T   T   T
  0.2495242844380623  0.3761222574743263  0.4558371724863926   T   T   T
  0.0854748884472609  0.3126079068156336  0.4545768377295331   T   T   T
  0.4154986468451810  0.3112752276941061  0.4540199809449323   T   T   T
  0.0034424804814895  0.3762681183666009  0.5418566479144837   T   T   T
  0.3301731357230844  0.3109707300191669  0.5427018503923777   T   T   T
  0.0000000000000000  0.3751997477895301  0.1971274192404451   F   F   F
  0.3343369412500081  0.4374555759085652  0.2027209845130571   F   F   F
  0.1662604173406379  0.4376312580649895  0.2027221982441247   F   F   F
  0.2501999816055047  0.9998887643926295  0.2779024730234809   F   F   F
  0.0825727650861410  0.4376830283471804  0.2837096283809757   F   F   F
  0.4172972896996328  0.4372504993391644  0.2840867748275429   F   F   F
  0.0001375355837236  0.0002017433703118  0.3692729611196987   T   T   T
  0.3317155008929513  0.4372494436018782  0.3684613155530332   T   T   T
  0.1675164697863603  0.4376664928448238  0.3680220579646500   T   T   T
  0.2510928070471899  0.9981543324667382  0.4549512617894812   T   T   T
  0.0830796563441121  0.4384191941904258  0.4539732217827130   T   T   T
  0.4161140554390007  0.4373533836914221  0.4538396590985754   T   T   T
 -0.0005792833284911 -0.0007098365466457  0.5407616750444074   T   T   T
  0.3382112463763891  0.4377745065040413  0.5409117452905109   T   T   T
  0.1674839906273579  0.4386916236630264  0.5427405291223636   T   T   T
  0.0000000000000000  0.5000718856546769  0.1971343718284118   F   F   F
  0.3342926847814240  0.5624132518977021  0.2026937805440667   F   F   F
  0.1663206548061567  0.5625684459108768  0.2026879703893130   F   F   F
  0.2502067873593177  0.6250918040142253  0.2779408447657588   F   F   F
  0.0826029581595549  0.5626929404336494  0.2836274496812337   F   F   F
  0.4173382514782702  0.5622475047871944  0.2840383744896471   F   F   F
  0.0000585345756576  0.6252015805516480  0.3694270466925876   T   T   T
  0.3314549526731172  0.5623771075454707  0.3685491422613159   T   T   T
  0.1678053420397861  0.5626668463375962  0.3682841466478968   T   T   T
  0.2495087659992862  0.6255283838237812  0.4562771063677931   T   T   T
  0.0836907663121346  0.5630653044026726  0.4553801934497959   T   T   T
  0.4154897733952450  0.5619449350596659  0.4539700663207399   T   T   T
 -0.0031942297063230  0.6289974871618716  0.5412464804938688   T   T   T
  0.3243386954957658  0.5631449307714067  0.5428342080929451   T   T   T
  0.0000000000000000  0.6251997475754436  0.1971274192404451   F   F   F
  0.3343369412500081  0.6874555756944787  0.2027209845130571   F   F   F
  0.1662604173406379  0.6876312578509030  0.2027221982441247   F   F   F
  0.2501999816055047  0.7498887646067161  0.2779024730234809   F   F   F
  0.0825727650861410  0.6876830281330939  0.2837096283809757   F   F   F
  0.4172972896996328  0.6872504991250779  0.2840867748275429   F   F   F
 -0.0000390765665124  0.7502750667441586  0.3692912674823789   T   T   T
  0.3320028740654249  0.6872519943039279  0.3686555178709331   T   T   T
  0.1676551293446200  0.6875944826464685  0.3679513392173810   T   T   T
  0.2503666431074422  0.7488829986023130  0.4554271070331037   T   T   T
  0.0824699508570082  0.6878351768199220  0.4534334752459411   T   T   T
  0.4168039444289318  0.6876466193036913  0.4544719731733754   T   T   T
 -0.0008801515536334  0.7524396366954090  0.5409017853049402   T   T   T
  0.3337166965376875  0.6873729177014530  0.5415882002528553   T   T   T
  0.1666565742625870  0.6872815937124259  0.5426273925397055   T   T   T
  0.0000000000000000  0.7500718858687634  0.1971343718284118   F   F   F
  0.3342926847814240  0.8124132516836227  0.2026937805440667   F   F   F
  0.1663206548061567  0.8125684456967974  0.2026879703893130   F   F   F
  0.2502067873593177  0.8750918042283118  0.2779408447657588   F   F   F
  0.0826029581595549  0.8126929402195699  0.2836274496812337   F   F   F
  0.4173382514782702  0.8122475045731150  0.2840383744896471   F   F   F
  0.0000847873426490  0.8751221581844548  0.3692284090327163   T   T   T
  0.3321635137896378  0.8122694939619390  0.3684743917246991   T   T   T
  0.1677125631745057  0.8125539179371486  0.3677653078011543   T   T   T
  0.2516064233222742  0.8764165156748195  0.4554763529355870   T   T   T
  0.0851812403692831  0.8128408842993661  0.4536008780582292   T   T   T
  0.4164428279049147  0.8119796656920357  0.4545071455767667   T   T   T
  0.0001529643277048  0.8758753574469800  0.5407185776154904   T   T   T
  0.3286981224826832  0.8121183686613570  0.5426360006537561   T   T   T
  0.0000000000000000  0.8751997477895301  0.1971274192404451   F   F   F
  0.3343369412500081  0.9374555759085652  0.2027209845130571   F   F   F
  0.1662604173406379  0.9376312580649895  0.2027221982441247   F   F   F
  0.2501999816055047  0.4998887643926295  0.2779024730234809   F   F   F
  0.0825727650861410  0.9376830283471804  0.2837096283809757   F   F   F
  0.4172972896996328  0.9372504993391644  0.2840867748275429   F   F   F
  0.0000708822805193  0.5002277077836552  0.3695212105085977   T   T   T
  0.3324819873623336  0.9371063262385242  0.3684960070379849   T   T   T
  0.1679859513579631  0.9375376028644247  0.3676928009402389   T   T   T
  0.2491317339846622  0.5002379298632300  0.4556778059270191   T   T   T
  0.0828505015303620  0.9376072028282759  0.4532872638004412   T   T   T
  0.4165428355581843  0.9371149567237660  0.4541015841792856   T   T   T
 -0.0049160155093568  0.4987765425381194  0.5422042028622477   T   T   T
  0.3391323469142379  0.9374148256905463  0.5425648748569676   T   T   T
  0.1684456300670996  0.9387013881645231  0.5420702038156964   T   T   T
  0.5000000000000000  0.9997488470195677  0.1972621268646009   F   F   F
  0.8336793153754556  0.0625684459108768  0.2026879703893130   F   F   F
  0.6657072859523794  0.0624132518977021  0.2026937805440667   F   F   F
  0.7497932120884911  0.1250918040142253  0.2779408447657588   F   F   F
  0.5826617485217298  0.0622475047871944  0.2840383744896471   F   F   F
  0.9173970418404451  0.0626929404336494  0.2836274496812337   F   F   F
  0.5001398503477510  0.1246959446597421  0.3696654434578978   T   T   T
  0.8325816429858827  0.0625867755041273  0.3678198973022373   T   T   T
  0.6678255723162588  0.0623441564666553  0.3683496744295978   T   T   T
  0.7497393147285200  0.1260340922152388  0.4552734086482149   T   T   T
  0.5844365773840154  0.0619548899557801  0.4540200929936296   T   T   T
  0.9150737795114694  0.0623788531947953  0.4538865030487932   T   T   T
  0.5003472441047399  0.1137219958425632  0.5432680617465336   T   T   T
  0.6681119563903752  0.0612737028297287  0.5428232356188645   T   T   T
  0.5000000000000000  0.1249314217885598  0.1972730821371940   F   F   F
  0.8337395528409743  0.1876312578509030  0.2027221982441247   F   F   F
  0.6656630294837953  0.1874555756944787  0.2027209845130571   F   F   F
  0.7498000178423041  0.2498887646067161  0.2779024730234809   F   F   F
  0.5827027103003743  0.1872504991250779  0.2840867748275429   F   F   F
  0.9174272349138590  0.1876830281330939  0.2837096283809757   F   F   F
  0.4999264125649687  0.2495644699862164  0.3697169489018873   T   T   T
  0.8324769979089470  0.1875395104365049  0.3680389610593363   T   T   T
  0.6680579590569964  0.1872221038009670  0.3684710921617675   T   T   T
  0.7509419782334041  0.2494118232345435  0.4557572136172459   T   T   T
  0.5838660085679771  0.1870963209137952  0.4542260745522534   T   T   T
  0.9172304041213615  0.1873574600291164  0.4539402216320403   T   T   T
  0.8330254161065443  0.1872482726365136  0.5435763165141065   T   T   T
  0.6632991047898358  0.1853909830806836  0.5421996064557228   T   T   T
  0.5000000000000000  0.2497488472336542  0.1972621268646009   F   F   F
  0.8336793153754556  0.3125684456967974  0.2026879703893130   F   F   F
  0.6657072859523794  0.3124132516836227  0.2026937805440667   F   F   F
  0.7497932120884911  0.3750918042283047  0.2779408447657588   F   F   F
  0.5826617485217298  0.3122475045731150  0.2840383744896471   F   F   F
  0.9173970418404451  0.3126929402195699  0.2836274496812337   F   F   F
  0.4998004506823120  0.3745364390030233  0.3696923201141556   T   T   T
  0.8322106686735148  0.3124339668019536  0.3682641921574036   T   T   T
  0.6684766171544876  0.3122058989273081  0.3683958366871452   T   T   T
  0.7505385074197414  0.3746903923106725  0.4556518066061558   T   T   T
  0.5846105093295872  0.3113768545390964  0.4537368803982296   T   T   T
  0.9160358316485282  0.3120669691626768  0.4555088128716782   T   T   T
  0.5002846309257668  0.3653621460790953  0.5399198948814121   T   T   T
  0.6729617018505689  0.3115431687155571  0.5420872715706436   T   T   T
  0.5000000000000000  0.3749314220026463  0.1972730821371940   F   F   F
  0.8337395528409743  0.4376312580649895  0.2027221982441247   F   F   F
  0.6656630294837953  0.4374555759085652  0.2027209845130571   F   F   F
  0.7498000178423041  0.9998887643926295  0.2779024730234809   F   F   F
  0.5827027103003743  0.4372504993391644  0.2840867748275429   F   F   F
  0.9174272349138590  0.4376830283471804  0.2837096283809757   F   F   F
  0.5000885798288821 -0.0004297701845777  0.3695992977810001   T   T   T
  0.8325348295977747  0.4374178221145566  0.3680050298654722   T   T   T
  0.6682955259764274  0.4371841201409059  0.3683629529920429   T   T   T
  0.7497004231713645  0.9984956263603758  0.4548947408708706   T   T   T
  0.5835639029382604  0.4371592479540296  0.4535097454366194   T   T   T
  0.9168658554795606  0.4368160269295059  0.4539802779357898   T   T   T
  0.8315654564013288  0.4367712579506295  0.5424644620019607   T   T   T
  0.6616945117713003  0.4382524185118706  0.5401206448496088   T   T   T
  0.5000000000000000  0.4997488470195677  0.1972621268646009   F   F   F
  0.8336793153754556  0.5625684459108768  0.2026879703893130   F   F   F
  0.6657072859523794  0.5624132518977021  0.2026937805440667   F   F   F
  0.7497932120884911  0.6250918040142253  0.2779408447657588   F   F   F
  0.5826617485217298  0.5622475047871944  0.2840383744896471   F   F   F
  0.9173970418404451  0.5626929404336494  0.2836274496812337   F   F   F
  0.4998561000481203  0.6248843289716777  0.3696735071635847   T   T   T
  0.8323710149654134  0.5624689980740488  0.3680192511453750   T   T   T
  0.6682755367623598  0.5622914034835437  0.3683324869404517   T   T   T
  0.7499106285825886  0.6267034917238096  0.4553627865691995   T   T   T
  0.5839149250531905  0.5622655240525056  0.4536637047208697   T   T   T
  0.9145767579599895  0.5626292731679607  0.4542983664749422   T   T   T
  0.4968191391874843  0.6179450670996933  0.5405863207270317   T   T   T
  0.6690051051406247  0.5628930101301215  0.5418247993949726   T   T   T
  0.5000000000000000  0.6249314217885598  0.1972730821371940   F   F   F
  0.8337395528409743  0.6876312578509030  0.2027221982441247   F   F   F
  0.6656630294837953  0.6874555756944787  0.2027209845130571   F   F   F
  0.7498000178423041  0.7498887646067161  0.2779024730234809   F   F   F
  0.5827027103003743  0.6872504991250779  0.2840867748275429   F   F   F
  0.9174272349138590  0.6876830281330939  0.2837096283809757   F   F   F
  0.4998747987869476  0.7498311306031703  0.3697115129009089   T   T   T
  0.8320406025590149  0.6876091333996354  0.3677293431735572   T   T   T
  0.6679209652376532  0.6873257623634248  0.3684997039980261   T   T   T
  0.7492011764611705  0.7491564696344546  0.4553827280219422   T   T   T
  0.5838994829709704  0.6880256055197859  0.4540120974643583   T   T   T
  0.9168327159411062  0.6880737889239696  0.4533910278788000   T   T   T
  0.8325953123580814  0.6869079711353886  0.5431356303705557   T   T   T
  0.6624079292889704  0.6896007326048532  0.5413894774569078   T   T   T
  0.5000000000000000  0.7497488472336542  0.1972621268646009   F   F   F
  0.8336793153754556  0.8125684456967974  0.2026879703893130   F   F   F
  0.6657072859523794  0.8124132516836227  0.2026937805440667   F   F   F
  0.7497932120884911  0.8750918042283118  0.2779408447657588   F   F   F
  0.5826617485217298  0.8122475045731150  0.2840383744896471   F   F   F
  0.9173970418404451  0.8126929402195699  0.2836274496812337   F   F   F
  0.5000450368714349  0.8748415678584248  0.3696377627389633   T   T   T
  0.8322302839114075  0.8126187538855874  0.3676611863400401   T   T   T
  0.6679729360361987  0.8123787037504112  0.3682623838996121   T   T   T
  0.7492626893263068  0.8765896670345430  0.4551038657658773   T   T   T
  0.5839198254434144  0.8123253747225135  0.4542626472942207   T   T   T
  0.9148353687959815  0.8129354883133892  0.4536234196327386   T   T   T
  0.5013098641104522  0.8664119835595111  0.5426661959384407   T   T   T
  0.6687506248268358  0.8136843505649431  0.5433842162216692   T   T   T
  0.5000000000000000  0.8749314220026463  0.1972730821371940   F   F   F
  0.8337395528409743  0.9376312580649895  0.2027221982441247   F   F   F
  0.6656630294837953  0.9374555759085652  0.2027209845130571   F   F   F
  0.7498000178423041  0.4998887643926295  0.2779024730234809   F   F   F
  0.5827027103003743  0.9372504993391644  0.2840867748275429   F   F   F
  0.9174272349138590  0.9376830283471804  0.2837096283809757   F   F   F
  0.4998844116491486  0.4998565163245455  0.3696561900259688   T   T   T
  0.8321769112959992  0.9376258367060119  0.3677273097459541   T   T   T
  0.6677684054387152  0.9372603828949351  0.3683751060309820   T   T   T
  0.7509535676669558  0.4987281791815114  0.4554281113174286   T   T   T
  0.5842426481311047  0.9374930931894485  0.4538668552463896   T   T   T
  0.9177013417707357  0.9376113623896465  0.4532466667276913   T   T   T
  0.8330245041925632  0.9371829962225964  0.5424238065902960   T   T   T
  0.6625075667550802  0.9377760598442115  0.5414317625063428   T   T   T
  0.4059506995368949  0.9998103569988004  0.2323399901924574   F   F   F
  0.2502818136972422  0.0000100120603932  0.1992701427820052   F   F   F
  0.0942451913851556  0.0001403620404119  0.2320193079771755   F   F   F
  0.1548500728727760  0.1251896284821186  0.3155471504414038   F   F   F
  0.0000000000000000  0.1252068311979144  0.3027729437307727   F   F   F
  0.3452374976173260  0.1246790180981137  0.3159667219502040   F   F   F
  0.4011928401210048  0.1245751138273929  0.4024447372677303   T   T   T
  0.2498924533228451  0.1246716972320572  0.3876977401867031   T   T   T
  0.0991131867781656  0.1248204022413765  0.4018067392923692   T   T   T
  0.1520364526605045  0.1262781343049276  0.4863389635894447   T   T   T
  0.0002422377599262  0.1233109183510039  0.4733805678587607   T   T   T
  0.3493809567969803  0.1229453881776832  0.4880404826896970   T   T   T
  0.4027062869179975  0.1226833215097779  0.5714080213471051   T   T   T
  0.2487768377306354  0.1212794344464371  0.5571898716042982   T   T   T
  0.0987096727581221  0.1282057132100184  0.5700197513738766   T   T   T
  0.4058965650769153  0.1248444725173243  0.2323487498080610   F   F   F
  0.2502659080337395  0.1250292587474817  0.1993221158785232   F   F   F
  0.0942835749489959  0.1251516263229604  0.2320045250220701   F   F   F
  0.1548192101321320  0.2501939211492825  0.3155011134344150   F   F   F
  0.0000000000000000  0.2502658028626925  0.3027806051347781   F   F   F
  0.3452603591557377  0.2497083480957656  0.3159103143480522   F   F   F
  0.4005927510471039  0.2491576128599714  0.4023110179348074   T   T   T
  0.2496664447553446  0.2497576040340695  0.3875762392130498   T   T   T
  0.0991387964273187  0.2499813470280808  0.4019361002864482   T   T   T
  0.1522053830134958  0.2464039327016310  0.4872543152347601   T   T   T
  0.0012149310090264  0.2492127321165628  0.4734947629864157   T   T   T
  0.3476736868701696  0.2489744899561298  0.4890430484539319   T   T   T
  0.4049899206440177  0.2498343684990587  0.5696075885467341   T   T   T
  0.2598375519556759  0.2399197619641774  0.5666734144299632   T   T   T
  0.0991180352941203  0.2494395070290470  0.5718431475965065   T   T   T
  0.4059506995368949  0.2498103572128869  0.2323399901924574   F   F   F
  0.2502818136972422  0.2500100122744797  0.1992701427820052   F   F   F
  0.0942451913851556  0.2501403622544984  0.2320193079771755   F   F   F
  0.1548500728727760  0.3751896286962122  0.3155471504414038   F   F   F
  0.0000000000000000  0.3752068314120010  0.3027729437307727   F   F   F
  0.3452374976173260  0.3746790183122002  0.3159667219502040   F   F   F
  0.4006657393757466  0.3744126891843751  0.4023175529574898   T   T   T
  0.2494792072769986  0.3749047516146040  0.3879251637591083   T   T   T
  0.0989293448697195  0.3750204581579598  0.4019410187704586   T   T   T
  0.1512934586538361  0.3789915365561890  0.4870420251426638   T   T   T
  0.0012032633083269  0.3748688225283683  0.4735359593953088   T   T   T
  0.3490579828959945  0.3737152552733519  0.4881352878402081   T   T   T
  0.4042880145574841  0.3737721849123385  0.5696011006496515   T   T   T
  0.2565281758400099  0.3760181140448707  0.5599334277078848   T   T   T
  0.0988201384159464  0.3758827535714817  0.5748400784677530   T   T   T
  0.4058965650769153  0.3748444727314109  0.2323487498080610   F   F   F
  0.2502659080337395  0.3750292589615682  0.1993221158785232   F   F   F
  0.0942835749489959  0.3751516265370469  0.2320045250220701   F   F   F
  0.1548192101321320  0.0001939209351960  0.3155011134344150   F   F   F
  0.0000000000000000  0.0002658026486060  0.3027806051347781   F   F   F
  0.3452603591557377  0.9997083478816791  0.3159103143480522   F   F   F
  0.4010786594358126 -0.0005975018476659  0.4022275030134119   T   T   T
  0.2500219351986047 -0.0001684332962648  0.3872187476783143   T   T   T
  0.0992330233889956  0.0000980053300574  0.4015907544546466   T   T   T
  0.1531313693156414  0.9975540794423767  0.4856704275005487   T   T   T
  0.0001377755413935  0.0007950178395744  0.4728837706213094   T   T   T
  0.3489653770648745 -0.0004223400019901  0.4882178167718258   T   T   T
  0.4068682473261204  0.0008580015384858  0.5690274664924848   T   T   T
  0.2560698370667235  0.9940333379779310  0.5603038426501863   T   T   T
  0.0991175533681085  0.0035218631153087  0.5677211198800615   T   T   T
  0.4059506995368949  0.4998103569988004  0.2323399901924574   F   F   F
  0.2502818136972422  0.5000100120603932  0.1992701427820052   F   F   F
  0.0942451913851556  0.5001403620404119  0.2320193079771755   F   F   F
  0.1548500728727760  0.6251896284821186  0.3155471504414038   F   F   F
  0.0000000000000000  0.6252068311979144  0.3027729437307727   F   F   F
  0.3452374976173260  0.6246790180981137  0.3159667219502040   F   F   F
  0.4009099357499992  0.6250352976601391  0.4024362981831386   T   T   T
  0.2497303930928484  0.6252698969223138  0.3880811311064169   T   T   T
  0.0990819423039233  0.6251488324456798  0.4021054099267911   T   T   T
  0.1501239149280033  0.6274000439006904  0.4878518998349918   T   T   T
 -0.0013298864000871  0.6259230994713656  0.4729586717405797   T   T   T
  0.3489375870908744  0.6243428368351848  0.4887403368576797   T   T   T
  0.3998564120887736  0.6233840879580661  0.5720040283980871   T   T   T
  0.2522863149486271  0.6309839363607112  0.5588147277594481   T   T   T
  0.0927522308654970  0.6338500098299918  0.5729085284327795   T   T   T
  0.4058965650769153  0.6248444725173243  0.2323487498080610   F   F   F
  0.2502659080337395  0.6250292587474817  0.1993221158785232   F   F   F
  0.0942835749489959  0.6251516263229604  0.2320045250220701   F   F   F
  0.1548192101321320  0.7501939211492825  0.3155011134344150   F   F   F
  0.0000000000000000  0.7502658028626925  0.3027806051347781   F   F   F
  0.3452603591557377  0.7497083480957656  0.3159103143480522   F   F   F
  0.4008546293178741  0.7498976731037356  0.4023912007440580   T   T   T
  0.2498247722574452  0.7500731634652298  0.3876621033036622   T   T   T
  0.0989255600591557  0.7504573242602680  0.4015086800622084   T   T   T
  0.1517528104204693  0.7489408724820661  0.4856367722517427   T   T   T
 -0.0003056537580588  0.7520660767772083  0.4728895363406987   T   T   T
  0.3487968549383568  0.7505368950306763  0.4887318935728827   T   T   T
  0.3977427952895701  0.7501379307670319  0.5741916446825909   T   T   T
  0.2488315202963275  0.7511276899201165  0.5581097527425339   T   T   T
  0.0981620504345165  0.7533513834379937  0.5682807633766523   T   T   T
  0.4059506995368949  0.7498103572128869  0.2323399901924574   F   F   F
  0.2502818136972422  0.7500100122744797  0.1992701427820052   F   F   F
  0.0942451913851556  0.7501403622544984  0.2320193079771755   F   F   F
  0.1548500728727760  0.8751896286962051  0.3155471504414038   F   F   F
  0.0000000000000000  0.8752068314120010  0.3027729437307727   F   F   F
  0.3452374976173260  0.8746790183122002  0.3159667219502040   F   F   F
  0.4012349996998613  0.8746892388375711  0.4025043806850199   T   T   T
  0.2500525971708665  0.8749121474344941  0.3876146686367321   T   T   T
  0.0991317711167665  0.8752292650287288  0.4014797034798328   T   T   T
  0.1524635897649992  0.8773916291019535  0.4856429770969288   T   T   T
  0.0001238275770641  0.8743426997204649  0.4728440157048232   T   T   T
  0.3500764835120249  0.8742091962728498  0.4888809144584170   T   T   T
  0.4032703669596901  0.8745408753295130  0.5738255460036339   T   T   T
  0.2493701917777073  0.8743206656530728  0.5577691641003426   T   T   T
  0.0988100658376561  0.8776169549851538  0.5689294768925991   T   T   T
  0.4058965650769153  0.8748444727314109  0.2323487498080610   F   F   F
  0.2502659080337395  0.8750292589615682  0.1993221158785232   F   F   F
  0.0942835749489959  0.8751516265370469  0.2320045250220701   F   F   F
  0.1548192101321320  0.5001939209351960  0.3155011134344150   F   F   F
  0.0000000000000000  0.5002658026486060  0.3027806051347781   F   F   F
  0.3452603591557377  0.4997083478816791  0.3159103143480522   F   F   F
  0.4004210957925358  0.4997326450680726  0.4021029691743265   T   T   T
  0.2495528375565876  0.4997830572368011  0.3877187740778132   T   T   T
  0.0991294060536162  0.5006735397112755  0.4022311437708387   T   T   T
  0.1509794550473681  0.5001045752177431  0.4884385591852693   T   T   T
 -0.0014350372212678  0.5002608313470921  0.4736722345666093   T   T   T
  0.3473138175655492  0.5009125251200032  0.4883447034509005   T   T   T
  0.4010060884949844  0.5034487666417448  0.5698413057690568   T   T   T
  0.2535740860775380  0.4957060314650010  0.5618735537926536   T   T   T
  0.0922069152109678  0.4937789672608908  0.5722966117766749   T   T   T
  0.9057548086148444  0.0001403620404119  0.2320193079771755   F   F   F
  0.7497181857505666  0.0000100120603932  0.1992701427820052   F   F   F
  0.5940493004631051  0.9998103569988004  0.2323399901924574   F   F   F
  0.6547625023826740  0.1246790180981137  0.3159667219502040   F   F   F
  0.5000000000000000  0.1247350155864240  0.3031143998011601   F   F   F
  0.8451499271272240  0.1251896284821186  0.3155471504414038   F   F   F
  0.9012678293261188  0.1247954505255493  0.4018140170102629   T   T   T
  0.7503635488607225  0.1247398947342981  0.3875029695818433   T   T   T
  0.5989955716522601  0.1247473048295805  0.4024272666643769   T   T   T
  0.6513218238075538  0.1241132497651003  0.4880586897649297   T   T   T
  0.5002551782625398  0.1236660938686442  0.4748836606111110   T   T   T
  0.8478185315077438  0.1261284495494710  0.4860560359571162   T   T   T
  0.9009120560676362  0.1230965353834944  0.5687168900720054   T   T   T
  0.7504968349024170  0.1230366607680330  0.5582312895097464   T   T   T
  0.5975846213193847  0.1242842700125106  0.5710101355527449   T   T   T
  0.9057164250510041  0.1251516263229604  0.2320045250220701   F   F   F
  0.7497340914140693  0.1250292587474817  0.1993221158785232   F   F   F
  0.5941034349230847  0.1248444725173243  0.2323487498080610   F   F   F
  0.6547396408442623  0.2497083480957656  0.3159103143480522   F   F   F
  0.5000000000000000  0.2496370424515106  0.3031199056982175   F   F   F
  0.8451807898678680  0.2501939211492825  0.3155011134344150   F   F   F
  0.9009134671646891  0.2499605247427956  0.4023747879117094   T   T   T
  0.7503959607538684  0.2495710210069432  0.3876906710573359   T   T   T
  0.5992663910596986  0.2492671969459425  0.4021706004305399   T   T   T
  0.6528979466913113  0.2498192152679490  0.4885323612841487   T   T   T
  0.5000102702830129  0.2495749125645344  0.4726894831004040   T   T   T
  0.8490449071523487  0.2478977758828634  0.4886912037390305   T   T   T
  0.9069830632348157  0.2414597501969380  0.5733961973710567   T   T   T
  0.7456295446335355  0.2434813625789597  0.5641405244482955   T   T   T
  0.5973812484837880  0.2513960521805643  0.5683526229074624   T   T   T
  0.9057548086148444  0.2501403622544984  0.2320193079771755   F   F   F
  0.7497181857505666  0.2500100122744797  0.1992701427820052   F   F   F
  0.5940493004631051  0.2498103572128869  0.2323399901924574   F   F   F
  0.6547625023826740  0.3746790183122002  0.3159667219502040   F   F   F
  0.5000000000000000  0.3747350158005176  0.3031143998011601   F   F   F
  0.8451499271272240  0.3751896286962122  0.3155471504414038   F   F   F
  0.9008869588472843  0.3744083656837821  0.4022163392899085   T   T   T
  0.7504018547765038  0.3750380874980839  0.3877478968003570   T   T   T
  0.5991804626853149  0.3745246530560513  0.4020653608875316   T   T   T
  0.6516450131762476  0.3736890162597865  0.4879316519227940   T   T   T
  0.5001290036831636  0.3735679238672754  0.4725605969499481   T   T   T
  0.8487226582151777  0.3750515944965461  0.4883376914652026   T   T   T
  0.9066424683783656  0.3817498145441232  0.5722884915600670   T   T   T
  0.7451322956420076  0.3810154155729691  0.5611307472926691   T   T   T
  0.5964588166440241  0.3744419869732701  0.5687004793758380   T   T   T
  0.9057164250510041  0.3751516265370469  0.2320045250220701   F   F   F
  0.7497340914140693  0.3750292589615682  0.1993221158785232   F   F   F
  0.5941034349230847  0.3748444727314109  0.2323487498080610   F   F   F
  0.6547396408442623  0.9997083478816791  0.3159103143480522   F   F   F
  0.5000000000000000  0.9996370422374241  0.3031199056982175   F   F   F
  0.8451807898678680  0.0001939209351960  0.3155011134344150   F   F   F
  0.9011487935922223  0.0001039990447684  0.4016038543157436   T   T   T
  0.7502732199130656 -0.0000090354481081  0.3871506837559431   T   T   T
  0.5991906595835671 -0.0003485302959521  0.4020908214150847   T   T   T
  0.6519318861273171  0.0001993690170333  0.4877766494415766   T   T   T
  0.5004713065750473  0.0001847441274573  0.4729684749691776   T   T   T
  0.8479273411071038  0.9978611317619035  0.4858870999716271   T   T   T
  0.9010393648848583 -0.0002677867623885  0.5691652122179418   T   T   T