Ta  N  W Cu                             
   1.00000000000000     
    18.1096308199999996    0.0000000000000000    0.0000000000000000
     0.0000000000000000   23.3551997799999995    0.0000000000000000
     0.0000000000000000    0.0000000000000000   30.4818171199999988
   Ta   N    W    Cu
   216   240    24    29
Selective dynamics
Direct
  0.0008196005600000  0.9999285000000000  0.1951791700000000   F   F   F
  0.3354844200000000  0.0616457980000000  0.2023268800000000   F   F   F
  0.1659089200000000  0.0615765250000000  0.2023200800000000   F   F   F
  0.2506407900000000  0.1260043300000000  0.2789685000000000   F   F   F
  0.0834140130000000  0.0626123170000000  0.2831751800000000   F   F   F
  0.4182153800000000  0.0625726880000000  0.2831754900000000   F   F   F
  0.9994150556246326  0.1232743137279481  0.3698612096869027   T   T   T
  0.3300160136059874  0.0617334335532574  0.3691666384662267   T   T   T
  0.1652668930364298  0.0618312672586301  0.3668383148918193   T   T   T
  0.2487229364417240  0.1282277195666699  0.4565440179127797   T   T   T
  0.0791652160182885  0.0599521315921602  0.4534014862616080   T   T   T
  0.4186140936810537  0.0661206942484159  0.4505675093683766   T   T   T
  0.3417155258156400  0.0662559797662406  0.5408717885888416   T   T   T
  0.1666960795142010  0.0627807071245980  0.5391602573825237   T   T   T
  0.0007454981200000  0.1250778400000000  0.1956331000000000   F   F   F
  0.3304595200000000  0.1908585300000000  0.2009453700000000   F   F   F
  0.1709950100000000  0.1909062500000000  0.2009834100000000   F   F   F
  0.2505402300000000  0.2502100500000000  0.2803113800000000   F   F   F
  0.0835829030000000  0.1874272200000000  0.2830392500000000   F   F   F
  0.4176416700000000  0.1874338800000000  0.2828992700000000   F   F   F
  0.9994931174500304  0.2474992933854426  0.3695713017646569   T   T   T
  0.3316481333816499  0.1860124462733802  0.3662715995261567   T   T   T
  0.1722128753478815  0.1856588389080776  0.3678405125056209   T   T   T
  0.2505498214521094  0.2525215723972459  0.4557038259063773   T   T   T
  0.0834469875335246  0.1874886937934343  0.4551059994759715   T   T   T
  0.4165820738716793  0.1897386591331484  0.4515769514784531   T   T   T
  0.3345143636129280  0.1873224114931641  0.5391881311903732   T   T   T
  0.1683294185142129  0.1843307448952731  0.5459180673767668   T   T   T
  0.0007713135700000  0.2504051300000000  0.1948516700000000   F   F   F
  0.3303938300000000  0.3096294900000000  0.2012138600000000   F   F   F
  0.1708675500000000  0.3096267400000000  0.2013513300000000   F   F   F
  0.2506651400000000  0.3750150100000000  0.2800537900000000   F   F   F
  0.0834009740000000  0.3126412700000000  0.2827598800000000   F   F   F
  0.4180356800000000  0.3126438200000000  0.2825976500000000   F   F   F
  0.9939594635616152  0.3720584705555008  0.3692900020997169   T   T   T
  0.3340559820595648  0.3104578772376889  0.3685820221774648   T   T   T
  0.1612290871322428  0.3115993200642959  0.3692127517298682   T   T   T
  0.2512932431140255  0.3743366338902894  0.4556867670511177   T   T   T
  0.0867993032281899  0.3117426562275206  0.4552267145864239   T   T   T
  0.4201791552966249  0.3174144867241062  0.4523057990907304   T   T   T
  0.3317787274638478  0.3181403497983875  0.5398981471028088   T   T   T
  0.0007074446000000  0.3750032500000000  0.1957503900000000   F   F   F
  0.3303468600000000  0.4402858200000000  0.2011865900000000   F   F   F
  0.1710402400000000  0.4402946600000000  0.2012596300000000   F   F   F
  0.2506206300000000  0.9998450600000000  0.2770586100000000   F   F   F
  0.0832100380000000  0.4372178400000000  0.2825060100000000   F   F   F
  0.4179097400000000  0.4372213500000000  0.2824776700000000   F   F   F
  0.9994575512052635  0.0009781652198205  0.3692291754499667   T   T   T
  0.3306063092978277  0.4380101959547627  0.3674540491930118   T   T   T
  0.1663769917808734  0.4368581598763340  0.3647320711999008   T   T   T
  0.2502154507615645  0.0044399881659740  0.4555032409523113   T   T   T
  0.0855349916846934  0.4357732412676038  0.4525624730619277   T   T   T
  0.4204343688610163  0.4400692812460229  0.4510177965136979   T   T   T
  0.3324961090712052  0.4411511261649804  0.5346882202352181   T   T   T
  0.0007188807000000  0.4997782100000000  0.1944727200000000   F   F   F
  0.3303936900000000  0.5594937600000000  0.2011294400000000   F   F   F
  0.1709923600000000  0.5594711400000000  0.2011921900000000   F   F   F
  0.2507243900000000  0.6247341300000000  0.2799366500000000   F   F   F
  0.0834177450000000  0.5625295900000000  0.2824674000000000   F   F   F
  0.4180621000000000  0.5625336000000000  0.2824453800000000   F   F   F
  0.9990401463400345  0.6246198482153887  0.3668635481721407   T   T   T
  0.3324410208408118  0.5613506210491027  0.3687762602511218   T   T   T
  0.1701919641404861  0.5615154059000614  0.3687870291625877   T   T   T
  0.2573630535238201  0.6249293375589992  0.4531866769288621   T   T   T
  0.0908747324400444  0.5629648456305776  0.4552926011220428   T   T   T
  0.4235643847613642  0.5614995342849265  0.4558979644385227   T   T   T
  0.3260530667068348  0.5620613608296683  0.5395764337980816   T   T   T
  0.0007321550700000  0.6246877800000000  0.1957266100000000   F   F   F
  0.3304454600000000  0.6901794000000000  0.2012253800000000   F   F   F
  0.1709099300000000  0.6901408500000000  0.2011185600000000   F   F   F
  0.2508323700000000  0.7495772900000000  0.2801935300000000   F   F   F
  0.0833907650000000  0.6870938599999999  0.2826081600000000   F   F   F
  0.4179437900000000  0.6870986000000000  0.2825753400000000   F   F   F
  0.0014138102883900  0.7522124965244223  0.3699201411013094   T   T   T
  0.3359320045612975  0.6876016344180272  0.3708392522727692   T   T   T
  0.1663684608379636  0.6855376811812766  0.3661537316944264   T   T   T
  0.2534867218514373  0.7505332086199650  0.4573743262937334   T   T   T
  0.0938526068956257  0.6867996702181830  0.4558814252167254   T   T   T
  0.4171308878082411  0.6884367492823882  0.4552984341891815   T   T   T
  0.3332952065451996  0.6914349933561666  0.5388458534921045   T   T   T
  0.0007531385000000  0.7493526900000000  0.1947227100000000   F   F   F
  0.3303611000000000  0.8087583900000000  0.2008584800000000   F   F   F
  0.1710119900000000  0.8088233800000000  0.2008778900000000   F   F   F
  0.2507628100000000  0.8737336600000000  0.2788903300000000   F   F   F
  0.0837645640000000  0.8123014000000000  0.2828711600000000   F   F   F
  0.4178878800000000  0.8123148700000000  0.2828562200000000   F   F   F
  0.0032071275590086  0.8750544341335886  0.3685814584118534   T   T   T
  0.3378410814767148  0.8130280056565984  0.3664773293866405   T   T   T
  0.1743687261144914  0.8114987820029446  0.3686252444975242   T   T   T
  0.2519744038713446  0.8762657405448393  0.4526419635133935   T   T   T
  0.0797689671549434  0.8143146321076374  0.4534409650216619   T   T   T
  0.4195658253541347  0.8174575787750047  0.4555669941859932   T   T   T
  0.3304618506528741  0.8171831604672141  0.5398811184017193   T   T   T
  0.1643014486880726  0.8142928807639384  0.5419738255748993   T   T   T
  0.0007804798800000  0.8746746200000000  0.1955576400000000   F   F   F
  0.3353429500000000  0.9381682300000000  0.2023504000000000   F   F   F
  0.1660839600000000  0.9381943900000000  0.2023185400000000   F   F   F
  0.2506589800000000  0.4998061200000000  0.2801027900000000   F   F   F
  0.0832941170000000  0.9371457399999999  0.2831364800000000   F   F   F
  0.4180477800000000  0.9371264300000000  0.2830663600000000   F   F   F
  0.9987266473195610  0.5010667570178816  0.3676042350015979   T   T   T
  0.3379776723386179  0.9401164104863083  0.3659257145141065   T   T   T
  0.1655484338715678  0.9380227719161893  0.3688114156133006   T   T   T
  0.2500093897142441  0.4983076358753003  0.4542198447870641   T   T   T
  0.0865304844255576  0.9363410342528257  0.4537613313316344   T   T   T
  0.4158172551786514  0.9405448549942695  0.4519305012297158   T   T   T
  0.3422186247423759  0.9418944549890730  0.5400014363312993   T   T   T
  0.1620330905328849  0.9398214144551721  0.5397358626279437   T   T   T
  0.5007539900000000  0.9999611200000000  0.1951964600000000   F   F   F
  0.8355610700000000  0.0616068990000000  0.2023184400000000   F   F   F
  0.6659192600000000  0.0616171290000000  0.2023120400000000   F   F   F
  0.7507408100000000  0.1259895800000000  0.2789993200000000   F   F   F
  0.5832699200000000  0.0625743720000000  0.2831803400000000   F   F   F
  0.9180730000000000  0.0626142540000000  0.2831567700000000   F   F   F
  0.5055533134011345  0.1261640145622412  0.3707081507249946   T   T   T
  0.8372179897014560  0.0607347714872181  0.3679570323085128   T   T   T
  0.6706189274476557  0.0599487002628443  0.3644871330013508   T   T   T
  0.7512777566490600  0.1196271082158134  0.4529419205595878   T   T   T
  0.5852234514806625  0.0626063056816228  0.4541770222270872   T   T   T
  0.9148456986823992  0.0634719838597206  0.4518615179953018   T   T   T
  0.8394174302837973  0.0635171150957522  0.5407520040386952   T   T   T
  0.6667979462131574  0.0649057223498821  0.5433508035244161   T   T   T
  0.5007577700000000  0.1250916800000000  0.1955558100000000   F   F   F
  0.8304139500000000  0.1908856400000000  0.2009832900000000   F   F   F
  0.6709762000000000  0.1907805700000000  0.2009512900000000   F   F   F
  0.7508683300000000  0.2502340500000000  0.2802862200000000   F   F   F
  0.5837385899999999  0.1874202400000000  0.2829678500000000   F   F   F
  0.9178897300000000  0.1874388000000000  0.2829971800000000   F   F   F
  0.5044538891155452  0.2506788209823876  0.3706775763595017   T   T   T
  0.8315852553101556  0.1843787002851332  0.3682253889530230   T   T   T
  0.6707829891173067  0.1863511315303274  0.3647844006771842   T   T   T
  0.7535752029562964  0.2474830135929174  0.4570409577031951   T   T   T
  0.5869481378452839  0.1907544968034040  0.4543261688661948   T   T   T
  0.9179585161089295  0.1891539177928725  0.4533300128053141   T   T   T
  0.8375465195481323  0.1888461577510023  0.5427025319964865   T   T   T
  0.6709727676174133  0.1861881391875964  0.5435397246493144   T   T   T
  0.5007415600000000  0.2503906000000000  0.1947823800000000   F   F   F
  0.8304991000000000  0.3095798000000000  0.2012722300000000   F   F   F
  0.6709561900000000  0.3096334900000000  0.2011926400000000   F   F   F
  0.7507554400000001  0.3749766900000000  0.2799524700000000   F   F   F
  0.5833237300000000  0.3126424400000000  0.2826150000000000   F   F   F
  0.9179604900000000  0.3126493600000000  0.2827153000000000   F   F   F
  0.5014528671960834  0.3770506457119879  0.3694760492382368   T   T   T
  0.8364480805510653  0.3119959768881826  0.3678813843677865   T   T   T
  0.6684078306241479  0.3112106139054710  0.3682837634348006   T   T   T
  0.7551386535615149  0.3743683456916533  0.4530323209323081   T   T   T
  0.5903352848831317  0.3154027006603877  0.4560524600419982   T   T   T
  0.9211640674056256  0.3106500168763559  0.4554408767562716   T   T   T
  0.8409670140330809  0.3137038916035076  0.5410386194889927   T   T   T
  0.5007012600000000  0.3750959500000000  0.1956739900000000   F   F   F
  0.8303015500000001  0.4402911600000000  0.2011845700000000   F   F   F
  0.6709405100000000  0.4402699600000000  0.2011485600000000   F   F   F
  0.7506898800000000  0.9999114800000000  0.2770414000000000   F   F   F
  0.5834463100000000  0.4372176400000000  0.2824314600000000   F   F   F
  0.9181518900000000  0.4372224500000000  0.2824870500000000   F   F   F
  0.5032710043487341  0.0019933100664037  0.3706854691213108   T   T   T
  0.8334959336691102  0.4380117238886704  0.3696346208278826   T   T   T
  0.6710020930297174  0.4393822630427683  0.3654161638258785   T   T   T
  0.7507829987938057  0.9991902493885269  0.4547436841827353   T   T   T
  0.5864362929238641  0.4351094823908408  0.4518583144755029   T   T   T
  0.9193575636572615  0.4355898338577727  0.4548845396263764   T   T   T
  0.8461841599069854  0.4385142025145741  0.5448116496835097   T   T   T
  0.5006974900000000  0.4998869700000000  0.1944655600000000   F   F   F
  0.8304044800000000  0.5594523700000000  0.2011345500000000   F   F   F
  0.6709963400000000  0.5595223300000000  0.2011125200000000   F   F   F
  0.7508349800000000  0.6246986400000000  0.2799140000000000   F   F   F
  0.5833570800000000  0.5625429000000000  0.2824156500000000   F   F   F
  0.9180105000000000  0.5625379100000000  0.2824397200000000   F   F   F
  0.5044560223600193  0.6236953703197378  0.3674922678844333   T   T   T
  0.8363979294287983  0.5630204910533133  0.3676059678130846   T   T   T
  0.6689045032613679  0.5619841348500123  0.3667855310867061   T   T   T
  0.7561707094630061  0.6250071403026831  0.4543726864951850   T   T   T
  0.5915377599148366  0.5629516900281369  0.4560405913182028   T   T   T
  0.9204331348313849  0.5633012834916284  0.4550564076083066   T   T   T
  0.8468106181567985  0.5634499637085327  0.5423089757534222   T   T   T
  0.5007299500000000  0.6247494200000000  0.1956873500000000   F   F   F
  0.8304082100000000  0.6901668300000000  0.2010420900000000   F   F   F
  0.6709832000000000  0.6901553499999999  0.2011814800000000   F   F   F
  0.7506987600000000  0.7495888200000000  0.2801502800000000   F   F   F
  0.5835462000000000  0.6871109700000000  0.2825718600000000   F   F   F
  0.9180557600000000  0.6871041900000000  0.2825457600000000   F   F   F
  0.5003162003892188  0.7541566584892326  0.3679730231556426   T   T   T
  0.8341157523925514  0.6871593360316172  0.3698115664645156   T   T   T
  0.6715575581599357  0.6872938632022207  0.3681296393322618   T   T   T
  0.7517031896002817  0.7498787279622559  0.4525888675727547   T   T   T
  0.5827810870916363  0.6908322486411465  0.4513152855537976   T   T   T
  0.9178548486356455  0.6857844277812050  0.4554664469030628   T   T   T
  0.8453268021007886  0.6823073088541869  0.5425337544211380   T   T   T
  0.5007703400000000  0.7493850100000000  0.1947341500000000   F   F   F
  0.8303742100000000  0.8088046200000000  0.2007971100000000   F   F   F
  0.6710901500000001  0.8087897600000000  0.2007490500000000   F   F   F
  0.7507010500000000  0.8737116400000000  0.2787762200000000   F   F   F
  0.5836669300000000  0.8123219800000000  0.2828540500000000   F   F   F
  0.9176684600000000  0.8123187100000000  0.2827551000000000   F   F   F
  0.5028372935752903  0.8761709562300537  0.3715148442386013   T   T   T
  0.8363594173591375  0.8084149230504981  0.3660027777943806   T   T   T
  0.6717246022799137  0.8111630214577187  0.3680502464120267   T   T   T
  0.7537773719840274  0.8758078615771460  0.4531325150607410   T   T   T
  0.5843014454966569  0.8162817085123872  0.4532019187707844   T   T   T
  0.9230964063636822  0.8128623844321795  0.4564339087492930   T   T   T
  0.8445947553013661  0.8108940841089139  0.5485100959251044   T   T   T
  0.6620860462491609  0.8194866458589103  0.5410947231731548   T   T   T
  0.5007266900000000  0.8746857099999999  0.1955821100000000   F   F   F
  0.8353853600000000  0.9382028900000000  0.2022751800000000   F   F   F
  0.6661117500000000  0.9382110400000000  0.2022921600000000   F   F   F
  0.7508740699999999  0.4998297000000000  0.2800458300000000   F   F   F
  0.5834265700000000  0.9371230600000000  0.2830624700000000   F   F   F
  0.9182249400000000  0.9371709000000000  0.2830803900000000   F   F   F
  0.5008373767349014  0.5042415522991524  0.3676252115833771   T   T   T
  0.8329824313179668  0.9383280592507540  0.3697304251536361   T   T   T
  0.6711561858051356  0.9364206352714088  0.3691477850751041   T   T   T
  0.7525641357644161  0.5017832080664499  0.4578229071133920   T   T   T
  0.5885759284406755  0.9405975423459458  0.4536621808877040   T   T   T
  0.9199731954915448  0.9397347921700241  0.4561871655004876   T   T   T
  0.8365854586999907  0.9363917103751708  0.5440983515901977   T   T   T
  0.6649392514328183  0.9406567506549128  0.5418109554231066   T   T   T
  0.4077019800000000  0.9999233199999999  0.2313964700000000   F   F   F
  0.2507240400000000  0.9999602900000000  0.1970782600000000   F   F   F
  0.0936822280000000  0.9998826500000000  0.2314646600000000   F   F   F
  0.1542995200000000  0.1250660200000000  0.3155307700000000   F   F   F
  0.0007336615500000  0.1250530400000000  0.3020388100000000   F   F   F
  0.3470306900000000  0.1249749800000000  0.3154509200000000   F   F   F
  0.4015991200815546  0.1257667823028547  0.3988631592165807   T   T   T
  0.2462662339079459  0.1247661761947755  0.3878605317518218   T   T   T
  0.0988597772628381  0.1223446349136112  0.4041162276109527   T   T   T
  0.1534466226503020  0.1261065311988030  0.4889519948336664   T   T   T
  0.0015428035087581  0.1230963607312145  0.4729067255712707   T   T   T
  0.3541840650778793  0.1220600856891219  0.4857451681420119   T   T   T
  0.4063740253666925  0.1290112297181177  0.5653325088242487   T   T   T
  0.2546923153471918  0.1249277428693750  0.5582497202163311   T   T   T
  0.1024329473237277  0.1282217059195356  0.5745227182474942   T   T   T
  0.4068026100000000  0.1255919000000000  0.2312606000000000   F   F   F
  0.2506756600000000  0.1255845500000000  0.2077741600000000   F   F   F
  0.0946999570000000  0.1256324000000000  0.2313172500000000   F   F   F
  0.1532402900000000  0.2499857800000000  0.3157769000000000   F   F   F
  0.0007054093000000  0.2499981500000000  0.3016520700000000   F   F   F
  0.3479688700000000  0.2500063400000000  0.3156255400000000   F   F   F
  0.4011098236749810  0.2505879868304516  0.4004063318777241   T   T   T
  0.2503610102256362  0.2515244942272005  0.3885995976135441   T   T   T
  0.0969462142399146  0.2480968028727099  0.4029115919460786   T   T   T
  0.1538789197317918  0.2531163247404236  0.4888161787044574   T   T   T
  0.0025398348975096  0.2509119136507975  0.4761098807143361   T   T   T
  0.3488419454593899  0.2565897074567500  0.4842998253919305   T   T   T
  0.3992804608370258  0.2481742972783366  0.5688095270129992   T   T   T
  0.2487497320275262  0.2576820312341525  0.5590732629810180   T   T   T
  0.0863338126918251  0.2502773526135701  0.5727070697879265   T   T   T
  0.4064971200000000  0.2501123100000000  0.2311591800000000   F   F   F
  0.2506932000000000  0.2501663000000000  0.1764985900000000   F   F   F
  0.0949020060000000  0.2500593000000000  0.2313239400000000   F   F   F
  0.1534325900000000  0.3749140300000000  0.3154214200000000   F   F   F
  0.0006895622400000  0.3749303300000000  0.3015980300000000   F   F   F
  0.3478633700000000  0.3748085600000000  0.3153387600000000   F   F   F
  0.3990965682547513  0.3751218755686471  0.3997192510291821   T   T   T
  0.2481595352348527  0.3749829303156074  0.3871450973428507   T   T   T
  0.0986539663759527  0.3762442946184654  0.3994948455662479   T   T   T
  0.1526875594413779  0.3768878079411687  0.4877503595321890   T   T   T
  0.0037273604636938  0.3732141417630243  0.4748918355674239   T   T   T
  0.3564885790393063  0.3793776935828716  0.4866520675284305   T   T   T
  0.4006198310196876  0.3826362312782575  0.5684166520811511   T   T   T
  0.2472786592730083  0.3814611128354897  0.5594686439984222   T   T   T
  0.0996526239865584  0.3797972836832056  0.5722528368130992   T   T   T
  0.4061077800000000  0.3749741400000000  0.2305408400000000   F   F   F
  0.2506810800000000  0.3749253500000000  0.2099387800000000   F   F   F
  0.0953184210000000  0.3749436700000000  0.2306415000000000   F   F   F
  0.1554684600000000  0.9998265000000000  0.3151553600000000   F   F   F
  0.0007500106300000  0.9999508400000000  0.3021392200000000   F   F   F
  0.3459634700000000  0.9998358899999999  0.3150959500000000   F   F   F
  0.4034767175909260  0.0045830699659790  0.4007010549096219   T   T   T
  0.2490932601339446  0.9972526596232447  0.3878572665466157   T   T   T
  0.1006211596728229  0.9996022154367062  0.4012326990091763   T   T   T
  0.1493253372422151  0.0004017133633085  0.4851651923618031   T   T   T
  0.9996559322310680  0.9995076813121216  0.4736425554904605   T   T   T
  0.3540240271109683  0.0056999735345503  0.4856377304653128   T   T   T
  0.4109242910379198  0.9993359940223796  0.5688480402598516   T   T   T
  0.2525307644213964  0.0085409852992574  0.5560227608431818   T   T   T
  0.0918349904655672  0.0019388234494353  0.5659079566839114   T   T   T
  0.4064780600000000  0.4998902900000000  0.2308217600000000   F   F   F
  0.2506866500000000  0.4999102900000000  0.1769135900000000   F   F   F
  0.0948832700000000  0.4998552400000000  0.2308763400000000   F   F   F
  0.1535410300000000  0.6248287500000000  0.3152865800000000   F   F   F
  0.0007340530900000  0.6247488300000000  0.3014576400000000   F   F   F
  0.3478665500000000  0.6248337200000000  0.3153056900000000   F   F   F
  0.4046652242406337  0.6210776636878110  0.4035958517027314   T   T   T
  0.2536372910281326  0.6229993839012489  0.3851286519048779   T   T   T
  0.0942951459361453  0.6258334695645710  0.4015547888194865   T   T   T
  0.1599408744777970  0.6263402709000137  0.4880493815824311   T   T   T
  0.0083965468500323  0.6196163507484429  0.4734776893869429   T   T   T
  0.3519549729384241  0.6304631792243125  0.4855965366934406   T   T   T
  0.4021980238030919  0.6275157346849159  0.5642601295455724   T   T   T
  0.2452848729497980  0.6229533916260873  0.5651910669842357   T   T   T
  0.1015265998489440  0.6320091573893118  0.5698960592426199   T   T   T
  0.4061210100000000  0.6247917600000000  0.2305300300000000   F   F   F
  0.2506637400000000  0.6248406700000000  0.2098713100000000   F   F   F
  0.0953230870000000  0.6247882100000000  0.2305635700000000   F   F   F
  0.1534303500000000  0.7496965300000000  0.3155732800000000   F   F   F
  0.0007065687100000  0.7498048400000000  0.3013667700000000   F   F   F
  0.3481420300000000  0.7497941600000000  0.3156489500000000   F   F   F
  0.4006564918868633  0.7516158267431947  0.4051380379824506   T   T   T
  0.2516580717996995  0.7453459065889034  0.3892743222512025   T   T   T
  0.1003205035065173  0.7503567769446224  0.4012889275257359   T   T   T
  0.1552879774255570  0.7542909509940423  0.4902989134519181   T   T   T
  0.0021942182390913  0.7492783596071909  0.4748423514028632   T   T   T
  0.3492982032099460  0.7547309277152040  0.4892604651311533   T   T   T
  0.3991356067284863  0.7512758372204796  0.5678478859714978   T   T   T
  0.2513025862423567  0.7552119715756440  0.5581271997454379   T   T   T
  0.0988619249351242  0.7501846544284750  0.5726583150846853   T   T   T
  0.4065530200000000  0.7496815900000000  0.2311373200000000   F   F   F
  0.2506590500000000  0.7495208200000000  0.1761698800000000   F   F   F
  0.0949758720000000  0.7496250600000000  0.2311332600000000   F   F   F
  0.1543948700000000  0.8746720200000000  0.3153958900000000   F   F   F
  0.0007077848500000  0.8745645100000000  0.3018684600000000   F   F   F
  0.3471126500000000  0.8746048500000000  0.3154443700000000   F   F   F
  0.4032679656306049  0.8778825451818205  0.4048017661277908   T   T   T
  0.2558351644765415  0.8729112204826903  0.3833447435057180   T   T   T
  0.1023198716194836  0.8721546229790041  0.4028960277787125   T   T   T
  0.1591819097248395  0.8738307248150408  0.4863909350807801   T   T   T
  0.0025405641004827  0.8811997677853505  0.4740030558271010   T   T   T
  0.3483030067826381  0.8778466350039512  0.4864925637142370   T   T   T
  0.4105661692296277  0.8750582415540152  0.5730051727985876   T   T   T
  0.2546963457395498  0.8819069609196493  0.5573650136161117   T   T   T
  0.0942470565755673  0.8810107580970866  0.5676252474234625   T   T   T
  0.4066672700000000  0.8741024600000000  0.2311989000000000   F   F   F
  0.2507014600000000  0.8741357900000000  0.2075664300000000   F   F   F
  0.0947564150000000  0.8741549600000000  0.2312057600000000   F   F   F
  0.1532559500000000  0.4998058300000000  0.3153459700000000   F   F   F
  0.0007278354500000  0.4999587800000000  0.3011909700000000   F   F   F
  0.3480843300000000  0.4998844200000000  0.3153267400000000   F   F   F
  0.4045487510378531  0.5034467075482627  0.4009906138475278   T   T   T
  0.2512546143405167  0.4989786397518919  0.3824948669010397   T   T   T
  0.0986423301771111  0.4972135053200576  0.3999643350513096   T   T   T
  0.1552910147794756  0.4963934591136395  0.4877840823892513   T   T   T
  0.0035317236927853  0.4977519790004912  0.4721694171207535   T   T   T
  0.3446320567333487  0.5015998220119476  0.4861607390851231   T   T   T
  0.3966837847820173  0.5021962128945801  0.5675339141303302   T   T   T
  0.2421796317302953  0.4997752005077503  0.5582059066828153   T   T   T
  0.0938148477315112  0.5038949679866771  0.5694106469817526   T   T   T
  0.9077836000000000  0.9998990200000000  0.2313870700000000   F   F   F
  0.7507388800000000  0.9999744300000000  0.1970909700000000   F   F   F
  0.5936943700000000  0.9999039700000000  0.2314138100000000   F   F   F
  0.6543198300000000  0.1250093800000000  0.3154740500000000   F   F   F
  0.5006922400000000  0.1251648600000000  0.3019838100000000   F   F   F
  0.8471093400000000  0.1250724800000000  0.3155020500000000   F   F   F
  0.9007896885285388  0.1243011082792633  0.4033809877002026   T   T   T
  0.7539622353388030  0.1202360954919001  0.3847681066033388   T   T   T
  0.6035671054929401  0.1226791197376223  0.4024977251815390   T   T   T
  0.6583523984419117  0.1209666650231186  0.4870330288203107   T   T   T
  0.4978967468201464  0.1330649862757154  0.4741968727456958   T   T   T
  0.8433706160446267  0.1242829787517876  0.4877463410599737   T   T   T
  0.9077279578372123  0.1238268544416707  0.5718765715994619   T   T   T
  0.7540429350965975  0.1329039441303738  0.5606283340112960   T   T   T
  0.6016763384913284  0.1266985194317420  0.5729526303706426   T   T   T
  0.9067514100000000  0.1256361500000000  0.2312994000000000   F   F   F
  0.7507374900000000  0.1255531800000000  0.2078075000000000   F   F   F
  0.5946528400000000  0.1255910900000000  0.2313014500000000   F   F   F
  0.6534034600000000  0.2500252100000000  0.3156171000000000   F   F   F
  0.5006870500000000  0.2498926300000000  0.3015112200000000   F   F   F
  0.8481442400000000  0.2499176100000000  0.3157031600000000   F   F   F
  0.9012597013585398  0.2464129746136040  0.4013949189167861   T   T   T
  0.7575162907017362  0.2498630903397751  0.3895442677439419   T   T   T
  0.6056628842878242  0.2496007614366102  0.4019216746079466   T   T   T
  0.6545352289389129  0.2504686192027479  0.4882197050534741   T   T   T
  0.5071510295499491  0.2550059692624677  0.4711834112737798   T   T   T
  0.8522977029684431  0.2519565655909941  0.4892335695309795   T   T   T
  0.9059065549918878  0.2504923838922175  0.5741780193220781   T   T   T
  0.7510995751372673  0.2521296265689101  0.5600041225896391   T   T   T
  0.6015486551695206  0.2495155475819194  0.5712484533550471   T   T   T
  0.9065492200000000  0.2500577300000000  0.2312520300000000   F   F   F
  0.7506360700000000  0.2501379600000000  0.1764981700000000   F   F   F
  0.5949652300000000  0.2500789800000000  0.2311874100000000   F   F   F
  0.6535588500000000  0.3748514900000000  0.3152582400000000   F   F   F
  0.5006924100000000  0.3750181100000000  0.3014763000000000   F   F   F
  0.8479591800000000  0.3749093900000000  0.3152995500000000   F   F   F
  0.8998253412914146  0.3747601277600972  0.4032295425738611   T   T   T
  0.7528250454523031  0.3740134934928940  0.3853820522756441   T   T   T
  0.6026364738378204  0.3767213334038405  0.4015173415580836   T   T   T
  0.6567423146791088  0.3773763584544476  0.4880230961680200   T   T   T
  0.5028551142439621  0.3754877571853549  0.4737671683173602   T   T   T
  0.8553914408651920  0.3730743524242945  0.4871129155641493   T   T   T
  0.9135067892874562  0.3734790989920961  0.5736050784862202   T   T   T
  0.7450322618962431  0.3751203810841805  0.5631389686357813   T   T   T
  0.5980850300992807  0.3778068687627935  0.5675404682417743   T   T   T
  0.9060357700000000  0.3749557700000000  0.2305758400000000   F   F   F
  0.7506692100000000  0.3749203900000000  0.2097856000000000   F   F   F
  0.5952636800000000  0.3749448100000000  0.2305528000000000   F   F   F
  0.6554505400000000  0.9998342300000000  0.3151063500000000   F   F   F
  0.5007275900000000  0.9997557400000000  0.3021174300000000   F   F   F
  0.8459707500000000  0.9998374200000000  0.3150943800000000   F   F   F
  0.9004365198997769  0.0010995822846445  0.4022607144867230   T   T   T
  0.7484939243899311  0.9987287503633585  0.3851193928194713   T   T   T
  0.5987301044079762  0.0006490612061256  0.4037851485234271   T   T   T
  0.6509938301976047  0.0030366599186813  0.4898435537376442   T   T   T
  0.5044561842197685  0.9993731014430960  0.4720037349570286   T   T   T
  0.8470069692275197  0.9993962687082749  0.4893914722899423   T   T   T
  0.9077313966001629  0.9970258279198245  0.5722502001386736   T   T   T
  0.7557040102460653  0.0083276284198161  0.5578785886415100   T   T   T
  0.5973626178784628  0.0020426648262374  0.5719622623468686   T   T   T
  0.9065126300000000  0.4998488200000000  0.2308086700000000   F   F   F
  0.7506084200000001  0.4999185800000000  0.1769078000000000   F   F   F
  0.5948952400000000  0.4999124200000000  0.2308177500000000   F   F   F
  0.6536742800000001  0.6248391599999999  0.3152260700000000   F   F   F
  0.5007420600000000  0.6248227300000000  0.3014599800000000   F   F   F
  0.8480172499999999  0.6249183200000000  0.3152555200000000   F   F   F
  0.9033533168400900  0.6259607255703588  0.4030009247553782   T   T   T
  0.7540417857914402  0.6200090325402096  0.3895928637521437   T   T   T
  0.6018746939432598  0.6236212712236074  0.3996550432518143   T   T   T
  0.6556298845504532  0.6283732139650040  0.4839920868383401   T   T   T