Ta  N Cu                                
   1.00000000000000     
    18.1096308199999996    0.0000000000000000    0.0000000000000000
     0.0000000000000000   23.3551997799999995    0.0000000000000000
     0.0000000000000000    0.0000000000000000   30.4818170799999990
   Ta   N    Cu
   240   240     3
Direct
 -0.0000010157041751 -0.0000098410804538  0.1973283500451889
  0.3342440919046073  0.0624877437113846  0.2025787337026336
  0.1658398270873930  0.0624609649421254  0.2025519266310000
  0.2500346056917132  0.1249585502266784  0.2779011120600601
  0.0827783733074520  0.0624593618608986  0.2838955266493083
  0.4172279401228768  0.0624847780079145  0.2839393399001646
  0.9999849796220526  0.1249451986825487  0.3695315237259467
  0.3321472556480513  0.0624502873198720  0.3683195938216450
  0.1678884662647396  0.0624455152041660  0.3682811688360050
  0.2500132242560005  0.1249767351334553  0.4556686387476039
  0.0839057717238368  0.0624299462497773  0.4541815120946143
  0.4160969536075730  0.0624387975567245  0.4542614090213548
  0.9999730447679916  0.1250198562167928  0.5404889455220571
  0.3351933066710567  0.0623534111966741  0.5425552033841083
  0.1648573341342110  0.0624644259495208  0.5424925110360245
  0.0000070395080139  0.1249759814003262  0.1973290309670964
  0.3342031257795714  0.1875001592275978  0.2026041964696072
  0.1658759924003871  0.1874731587557495  0.2025720601884244
  0.2500567394242385  0.2499663512713950  0.2779139439928354
  0.0827688898676608  0.1874453102720035  0.2838712286887195
  0.4172108114519827  0.1874962867809368  0.2839655142359510
 -0.0000321790844512  0.2499070258932970  0.3695024992382744
  0.3321563041253777  0.1874690946418995  0.3683517855272015
  0.1678942242423749  0.1874324532688105  0.3682443609897286
  0.2499492201794535  0.2499649329591219  0.4556488499891105
  0.0838021456996777  0.1873703978224913  0.4541360247350652
  0.4161022182324809  0.1874170111940178  0.4543216380908404
  0.9999485138415992  0.2499646512854714  0.5404580220386133
  0.3352027853682222  0.1871347454716503  0.5425067310996858
  0.1646777932895522  0.1875075706419677  0.5423767386822419
  0.9999940470181184  0.2499742793271251  0.1973259280143360
  0.3342396316886492  0.3124957510893435  0.2025905441789817
  0.1658852761114857  0.3124989222903353  0.2025864907908458
  0.2500764650923550  0.3749772998509810  0.2779135355668721
  0.0827777392797924  0.3124643513435097  0.2838586120267325
  0.4171994268865755  0.3124915614229150  0.2839912341368837
 -0.0000057934521418  0.3749873677158616  0.3695028625883683
  0.3321599662225529  0.3124726388334827  0.3684263256443517
  0.1678861152973359  0.3124369825313399  0.3682342171309124
  0.2498785885517194  0.3750101669468569  0.4556422121164964
  0.0837935176794799  0.3123288623105671  0.4540637192852121
  0.4161540540289451  0.3124175632980675  0.4543820325990630
  0.9999433912096778  0.3749811993855773  0.5402175574427979
  0.3336678084477243  0.3116270384859477  0.5425506211377213
  0.1639164025874325  0.3127335113392421  0.5422542968136368
 -0.0000032067437716  0.3749925800809296  0.1973227049844681
  0.3342848346827167  0.4374995048879408  0.2025673437259637
  0.1658615166389164  0.4374896648345127  0.2025617089563893
  0.2500211056163173  0.9999718309164116  0.2778971758633544
  0.0827677169845156  0.4374819563001048  0.2838325924415523
  0.4172056396186093  0.4374720325179775  0.2840172559392794
  0.9999785679800354  0.9999687859280478  0.3695494653455952
  0.3323697883361376  0.4374759283539748  0.3685121051843600
  0.1679097985730934  0.4374575424847573  0.3681966262072011
  0.2500406272414469  0.9999625322505327  0.4556770357127283
  0.0836483164525054  0.4374314973300273  0.4540465952654858
  0.4162396037247473  0.4374815591563184  0.4544796098706383
 -0.0000053763931327  0.9999352101697055  0.5405428778610670
  0.3311641886155119  0.4376629096778547  0.5408095039375598
  0.1632242844293449  0.4374802172638254  0.5421008023958999
  0.0000046019963228  0.4999706135451505  0.1973281317665967
  0.3342534374865060  0.5624945364365515  0.2025891062113803
  0.1658793178923087  0.5624891687557783  0.2025919450999815
  0.2500892026671200  0.6249821161369018  0.2779284724560168
  0.0828281051883899  0.5624988391442225  0.2838323223106179
  0.4171685648644926  0.5624642487845246  0.2839896117392356
  0.0000012865481458  0.6250323345907199  0.3694966807008607
  0.3322897274506938  0.5624382577317172  0.3684540167999345
  0.1678805169193857  0.5625061937990596  0.3682154172364342
  0.2499214607189759  0.6250884358789576  0.4556133833491664
  0.0837856589422438  0.5625980100164524  0.4540538466749383
  0.4162818807204523  0.5625178102228756  0.4544736593271169
  0.0000190306037488  0.6249689936852554  0.5403687598371238
  0.3330979893018899  0.5634577770954613  0.5419624976462050
  0.1635481987708597  0.5622350232322766  0.5421903082080420
  0.0000095620414974  0.6250604425854747  0.1973250784084718
  0.3342392745726797  0.6874769872301500  0.2025856342727908
  0.1658923569721349  0.6875003952300497  0.2025830865264536
  0.2500696131324509  0.7499917901501433  0.2779138310465891
  0.0827825590506342  0.6875224141594669  0.2838926058176868
  0.4172356195742264  0.6874528614136017  0.2839758866419709
 -0.0000018841354956  0.7500254222991467  0.3695083993305013
  0.3321738903062835  0.6874481218413812  0.3684009598521134
  0.1679312055269890  0.6875236664510628  0.3682602483313091
  0.2500372664259417  0.7499335385054819  0.4556925730285568
  0.0838673445301400  0.6876100702526832  0.4540957531767300
  0.4161578304323708  0.6875080560976171  0.4543002456303964
  0.0000056582583207  0.7499163819313432  0.5404846322486678
  0.3350605051103587  0.6878665360262016  0.5426887719523331
  0.1645962376444557  0.6872933970045061  0.5423630424228314
  0.0000160716547158  0.7500027837058644  0.1973306306467880
  0.3342264542734801  0.8124803030264072  0.2025938147074326
  0.1658597484245262  0.8125197352651317  0.2025796479375096
  0.2500422201081366  0.8749931121432724  0.2779031109217243
  0.0828013605229414  0.8125223089658957  0.2839007351553035
  0.4172287250130216  0.8124492609614263  0.2839583807489451
 -0.0000090583739948  0.8750046511699883  0.3695492305964523
  0.3322022124431991  0.8124559509309123  0.3683425117132252
  0.1679230213236592  0.8125046452488215  0.3682802383227712
  0.2500691689470368  0.8749886751018242  0.4556897834335571
  0.0839047973673482  0.8125352011743380  0.4541743361553485
  0.4160870804534193  0.8124501848367961  0.4543358060388600
 -0.0000007008458356  0.8749530476751469  0.5405323883041445
  0.3352361957681793  0.8125520955471423  0.5425855100712128
  0.1648202431530543  0.8124052536442867  0.5424874921661844
  0.0000003403047075  0.8750029506298582  0.1973299964377211
  0.3342177502558705  0.9374845128848285  0.2025769777341121
  0.1658642546779087  0.9374955253699355  0.2025611546392224
  0.2500921629541126  0.4999812828731540  0.2779255188062557
  0.0827878664390785  0.9374886567314097  0.2838914580307126
  0.4172306213176516  0.9374648576804326  0.2839290875648044
  0.0000022787469088  0.4999737862818642  0.3695023876496186
  0.3321510640880908  0.9374553412762755  0.3683077239131873
  0.1679132643684743  0.9374759931310133  0.3682831934204304
  0.2498461690339149  0.4998656696066783  0.4556009157154085
  0.0838877765107088  0.9374801825455478  0.4542147267706070
  0.4161344706846243  0.9374446320795214  0.4542661394493698
  0.9999786390574410  0.5000105050648398  0.5401578443987696
  0.3351424445546364  0.9374324214890485  0.5425431918020216
  0.1648733792690293  0.9374426088719606  0.5424801992128853
  0.4999760244917266  0.9999811017167476  0.1973291652071919
  0.8341439532479819  0.0624642403416630  0.2025609688535624
  0.6657427000005685  0.0624875436143605  0.2025790530363481
  0.7499183305142394  0.1249603492587150  0.2779070506883648
  0.5827368788081166  0.0624873329625469  0.2839344230354400
  0.9171963823403386  0.0624615204970726  0.2838972736007117
  0.4999751649310929  0.1249267010263090  0.3695963983840294
  0.8320627429595880  0.0624540257631174  0.3682844307404567
  0.6678003914086542  0.0624607466220945  0.3683225091826823
  0.7499029854169383  0.1249905042808840  0.4556741571504994
  0.5838562382214888  0.0624531372775009  0.4542691249437226
  0.9160270928154839  0.0624331678999172  0.4541785838026992
  0.4999824923217120  0.1250818855939257  0.5406201342357614
  0.8350834683818672  0.0624673149231170  0.5424882095796446
  0.6647619296628949  0.0624358536355708  0.5425650404378833
  0.4999876042628929  0.1249904809609862  0.1973396347267440
  0.8341080406208480  0.1874690706778339  0.2025756187234559
  0.6657865443355725  0.1875077027147024  0.2026054029053534
  0.7498825901622402  0.2499664699327495  0.2779182606693315
  0.5827400795855106  0.1874972425987308  0.2839652514769593
  0.9171931554125988  0.1874454190914193  0.2838725492799968
  0.4999642715110100  0.2499972143724879  0.3696494918911166
  0.8320312076128483  0.1874380319000925  0.3682442931327406
  0.6677678715718683  0.1874764731031998  0.3683620480601499
  0.7499476303828163  0.2499911126390368  0.4556696943817895
  0.5838297523078848  0.1874425444590198  0.4543397746078521
  0.9161044857296922  0.1873698199046418  0.4541375175906931
  0.4999942471147625  0.2501875269650369  0.5407748680815814
  0.8351876246748764  0.1875209751304339  0.5423868745518816
  0.6646877902436207  0.1872934995481484  0.5425475621933343
  0.4999820528032094  0.2499921716025212  0.1973520418462123
  0.8341056538831976  0.3125025526113054  0.2025828349104296
  0.6657430242336589  0.3124948457856212  0.2025906373732013
  0.7498741598350206  0.3749762535372584  0.2779130413580794
  0.5827360098155894  0.3124906422890203  0.2839892546601199
  0.9171795287684157  0.3124656789269167  0.2838575164449043
  0.4999518177667288  0.3749757625116503  0.3696621520863850
  0.8320472760941741  0.3124441726269200  0.3682278936832223
  0.6677693418628188  0.3124731087927203  0.3684268887777222
  0.7500733161029999  0.3750236164434157  0.4556238488603843
  0.5837841109487121  0.3124320738086296  0.4543948653597555
  0.9161246039842715  0.3123277702989294  0.4540483049388539
  0.5001217928827352  0.3756096158973981  0.5410571305607631
  0.8359253924906188  0.3127359041094405  0.5422567401581836
  0.6661006608605941  0.3118854965068879  0.5426746968341817
  0.4999769746732212  0.3750377924644466  0.1973570966553112
  0.8341253796374626  0.4374916893754509  0.2025573508201150
  0.6657108271638156  0.4374964734821303  0.2025665292538027
  0.7499509443487168  0.9999779308226175  0.2779008432821830
  0.5827219534913292  0.4374734471233104  0.2840047247157418
  0.9172118105930582  0.4374822967792764  0.2838273979786392
  0.4999842489053510  0.9999559728674844  0.3695767927277618
  0.8320501200594360  0.4374628108051510  0.3681765462409438
  0.6675633348750283  0.4374830541580201  0.3684665869060392
  0.7499189395645077  0.9999730788765421  0.4556793173430385
  0.5837126183080241  0.4375021311770634  0.4544063836146734
  0.9163224733012567  0.4374302346393643  0.4540328676285206
  0.5000002028982056  0.9999399610053036  0.5406041935926270
  0.8367189693767444  0.4375021049100813  0.5420857702135761
  0.6688540946174247  0.4377949164100154  0.5406646089688304
  0.4999780996686399  0.4999622162495289  0.1973514550743562
  0.8341160195552929  0.5624945399021692  0.2025849822143735
  0.6657332279350267  0.5624884825176414  0.2025859161505599
  0.7499046678035165  0.6249888932012805  0.2779154944029055
  0.5827709559719647  0.5624644631115548  0.2839729569196907
  0.9171747345799469  0.5625028238608748  0.2838228613006640
  0.4999503496579409  0.6249877884018477  0.3696331177258118
  0.8321004088698807  0.5625119974365210  0.3681887435042285
  0.6676822302893141  0.5624523189424262  0.3683962200910872
  0.7501363599165474  0.6251171684064752  0.4555486729274306
  0.5837177432547530  0.5625363787104484  0.4543733263376796
  0.9162460368203956  0.5625969964531343  0.4540379766390348
  0.4999576892660585  0.6233991704001575  0.5410491830316370
  0.8364435368738639  0.5622787268271848  0.5421306254293006
  0.6668911916350827  0.5635619807315120  0.5418579387383590
  0.4999806874842451  0.6249825035762360  0.1973494405101860
  0.8341089742272428  0.6875064893000813  0.2025769188385811
  0.6657566840886059  0.6874781571889417  0.2025841720808539
  0.7499253111515087  0.7499988060536863  0.2779066506219172
  0.5827243214477255  0.6874531704364841  0.2839665647631810
  0.9172293997528627  0.6875265632409776  0.2838823191583333
  0.4999761233342331  0.7499348337666162  0.3696138416459441
  0.8320644946305276  0.6875264982681683  0.3682380941100947
  0.6678064240236445  0.6874619001193499  0.3683632848155821
  0.7499853000243110  0.7499573262352055  0.4556694158662221
  0.5838451441043094  0.6875265970582493  0.4542495021423765
  0.9161502810752654  0.6876150791933467  0.4540894167897910
  0.4999715818491585  0.7495926463437693  0.5407819933617259
  0.8354166416142259  0.6873106480758472  0.5423490260235172
  0.6649401934335319  0.6879341889805433  0.5425844130870427
  0.4999859293241326  0.7499838390469886  0.1973446790283705
  0.8341385358495549  0.8125217139121373  0.2025776934619448
  0.6657644100141069  0.8124836093103319  0.2025947431193081
  0.7499455902926982  0.8750001327672478  0.2779019888610788
  0.5827479381997046  0.8124496104920130  0.2839509389187628
  0.9171986070713608  0.8125252872581896  0.2838964138589229
  0.4999878742715758  0.8749789002921678  0.3695811233871991
  0.8320679625234175  0.8125113611090138  0.3682759874789546
  0.6677864831897184  0.8124689046650161  0.3683251849527386
  0.7499174947700202  0.8749979432750867  0.4556903333335630
  0.5838903872240081  0.8124639558289126  0.4543194217986948
  0.9160858456671243  0.8125400286355857  0.4541702224610978
  0.4999906460457433  0.8748325830552917  0.5406357863170318
  0.8351500383726410  0.8124212003609570  0.5424919817307370
  0.6647516741972309  0.8126015699902354  0.5425754329787028
  0.4999751171480805  0.8749942564174424  0.1973305721839332
  0.8341353087634238  0.9375001442385498  0.2025626144489721
  0.6657756406581066  0.9374847541139828  0.2025772781969883
  0.7498825118166713  0.4999836684018346  0.2779123185255314
  0.5827417578576982  0.9374678500158790  0.2839202667684559
  0.9171952574890013  0.9374923680572976  0.2838920758373369
  0.4999344257902240  0.4999266967746764  0.3696448399322298
  0.8320593303959408  0.9374815058654182  0.3682848937862974
  0.6678214276675759  0.9374638894033044  0.3683022906707525
  0.7502230631599738  0.4999004820317360  0.4555137732519247
  0.5838346784099413  0.9374581838165127  0.4542662208421132
  0.9160755660415760  0.9374827283618704  0.4542145060515180
  0.5000053530748001  0.4989929653476649  0.5410405776370616
  0.8351136749872010  0.9374574260836563  0.5424813049665544
  0.6648369223979073  0.9374947454769655  0.5425414089659210
  0.4056241678386295 -0.0000110802091820  0.2322040063907039
  0.2500705028247179 -0.0000046362398330  0.1991854938690482
  0.0944064697421750  0.9999866386174975  0.2321654630222914
  0.1549272037922809  0.1249505240329306  0.3156553321873349
  0.9999860602552252  0.1249503290571888  0.3028575767180009
  0.3451101633129868  0.1249802276320799  0.3157286706223778
  0.4009516906902988  0.1249536680503675  0.4020348078598447
  0.2500109333702826  0.1249611738283920  0.3875826339441082
  0.0990674671878050  0.1249195709824990  0.4019294585548250
  0.1513939439924734  0.1249489715515264  0.4875895174314366
  0.9999604893657243  0.1248799196646943  0.4723152802509220
  0.3486184497962235  0.1249131026768177  0.4877078504111765
  0.4030887706157767  0.1249712314296790  0.5702374479425186
  0.2499926652042832  0.1250748118851167  0.5576349389556874
  0.0968828762260871  0.1249942045054384  0.5700266449483677
  0.4056307163602495  0.1250062294405600  0.2322115434172535
  0.2500478520239620  0.1249658393020424  0.1992231847265036
  0.0944175741109590  0.1249553427875330  0.2321472808965518
  0.1549140083416547  0.2499268345747620  0.3156331943324559
  0.9999800235438743  0.2499622505273213  0.3028335901968907
  0.3450864459566594  0.2499900472727404  0.3157619462443105
  0.4009863139759138  0.2499880167090726  0.4021216081423512
  0.2500042050410813  0.2499292835775703  0.3875662698466062
  0.0990553738200213  0.2498798704443951  0.4018730533051582
  0.1513191808952592  0.2498099384595033  0.4875412980769019
  0.9999482225768002  0.2498389027612672  0.4722382849574010
  0.3485450476113160  0.2499519254844904  0.4877357729094072
  0.4028558994637270  0.2502449775865357  0.5703058138907269
  0.2500178708421523  0.2504340172049237  0.5574761536397317
  0.0967274379570582  0.2498472619916893  0.5700894330404515
  0.4056393772547067  0.2500149667270377  0.2322294127602448
  0.2500311135792775  0.2499995374093392  0.1991788449198152
  0.0944032558084279  0.2499635479120944  0.2321240861481479
  0.1549536183088701  0.3749722748669786  0.3156435003085977
  0.9999861086858286  0.3749687555262226  0.3028294686179627
  0.3451010248332891  0.3749710705448277  0.3157897676568549
  0.4010034072954772  0.3749460954097527  0.4021813623559699
  0.2500435653256324  0.3749736015530984  0.3876066267556583
  0.0990913571115798  0.3749237717205102  0.4018134014688117
  0.1510837495009489  0.3748047036741867  0.4875243030807088
  0.9999651677397431  0.3748105906440227  0.4719960466804099
  0.3486933684252871  0.3746845513599035  0.4879402474023461
  0.4008331362444579  0.3749439914488545  0.5715472811437435
  0.2485944889036175  0.3750494536854764  0.5578421809652910
  0.0961374327258955  0.3748364663547658  0.5702210001627627
  0.4056389830957522  0.3750055969283866  0.2322441292345157
  0.2500678782348891  0.3750001156527789  0.1992679561851657
  0.0944097811537100  0.3749882324518387  0.2321365734297733
  0.1549199323766699  0.9999669111382786  0.3156691382256617
  0.9999889995901803  0.9999743381359246  0.3028702120822901
  0.3451098499724043  0.9999722296823109  0.3157023886217415
  0.4009481725893625  0.9999436785717225  0.4020125516775860
  0.2500249868641942  0.9999539391744325  0.3875951792677954
  0.0990600577801557  0.9999551230580499  0.4019536715454255
  0.1514260516225034  0.9999682187487315  0.4876500012733311
  0.9999759185304770  0.9999629110994379  0.4723627513579576
  0.3486347946227655  0.9999346947280608  0.4876859093670977
  0.4031015387829549  0.9999351101855616  0.5701906423445016
  0.2500198603826174  0.9999783955416416  0.5576489107887617
  0.0968921718229617  0.9999772674481620  0.5701008270288430
  0.4056471115978745  0.4999641587951642  0.2322490745273403
  0.2500707644346822  0.4999833566412024  0.1993010643882774
  0.0944189615259881  0.4999778897314164  0.2321220889261475
  0.1549476206236002  0.6250293315295719  0.3156400986612713
  0.0000009142881445  0.6249893651621213  0.3028297253141385
  0.3451073162673660  0.6249740809125820  0.3157675187506967
  0.4009927061010000  0.6249410772029336  0.4021265066793541
  0.2500469728542140  0.6249794264504691  0.3875583231866702
  0.0991019652114354  0.6250884479747890  0.4018482220397686
  0.1512898273840593  0.6251899352355692  0.4875553226471708
  0.0000150660224585  0.6251319441604216  0.4721277605769990
  0.3485781870724285  0.6252898037133265  0.4877665134423547
  0.4026968880055509  0.6241088135935640  0.5707294147600591
  0.2495390764557166  0.6246653672329326  0.5576831432000662
  0.0965789707265754  0.6250698282960392  0.5701687429466088
  0.4056439402608212  0.6249642238028912  0.2322291636836309
  0.2500543123633934  0.6249827126754497  0.1991986161418675
  0.0944185847581695  0.6250289955376079  0.2321311855163819
  0.1549567697075207  0.7500301790986201  0.3156600418533546
  0.0000027112904717  0.7500337022430568  0.3028474390537313
  0.3451266421559502  0.7499385620909801  0.3157672136775531
  0.4010004489534579  0.7499579973406660  0.4021118192682303
  0.2500304619077689  0.7499971907705525  0.3875994267627595
  0.0990794588733013  0.7500375306468726  0.4019135296591098
  0.1514088440554917  0.7500306354282235  0.4875864140210205
 -0.0000011704823278  0.7501028293530527  0.4722896375379109
  0.3486373553010654  0.7499618368899901  0.4878027041776635
  0.4031010112671720  0.7497414464808597  0.5704284123426344
  0.2500873655070330  0.7497573995451148  0.5576231539763485
  0.0968832954791462  0.7499588119203020  0.5700581782138097
  0.4056430090967185  0.7499494232812741  0.2322282697262517
  0.2500482056987821  0.7499986740105407  0.1992346798731532
  0.0944182627096606  0.7500220140275886  0.2321543104306736
  0.1549418841579918  0.8749989934289012  0.3156716427050800
 -0.0000050861170486  0.8750097055559922  0.3028706486579483
  0.3451296171973842  0.8749514599534334  0.3157183750577120
  0.4009845212386219  0.8749445800804718  0.4020312111711261
  0.2500501379642068  0.8749777888551725  0.3876047566685187
  0.0990807491993062  0.8750139193990514  0.4019531642834338
  0.1514460036305896  0.8749708487674394  0.4876373615864285
  0.9999889442678171  0.8750110882512809  0.4723528170001127
  0.3486452079841619  0.8749595854273035  0.4877166512862504
  0.4031136862113929  0.8749157795400612  0.5702454924664292
  0.2500446004584427  0.8748619078749406  0.5576483663870643
  0.0969182229748179  0.8749204533414340  0.5700839571926398
  0.4056295401521413  0.8749569354139662  0.2322082427424481
  0.2500637430216375  0.8749871974255680  0.1991990701503136
  0.0944007582112453  0.8750035131070889  0.2321583598149812
  0.1549578025491462  0.4999667130741440  0.3156389659996569
 -0.0000066745053033  0.5000042058876882  0.3028199375260433
  0.3450946082442211  0.4999501705015063  0.3157972047691787
  0.4009712166155134  0.4999715527570647  0.4021642802544955
  0.2500498226549036  0.4999644550760988  0.3876248136220735
  0.0991165088758939  0.4999728668188501  0.4017919771637606
  0.1510160847435315  0.5000137926477487  0.4874760187241431
 -0.0000004415548040  0.5000565017306784  0.4719361404620833
  0.3488010325900241  0.5001435162339989  0.4877750096290585
  0.3978693269168616  0.5004678837893933  0.5709257172064046
  0.2481092675980885  0.4999368234489782  0.5575097199599077
  0.0960666843840416  0.4999854750747765  0.5702217230415759
  0.9055965883378067  0.9999891084476458  0.2321638462249834
  0.7499227108833464 -0.0000016306879714  0.1991863879242617
  0.5943474226446334 -0.0000100456771097  0.2321952368596178
  0.6548381434748550  0.1249860123727604  0.3157353475891624
  0.4999807418096421  0.1250014591653157  0.3029184198912960
  0.8450300094884302  0.1249537359711449  0.3156536994871633
  0.9008843824956989  0.1249248194303823  0.4019256623153064
  0.7499284752168757  0.1249695208916370  0.3875928827615347
  0.5989917945471951  0.1249677791412277  0.4020476392032243
  0.6513042771287029  0.1249655283351096  0.4877332654810032
  0.4999672974130586  0.1249855338230698  0.4724711122473080
  0.8485206165775615  0.1249513652721902  0.4875920303406535
  0.9030440133335280  0.1250181543561981  0.5700128026529915
  0.7499175950385464  0.1251299583762248  0.5576468531739812
  0.5968528736058066  0.1250284965994258  0.5702594676404422
  0.9055884103143574  0.1249551550586653  0.2321437725949695
  0.7499391134745541  0.1249673651663362  0.1992285946231094
  0.5943471461030645  0.1250075837684207  0.2322074967440161
  0.6548497252076579  0.2499899198483440  0.3157663110950717
  0.4999711316631881  0.2500046924571765  0.3029595274431078
  0.8450351744200264  0.2499268372137957  0.3156302844429543
  0.9008748555836369  0.2498747116832321  0.4018674207479450
  0.7499262906216196  0.2499369504208720  0.3875774297558970
  0.5989436504861362  0.2499973042324329  0.4021351152869627
  0.6513518706453375  0.2500368799715340  0.4877880692625813
  0.4999567628726154  0.2500771408986692  0.4726016461849299
  0.8485786949142535  0.2498176903389665  0.4875445722680639
  0.9031422767227334  0.2498488309883073  0.5700902895431446
  0.7498241956233805  0.2505262333984680  0.5574905040834611
  0.5970427030085139  0.2503865684538509  0.5704113987974031
  0.9055768365098521  0.2499648039278657  0.2321220242756838
  0.7499641169960106  0.2500018353087991  0.1991859534314302
  0.5943263534350847  0.2500160951074097  0.2322263387081953
  0.6548347166757138  0.3749711744696373  0.3157756147686815
  0.4999665254714604  0.3749688080894873  0.3029783054636126
  0.8450061702880883  0.3749731913531171  0.3156343789520658
  0.9008611638621099  0.3749263258292490  0.4017976623168774
  0.7498852884774159  0.3749833709598645  0.3875883144116984
  0.5989252371190505  0.3749466472116309  0.4021579700498601
  0.6512401798766363  0.3747195359764669  0.4879411459485766
  0.4999887952001602  0.3748463708053934  0.4730006753406406
  0.8488536444820987  0.3748074598099074  0.4875098863850000
  0.9037622854665075  0.3748446164212012  0.5702171133098575
  0.7513401701541188  0.3750598606986442  0.5578396737385014
  0.5990206858639724  0.3756486718538968  0.5717718392034825
  0.9055807756538167  0.3749896154140922  0.2321318668702659
  0.7499205699221836  0.3749990438247089  0.1992774482076579
  0.5943264446633810  0.3750042457455446  0.2322337259469038
  0.6548555765589126 -0.0000219149991827  0.3157005082620319
  0.4999873998473994  0.9999761370859177  0.3029056939935137
  0.8450550216707626  0.9999733380517998  0.3156707928287231
  0.9008988363467139  0.9999627151583288  0.4019545727149325
  0.7499379183710371  0.9999632247160811  0.3875944289686916
  0.5990212048308912  0.9999531215238832  0.4020160734527592
  0.6513296751444545  0.9999643924090731  0.4876908635228718
  0.4999829071715133  0.9999509010535161  0.4724570382541430
  0.8485299445385365  0.9999714276830075  0.4876515723041984
  0.9030854918758007 -0.0000010446949405  0.5700933003152915
  0.7499528096801349  0.0000085449464706  0.5576521215647753
  0.5968830622050944  0.9999743794888720  0.5701955546013410
  0.9055727554681151  0.4999791139282855  0.2321161248973460
  0.7499244607900254  0.4999898610463142  0.1992975988759478
  0.5943205156280903  0.4999638705346853  0.2322347523052797
  0.6548576623708650  0.6249837250608510  0.3157325194720176
  0.4999771102781301  0.6249311405679162  0.3029473011156495
  0.8450590531579502  0.6250359949615824  0.3156204206720136
  0.9008920975206299  0.6250879717245610  0.4018366167388400
  0.7499405131671705  0.6249964549787336  0.3875043679380214
  0.5989529859006624  0.6249604320964578  0.4020676288882917
  0.6514756005017004  0.6253151868763355  0.4876325876437582
  0.5000129692973917  0.6250198993148666  0.4727510250873097
  0.8487431505308445  0.6252036805111999  0.4875306832880048
  0.9034608950448896  0.6250832664263158  0.5701423045187970
  0.7504897739616594  0.6247274047107749  0.5576087902329289
  0.5973681859273836  0.6242348969621461  0.5704894798948714
  0.9055851475289188  0.6250340341019226  0.2321220554202746
  0.7499450091831197  0.6249868501101408  0.1991954110889228
  0.5943286715291979  0.6249651172988286  0.2322164207022636
  0.6548520556561508  0.7499520865286325  0.3157460120651708
  0.4999875493492084  0.7499425001407961  0.3029284526195624
  0.8450476822417882  0.7500368625058446  0.3156479832963769
  0.9009101533983304  0.7500432288157673  0.4019055787330229
  0.7499554779204500  0.7500061102705441  0.3875770850329308
  0.5989727695511219  0.7499794389775705  0.4020805709395970
  0.6513697171690648  0.7500053464694981  0.4877551108522638
  0.4999973132523639  0.7497276938394167  0.4726796296439650
  0.8486008951257872  0.7500462294668880  0.4875816505782727
  0.9031332198679710  0.7499782271722626  0.5700587665475345
  0.7499290280367501  0.7498166079773727  0.5576171001649683
  0.5968687507275130  0.7497789097945978  0.5703633191678416
  0.9055962447181078  0.7500272775484078  0.2321448640563917
  0.7499463241559277  0.7500020292494415  0.1992360712363767
  0.5943396202371987  0.7499523983611395  0.2322185088453553
  0.6548502046755499  0.8749610769385111  0.3157092582605991
  0.4999904486960182  0.8749569229361459  0.3029075271806492
  0.8450486382123348  0.8750047542006129  0.3156704930128711
  0.9008998343890259  0.8750186080562105  0.4019523594034700
  0.7499297397430990  0.8749879862618282  0.3876036984111791
  0.5989933889149106  0.8749555859551412  0.4020259588774582
  0.6513337911535709  0.8749813275523103  0.4877103527874094
  0.4999886120079949  0.8749257126184226  0.4724875551332406
  0.8485386188096146  0.8749713211766545  0.4876382709003013
  0.9030902335571747  0.8749311125866714  0.5700760193420514
  0.7499461411155168  0.8748966477091447  0.5576460750012898
  0.5968713375117358  0.8749509782245811  0.5702414264395842
  0.9055962130033713  0.8750066482709282  0.2321566961480423
  0.7499351392357653  0.8749899074746106  0.1991972428397053
  0.5943430129232307  0.8749605631583104  0.2321966015536039
  0.6548522892507015  0.4999532936300375  0.3157598441270808
  0.4999667243072438  0.4999868200987179  0.3029869156698243
  0.8450297556229859  0.4999690644553629  0.3156189076291246
  0.9008608086733662  0.4999767275600174  0.4017778956166388
  0.7499163090839599  0.4999695525491202  0.3875540605602048
  0.5989450356587119  0.4999872757390862  0.4020976031828081
  0.6513003034201773  0.5002156210913371  0.4875693188712923
  0.5000126784713670  0.4999466558509119  0.4728432101120869
  0.8490150143031157  0.5000313108754317  0.4874453099259640
  0.9038921494874442  0.5000062916200619  0.5702014049772440
  0.7519084592645060  0.4999948881216908  0.5574125677521821
  0.6022289257983789  0.5005172209514993  0.5703364789929620
  0.5666290368625111  0.4386259290736804  0.6115398480374725
  0.4323435381385325  0.4358642619416749  0.6117248088494074
  0.4942565981246436  0.5249894675052511  0.6268138097629249
 
  0.00000000E+00  0.00000000E+00  0.00000000E+00
  0.00000000E+00  0.00000000E+00  0.00000000E+00
  0.00000000E+00  0.00000000E+00  0.00000000E+00
  0.00000000E+00  0.00000000E+00  0.00000000E+00