Ta Ru N Cu                              
   1.00000000000000     
    18.1096308199999996    0.0000000000000000    0.0000000000000000
     0.0000000000000000   23.3551997799999995    0.0000000000000000
     0.0000000000000000    0.0000000000000000   28.4818170799999990
   Ta   Ru   N    Cu
   240    64   240    29
Direct
  0.0007906058566268  0.9951441759306373  0.2124931800360008
  0.3267718934153556  0.0626625532678055  0.2151050993340701
  0.1692595660494508  0.0638300971471785  0.2218654895496196
  0.2467910786797499  0.1237329129384249  0.3012427308449762
  0.0799384043243406  0.0638421396042468  0.3042717820328597
  0.4152716169818890  0.0628638136716700  0.3018899452405328
  0.0019104633061538  0.1216099492045620  0.3925181270441155
  0.3338682469570702  0.0600043231142480  0.3953269455006824
  0.1689550477983781  0.0627662762874152  0.3938826124199117
  0.2448965569739413  0.1257228464988693  0.4866094599514388
  0.0782896172232794  0.0621805216698127  0.4869260606768618
  0.4121013610746611  0.0633584455134115  0.4866750070834219
  0.5006523509790293  0.1234924610915454  0.5791267526597746
  0.3309284955337394  0.0602245731849952  0.5794676583323928
  0.1651331970111058  0.0615022140101406  0.5817364621853857
  0.9977973321415330  0.1279681551516255  0.2113719753028687
  0.3337838786025181  0.1873573411279542  0.2175131165322616
  0.1688587353564996  0.1835754265402536  0.2194738593726747
  0.2464605856409703  0.2482272170950376  0.3009093022328885
  0.0785677002875395  0.1888769710771909  0.3051376860801963
  0.4160969546131970  0.1863286007386851  0.3033477545164838
  0.9979410228809442  0.2473704739542134  0.3979603089872613
  0.3331890127024160  0.1870044706650615  0.3917479235811593
  0.1666782983532910  0.1866755156053329  0.3925225416886277
  0.2481786089593395  0.2498109116107463  0.4867281384000486
  0.0822984089927391  0.1853919674851201  0.4880284866736366
  0.4122089826693692  0.1896513778735191  0.4789871263611604
  0.4987224761548187  0.2499885096178502  0.5788542286796098
  0.3302997216158537  0.1833448605844298  0.5724944414645028
  0.1662670889796780  0.1836915647789645  0.5815303490155095
  0.9920158398674205  0.2494689384648336  0.2121545592406041
  0.3368005956860951  0.3140929037744610  0.2178894677033817
  0.1639279397617826  0.3122728702552380  0.2189237277544892
  0.2445800651373818  0.3734574563994925  0.2935955540618620
  0.0785727134527145  0.3160043331338387  0.3062337878687871
  0.4148573334471226  0.3122211357883937  0.3036731159882378
  0.0006473258520326  0.3753756515597688  0.3977398538861805
  0.3339534205284046  0.3117349080700784  0.3977932888846043
  0.1664141103540803  0.3113970073134452  0.3931930346410251
  0.2493771499628152  0.3723863585991659  0.4903165401475731
  0.0811676332350828  0.3097989381527675  0.4898430075007594
  0.4161004054153118  0.3134466069032110  0.4851254383858020
  0.5029966521351614  0.3701064350191463  0.5820555818722514
  0.3313479052366675  0.3134599441047816  0.5787041339382404
  0.1671050464712394  0.3063537188953042  0.5789911305792290
  0.9982003570167207  0.3744163912311022  0.2077413588505480
  0.3314640155472854  0.4325777895760599  0.2154500045339910
  0.1653481233272695  0.4356255811200864  0.2175640376064958
  0.2482466742166001  0.0016598992817561  0.3025415929095957
  0.0839997208235292  0.4399679028488051  0.3017629850449977
  0.4114583718177876  0.4364240217500496  0.3053052021927132
  0.5027769389324677  0.4967658233416227  0.3975432029318081
  0.3327999742500501  0.4352806122593160  0.3955756886527156
  0.1703653346284876  0.4396551922680866  0.3933584076815256
  0.2476936104986512  0.4997652203769009  0.4911846940686835
  0.0872511711632066  0.4371536093526766  0.4848825029691872
  0.4160422193309071  0.4402880379401922  0.4875045696745905
  0.4980027981179604  0.4977645704372211  0.5774264515652066
  0.3320820697369968  0.4365950789213955  0.5828348011152090
  0.1608389310251299  0.4335432349184307  0.5834864819384427
  0.9943970578470704  0.5046612933143646  0.2093507476126467
  0.3340556243035139  0.5652862804396072  0.2162049385550976
  0.1748457319743693  0.5645236318331331  0.2153255290686941
  0.2485845589456158  0.6269024702408582  0.3002461348259121
  0.0811946990450026  0.5631507440663988  0.3007700475054805
  0.4160443041059155  0.5627298830067090  0.3059323863796788
  0.9984769072954770  0.6265780278340281  0.3943421598656806
  0.3347994377308919  0.5606558649748243  0.3970407018432480
  0.1687412749866015  0.5613530926714630  0.3944738615744652
  0.2480918040027211  0.6272275706457364  0.4874426218546944
  0.0854879797126412  0.5631562843951816  0.4873097464186926
  0.4178201693932561  0.5597745427345815  0.4882751436315049
  0.4945296152794704  0.6210775791326515  0.5803124430139017
  0.3301535373277830  0.5628184639903359  0.5818674206884324
  0.1621214279875184  0.5596039729070743  0.5818994967603225
  0.9984273449894018  0.6269982765047976  0.2111837356994614
  0.3359989061690281  0.6835943526567502  0.2127684558270654
  0.1707708417987001  0.6842565654133341  0.2207447201882949
  0.2530820138075590  0.7479787976712220  0.3009791249282388
  0.0838777286152334  0.6887713779191774  0.3059447213703235
  0.4191304124152810  0.6884920001803451  0.3033472315799026
  0.0033525081865368  0.7489633680720575  0.3954169563672899
  0.3342069623683451  0.6842473242475794  0.3958048223381603
  0.1691351333205567  0.6886550088427055  0.3950144893742590
  0.2499869910186519  0.7498164815895807  0.4882318003625536
  0.0832781004469833  0.6863355578267724  0.4884176118661771
  0.4142365384364899  0.6848340993719584  0.4877380841150526
  0.4984883881407829  0.7484309932798874  0.5810976896833189
  0.3291357079610137  0.6925852373038621  0.5860901102127640
  0.1648939052081472  0.6850303442225794  0.5833092512328051
  0.9951497882514443  0.7504149559835986  0.2138833020954297
  0.3374564275028749  0.8124681608145038  0.2169116054323465
  0.1765501790388655  0.8185978391731944  0.2218231828162420
  0.2515091092598923  0.8723143568064399  0.3006722970641534
  0.0830642097638119  0.8106338744293232  0.3072749883069067
  0.4207167256428261  0.8137757602738968  0.3068478965273307
  0.9972335985154535  0.8730985294638360  0.3941357773440916
  0.3321190540935076  0.8129369781625566  0.3936480888430151
  0.1669694149923109  0.8116476983644195  0.3968449683688405
  0.2491779747668858  0.8788909953505629  0.4883796006021970
  0.0888310966039816  0.8138577356503597  0.4875544846340582
  0.4123016556681712  0.8100257490605814  0.4899934509186298
  0.4974999231537685  0.8747495175175929  0.5772122848144723
  0.3344000687040508  0.8112101111781984  0.5790432953966700
  0.1667266423676002  0.8131149200964515  0.5836526638652814
  0.0013141775229701  0.8752664729538073  0.2130718233453772
  0.3316037953982165  0.9369518389739879  0.2149825481802375
  0.1742443193349200  0.9331008794352306  0.2163458611544818
  0.2499027326685521  0.5022237305002005  0.2992560115088285
  0.0817347983304959  0.9347791325999569  0.3060620874661255
  0.4155625646083899  0.9382137231865945  0.3043874752441682
  0.5024804370222500  0.9988018089952824  0.3957920742896244
  0.3300390584213022  0.9374312109743442  0.3982922361074496
  0.1686147366254514  0.9392358958736202  0.3952357770770497
  0.2475501495864310  0.0000597701132452  0.4886218317572070
  0.0860779630032316  0.9349898486558852  0.4871998132847706
  0.4154182585454941  0.9355706288404849  0.4853014203383189
  0.4948470182765810  0.9987826351807710  0.5760237552800767
  0.3309152452513465  0.9394897851501033  0.5779710301824593
  0.1683312394110091  0.9389067707717847  0.5860356449763544
  0.4957547863472996  0.0010108985895756  0.2107276740039995
  0.8279666785586962  0.0631276443605974  0.2129096926930699
  0.6688298774265280  0.0627653933837367  0.2152180584498183
  0.7496875217169127  0.1270615913987108  0.2987550317300249
  0.5810952755588348  0.0632080631623214  0.3019883920523006
  0.9162310772017876  0.0625920094696036  0.3049974458924332
  0.5033580747260976  0.1261444457043809  0.3963113027908389
  0.8283122068177243  0.0624713518494067  0.3961313184857766
  0.6665479066977075  0.0630739136799903  0.3944263873449234
  0.7488397073640631  0.1268122595922848  0.4864215950340954
  0.5828053756973439  0.0641413501093588  0.4879497135783202
  0.9143837501620987  0.0632594164062298  0.4868056643807468
  0.9938755868123255  0.1186267614600466  0.5800660344434054
  0.8361644609847283  0.0630680350611875  0.5778188342419346
  0.6632397203397560  0.0608817693842919  0.5803721511022454
  0.4962540226858638  0.1264543174506335  0.2055533587025398
  0.8253340847603332  0.1817747781205152  0.2149923748823183
  0.6631567184628950  0.1832097767420288  0.2141794771264788
  0.7491617875480057  0.2502333351974200  0.3034040341031194
  0.5777329693360770  0.1888623475224311  0.3018466893208653
  0.9161407370689177  0.1878539757344836  0.3066316324865899
  0.5025720621818164  0.2502443948317374  0.3952854475950774
  0.8338845850633168  0.1886798970300564  0.3945812090661057
  0.6706329657282468  0.1871269744691789  0.3964986186297574
  0.7476429098747980  0.2499690246055418  0.4886868897310118
  0.5762137063274324  0.1862455491910328  0.4886988116078685
  0.9139234147079166  0.1901939904194574  0.4908248308079160
  0.0021746704116073  0.2441409319289687  0.5799788995210658
  0.8331199326696914  0.1843891400393714  0.5814487135022114
  0.6639103772633314  0.1869466795324688  0.5832440045992502
  0.4987412531083341  0.2442163345680894  0.2125202753579953
  0.8233366684829745  0.3159810507231324  0.2155282400659667
  0.6658415664256215  0.3132498882138270  0.2152495137956642
  0.7494575538143022  0.3748653165286401  0.2979144933891844
  0.5824384150746557  0.3128433802342871  0.3041069111666366
  0.9150484967400481  0.3114927354609136  0.3040873878556815
  0.4995974117091188  0.3734675133010592  0.3953111929549905
  0.8335535698982388  0.3152957933278451  0.3968629920007340
  0.6690708173874502  0.3118553548033088  0.3935687454589585
  0.7495135650418902  0.3758918968618882  0.4874571783154568
  0.5819482475000063  0.3114650430493297  0.4878949849526152
  0.9153900948131320  0.3095135039279200  0.4879181423879197
  0.9982112216898574  0.3726228702455905  0.5763230646493522
  0.8378304973537747  0.3112912699927464  0.5816706583960344
  0.6667504411586332  0.3107202820775357  0.5835552271176818
  0.5026827668456724  0.3687075681728186  0.2096447424183663
  0.8248191569695965  0.4301156037255017  0.2177919993780902
  0.6678318572065940  0.4357274217283005  0.2103338562140736
  0.7483540071439017  0.0020844217065447  0.3000333933560972
  0.5818210126121321  0.4369672641557562  0.3020686154875395
  0.9184158486088916  0.4380132149144567  0.3044457758336938
  0.0003662635469960  0.5004611539062518  0.3977015685095308
  0.8332582983404490  0.4384216484556367  0.3948412769465633
  0.6659834591214783  0.4392228574398709  0.3901306864375155
  0.7505626148737465  0.4971861897502287  0.4868065273124933
  0.5842966229697074  0.4352116171863951  0.4859364128611585
  0.9206621380774319  0.4388684914773333  0.4863349657417327
  0.9970472807913274  0.4989258663650852  0.5787055072232240
  0.8299448790541816  0.4350350530791840  0.5758014172660746
  0.6665222324267404  0.4371289830150949  0.5813565321929414
  0.4937598222641782  0.5007391438856432  0.2101291316503958
  0.8319448635452099  0.5688101273179801  0.2220419198688413
  0.6670683684345373  0.5626952074970858  0.2137411895037461
  0.7516953366810588  0.6264273452267719  0.3007384900908734
  0.5796360048196499  0.5616289627956030  0.3011699722231981
  0.9212168882304863  0.5653199723654366  0.3025747551868936
  0.4960809341231139  0.6262326292448762  0.3967035121318246
  0.8314331464945154  0.5620937754924202  0.3947202415946616
  0.6637729050711434  0.5596013246017656  0.3941033691284713
  0.7455182283479463  0.6233403454562066  0.4886351659645194
  0.5806980275314110  0.5602460356872145  0.4871961554291987
  0.9189537290263085  0.5612254254293810  0.4861742165709859
  0.9943684496003302  0.6253691764341496  0.5784143225365928
  0.8315694067989503  0.5604316266778869  0.5756906402005000
  0.6565997362347584  0.5608771250978787  0.5810137975657951
  0.5035392307808998  0.6260709366381808  0.2070923049317067
  0.8275370341768531  0.6875749324431717  0.2192922233882835
  0.6679997173455671  0.6856550845844288  0.2165592050975448
  0.7477868368076248  0.7527353549219090  0.3015624578842551
  0.5826820991371163  0.6860691714139016  0.3037013615783227
  0.9155320753418885  0.6875403960445921  0.3084383629041798
  0.4966972884402596  0.7494467080599196  0.3966618582934906
  0.8267124841718791  0.6853029367835022  0.3987634246403729
  0.6637913184872687  0.6851923277030965  0.3953165397779628
  0.7445814291405457  0.7497972598893101  0.4877954263049400
  0.5788579062072216  0.6832071189829027  0.4877920161088712
  0.9177162193523518  0.6844311440389780  0.4861472809266071
  0.9993298918876690  0.7463190173499922  0.5816232590198882
  0.8285513357543294  0.6840728323140954  0.5781614654143535
  0.6642205775036725  0.6859185952878544  0.5791040329022946
  0.5020376481458896  0.7448936762288415  0.2079159515916796
  0.8280752773174367  0.8175729175004137  0.2169048523469502
  0.6660409421116293  0.8123081879131535  0.2114079079639709
  0.7521207581064772  0.8754504766774887  0.2997516564479723
  0.5839585770147258  0.8111436481925652  0.3055475510619448
  0.9182404570005411  0.8149665784747905  0.3054335628232808
  0.4988941389442084  0.8752070898956460  0.3951738031022859
  0.8351525039957415  0.8130994950865832  0.3963931510960000
  0.6599653951539703  0.8105039330768535  0.3945111125133867
  0.7487495255680472  0.8720247406876707  0.4852463134457760
  0.5806847909368015  0.8118370604327663  0.4883278048143663
  0.9152891297634181  0.8133319952451311  0.4879353020536698
  0.9945557273562200  0.8739325233381474  0.5792217565197381
  0.8319597087806522  0.8099239398045611  0.5786376515415492
  0.6621243355478352  0.8075849623923123  0.5830240585402229
  0.5034565994958695  0.8742467193254528  0.2133079342232332
  0.8295447185905189  0.9382860093067371  0.2162213690217697
  0.6699075969285536  0.9329232661249132  0.2112363544116872
  0.7507243130012871  0.5003921385496422  0.3013865142601283
  0.5847840969238306  0.9367418085252832  0.3013154073110971
  0.9160838676649468  0.9415329547851394  0.3032445643542102
  0.0026725092991909  0.9990254334632559  0.3978161687308677
  0.8319832507936871  0.9403789882727602  0.3948941218909511
  0.6672568928691585  0.9377163677686892  0.3940233548456599
  0.7443090683200526  0.9961821361372617  0.4878099775230494
  0.5799894127914736  0.9368270378786329  0.4872349267668669
  0.9172461267526144  0.9374835935221981  0.4860409903932522
  0.0000955585899278  0.9941951081572288  0.5763635932448280
  0.8294706262310757  0.9394642921521550  0.5741693668420307
  0.6629313554241744  0.9334838069337760  0.5830310727116231
  0.0622097398121238  0.9998950161267686  0.6760328766549653
  0.2614203855211680  0.4949596986848764  0.6686685464066791
  0.4386406393646049  0.0600562162974390  0.6589574211294463
  0.0663607986939752  0.2314519176578395  0.6783268823438973
  0.2821572706743334  0.2541950135542825  0.6639890365907510
  0.4060192600612708  0.3112609684460794  0.6619996857988163
  0.0687492340667896  0.1214870268011372  0.6764945167024649
  0.2827981405476900  0.1178480120805536  0.6680850915442628
  0.4292400251976923  0.1838398914206035  0.6614227897971819
  0.0922835972829288  0.3494701200106051  0.6738595234798906
  0.2531167121354769  0.3681770387171004  0.6673868071851318
  0.4298649317592622  0.4353091692411313  0.6554015628773837
  0.1599715098760590  0.4413299114599561  0.7022274119281600
  0.1903407321194953  0.2884925250688127  0.7180167084633182
  0.1863460865757379  0.1850779625286863  0.7037757638577626
  0.1876538434022504  0.0589839443703057  0.7004546585279661
  0.0426108535907507  0.4991742975007534  0.6755511395794341
  0.2910000810384328  0.0020026405176949  0.6646538908146288
  0.4386114890273826  0.5618758104095404  0.6573845873681056
  0.0775048315244249  0.7662690777722454  0.6759591642951711
  0.2463142764643440  0.7302479974842336  0.6739192700884765
  0.4428832101390346  0.8157324571688311  0.6626731548322339
  0.0474191028906862  0.6116755238037044  0.6745471191920228
  0.2533021675091762  0.6191222644896727  0.6728651627644097
  0.4305133905072228  0.6876696291149140  0.6629247498853085
  0.0681956196503639  0.8881387973990169  0.6723912552526946
  0.2879499765476135  0.8750849127396393  0.6640866887088140
  0.4381075141147111  0.9379474960411319  0.6621602251456388
  0.1815697615235716  0.9406288175164398  0.6912675848296322
  0.1828529699301936  0.8310241581991172  0.7034648864393602
  0.1426922364413635  0.6750319616884578  0.7003084903913508
  0.1550752093692033  0.5522195731240325  0.7057440659849397
  0.5617975758433692  0.0026065281224656  0.6729171534154135
  0.7947721219502050  0.4947619622375117  0.6594906156757535
  0.9398370718907264  0.0523044768862864  0.6619770160766495
  0.6082146975343408  0.2480481022999021  0.6799284705242051
  0.7567714068317927  0.2318801987289948  0.6666291787959407
  0.9646335781422707  0.3036939361244134  0.6690106991383660
  0.5690352934530650  0.1067488277045294  0.6770579110772420
  0.7939555013478727  0.1134951356313483  0.6619389202239078
  0.9451067369830719  0.1834590539124623  0.6677941833131753
  0.5883908975058911  0.3732886442471889  0.6825540394971801
  0.8019740459180037  0.3719696433779368  0.6633654247233490
  0.9612684279898461  0.4099253566773721  0.6719167783292713
  0.6947732362148323  0.4428993852517568  0.6975658115131962
  0.7043202830580010  0.3236446957044194  0.7030510736399315
  0.6852672192433982  0.1528814622328939  0.7105143064398705
  0.6880480997853239  0.0505805239309895  0.6905013594025797
  0.5748384114102091  0.4875498761646039  0.6755789342576380
  0.7973396328568385  0.9928209068904054  0.6574616573048468
  0.9185128856816912  0.5658868053145273  0.6600105678728330
  0.5871267429350786  0.7390686751043122  0.6817077599369801
  0.7269139153307642  0.7305501937690776  0.6722234345255887
  0.9500199428464912  0.8128629991018719  0.6624677007541625
  0.5662774531050843  0.6332780809676284  0.6806889417741615
  0.7849532912829364  0.6264816329198014  0.6651385398476931
  0.9378555397050126  0.6925860800488425  0.6636893849967539
  0.5621284632199477  0.8875170054565736  0.6737953827337327
  0.7911236376584244  0.8778140732035422  0.6649167901249596
  0.9474919766301697  0.9380475004611640  0.6560385099162841
  0.6864538162604520  0.9416174773314706  0.6865903605526285
  0.6835791572833706  0.8233993826272704  0.6963598552164149
  0.6823677691313115  0.6517823249445375  0.7183246363813256
  0.6841169510134640  0.5525998408075872  0.6924519569489738
  0.4029608507616837  0.9999019259110662  0.2498381539344345
  0.2489312144375134  0.9981300500775041  0.2289053932351111
  0.0961658342879854  0.9973290086373208  0.2505637644668146
  0.1497969850000559  0.1254653070798818  0.3400762256867575
  0.0000535545404834  0.1256992783215099  0.3214949890532017
  0.3470557523588538  0.1251492309979270  0.3374195184466455
  0.4013378583106535  0.1242335083092356  0.4292200927826657
  0.2493264126236123  0.1221956082659481  0.4140581006324174
  0.0989741217746548  0.1226985588530857  0.4300967024592035
  0.1497388413283243  0.1212744592646586  0.5258152527236065
  0.4956825431066633  0.1237980987819373  0.5051100518926773
  0.3444591698755498  0.1240750117000518  0.5192074366955418
  0.4017029893631860  0.1230475738131078  0.6110487413570713
  0.2514294569816287  0.1240972612039317  0.5998430520581605
  0.0952229234288209  0.1201361109015942  0.6121449803553999
  0.4048391266187517  0.1227578996904075  0.2466869869482722
  0.2521252422574309  0.1262740340449141  0.1957367399146002
  0.0903554065427296  0.1257070452412538  0.2498871230237200
  0.1480720551588401  0.2505796685790909  0.3387317099991607
  0.9972250342576321  0.2532327554996679  0.3266072440992798
  0.3438511585761533  0.2480437300166882  0.3382440960085652
  0.4023290408336006  0.2505331299034189  0.4300236547281431
  0.2527915206667792  0.2504552174316659  0.4142139583840441
  0.0997245425546137  0.2495794902122579  0.4337549702626470
  0.1528195715049334  0.2469562777026989  0.5236828225319800
  0.4954556604339793  0.2499715973608889  0.5047903946309039
  0.3438327810799031  0.2527904802838072  0.5211294646329662
  0.3971510385198887  0.2443416813573496  0.6132200300137834
  0.2525822581423380  0.2448419114185180  0.5956638756068638
  0.1017202532997734  0.2437923768539250  0.6124400178421355
  0.4055109662571228  0.2501222476403403  0.2505656368820314
  0.2488931881609614  0.2483537321935076  0.2286765008381872
  0.0904413527027336  0.2518606745555149  0.2495505733753952
  0.1530582727498880  0.3780425159989401  0.3384312012238125
  0.9978436015815472  0.3764457143694939  0.3245659298130583
  0.3435727972020488  0.3722254136829525  0.3377061556183250
  0.4015716706738191  0.3755788260199041  0.4298358448207815
  0.2515342218139286  0.3744390546369344  0.4168972440222972
  0.1025063378532796  0.3751084376574409  0.4286687995218168
  0.1492843817012265  0.3723052996648268  0.5238182994947213
  0.4977781370051221  0.3758440373584856  0.5092511458067698
  0.3492006167905756  0.3766666865477610  0.5228972900907681
  0.4047663681005071  0.3728303841496713  0.6136331037216550
  0.2471083255073082  0.3735327201801076  0.5971629341144825
  0.0965339097585187  0.3684644972898671  0.6085529303039388
  0.4079360857671536  0.3768015837227832  0.2476531329076281
  0.2459980352370683  0.3725758255289220  0.2066189030545265
  0.0872727734697538  0.3745459750181185  0.2487433564504211
  0.1506196651514516  0.0003325486744350  0.3394672799135618
  0.0003232936280362  0.9999297684910726  0.3261378842888198
  0.3494033128119458  0.0005647873160551  0.3374153044534179
  0.4032811019097388  0.4978326604461608  0.4317658864818616
  0.2502745287808973  0.4996218519993112  0.4171176494883732
  0.1012035108402040  0.5014240940160138  0.4313013977790166
  0.1487206639533967  0.4981986455990439  0.5259365912280084
  0.5003987294032840  0.4971744198913343  0.5059428634516491
  0.3446061565020486  0.0001240635265635  0.5224100601147176
  0.4005015810635724  0.5004477648700196  0.6128327419677794
  0.2473925824693172  0.4983361800038499  0.5993825164955459
  0.0962515285956700  0.0004902724266587  0.6127216590873468
  0.4039678642563908  0.4999319769580178  0.2510083819457575
  0.2514574018935355  0.4981173783342077  0.2236379778100825
  0.0913308830144729  0.5013075368706222  0.2448755093307585
  0.1501469378182974  0.6249463061293332  0.3394836513384225
  0.0024604551520139  0.6272754511155071  0.3230790716215243
  0.3453146046841808  0.6244066163824201  0.3398699406811329
  0.3996998156425166  0.6221479626070917  0.4334748398558878
  0.2485872107475902  0.6235132743520614  0.4144708449288945
  0.0976727622655427  0.6234407158902777  0.4295110813646006
  0.1537962474511964  0.6236396831013454  0.5247468402137655
  0.4964208294414270  0.6229567894113935  0.5058354084083622
  0.3466131167021319  0.6246967243091843  0.5243418194383446
  0.3955864179255623  0.6260498595236363  0.6152015004440283
  0.2441786104913477  0.6229265814227638  0.6024550327574208
  0.0932344865033172  0.6221660237604886  0.6113062249220310
  0.4087861696518280  0.6251092907901309  0.2466134859600934
  0.2574432577179249  0.6244655071280142  0.1891208217989634
  0.0968120077451381  0.6260216390147478  0.2483200856681015
  0.1534665133115045  0.7513005421643136  0.3391581698920438
  0.0006750108923497  0.7501611817285443  0.3239143621225822
  0.3501605079378618  0.7483789000311716  0.3403215428823221
  0.3994268190289670  0.7499767827984274  0.4322940337736974
  0.2508639674421108  0.7496297122536500  0.4135188822317366
  0.1022055668001113  0.7490252723852470  0.4335932781096806
  0.1521879214201440  0.7506139432977122  0.5251828810624914
  0.4980974032815711  0.7448973440187162  0.5066165803873911
  0.3449331562513092  0.7461451949766544  0.5266143864294018
  0.4035617537870488  0.7524260098980587  0.6162211379366317
  0.2455778349525219  0.7502167632473007  0.6048668413596243
  0.0995647259228998  0.7490307823447677  0.6130857040194847
  0.4114540409847340  0.7490430668378085  0.2481045198696112
  0.2543658994529283  0.7494428000950817  0.2242195825558852
  0.0953744369130922  0.7494782758113779  0.2494546691258144
  0.1554240964610118  0.8724078478233540  0.3391924676288851
  0.9977385545074926  0.8771623922675335  0.3226512368504368
  0.3461334299390320  0.8756547255399585  0.3398899793618463
  0.4000931646064357  0.8743689734468391  0.4325462719370743
  0.2464987006728349  0.8764726193600421  0.4162587398210491
  0.1005490804608359  0.8759121149002902  0.4312176515915868
  0.1537596995379622  0.8761404302034083  0.5240632737192172
  0.4957656315917039  0.8749358482062193  0.5046511754972564
  0.3449170902989055  0.8778591059783223  0.5244781517548971
  0.4017509018721945  0.8764047096847196  0.6150515418650232
  0.2530991969581832  0.8699988084891830  0.5982065877385181
  0.0928141402764249  0.8708305107516434  0.6109871654220677
  0.4052084719932544  0.8751835083831161  0.2492249460670288
  0.2569834753743213  0.8734490487916605  0.1937701479378758
  0.0963436867171096  0.8736675548448033  0.2513513070296018
  0.1532325623396214  0.5018954211870472  0.3361105664957723
  0.0007251927483112  0.4986523236094538  0.3256945436241055
  0.3444434329993691  0.4994160017639787  0.3401135538194157
  0.4021099697877596  0.9985537241530826  0.4310442071878151
  0.2498833780950478  0.0000143451764445  0.4154830276387855
  0.0997468966148959  0.9994204975543403  0.4306829419619033
  0.1505760828282475  0.0012813825112076  0.5257430867881477
  0.4982832688090306  0.0012931521066208  0.5033703468023819
  0.3443754735779970  0.5012621026342610  0.5254601201540573
  0.3999008464453723  0.0007037265300790  0.6145425765959478
  0.2491499324092430  0.0012420602148739  0.5986891844150999
  0.0928455705885946  0.4993176334197445  0.6139691705879948
  0.9017499995947216  0.0015386182700033  0.2470181662360826
  0.7451685637863665  0.9995051299422766  0.2249359136712387
  0.5928666474454733  0.9992818185696930  0.2476716008702577
  0.6522133544270289  0.1257934513181650  0.3386726867702936
  0.4994070673314741  0.1246724228268989  0.3231124412202795
  0.8429837750392116  0.1254467719179460  0.3395436322963563
  0.9015376027083382  0.1246323552164164  0.4294954928797549
  0.7514080145319239  0.1254282226083482  0.4144950714432813
  0.5999044681234081  0.1256508834818273  0.4309770042779565
  0.6508176315904611  0.1228121345754435  0.5235495295135716
  0.9952658440784975  0.1257542723540468  0.5079756431349056
  0.8463015204185714  0.1246522057464846  0.5232129834857132
  0.8999072583402726  0.1218790562536042  0.6232454692239424
  0.7513212791062558  0.1227577858747631  0.5982881529352283
  0.5981678043305083  0.1236772710529663  0.6129742701111880
  0.9021257955523004  0.1241670978875807  0.2485693660666750
  0.7443572072769764  0.1212836654885210  0.1876401136377977
  0.5907493453584889  0.1268078252628291  0.2462906316223369
  0.6531050581550593  0.2489290883119401  0.3389732752058789
  0.4989460188909481  0.2508494826997573  0.3236750228180699
  0.8459365559786329  0.2520228648584302  0.3400691281182720
  0.8980007887060854  0.2493544029972797  0.4313631674774562
  0.7513209624508076  0.2519030386296947  0.4178596259233065
  0.6006535435785465  0.2464081497039678  0.4307523007180460
  0.6488302934628698  0.2501459498105401  0.5249670711994547
  0.9994789159291466  0.2480666949040806  0.5054925519978081
  0.8464189273219469  0.2510396096751595  0.5268103710193881
  0.9068076505342998  0.2443273660148045  0.6187349845313488
  0.7516154476063774  0.2479484535419473  0.5971155348034463
  0.5961543601498787  0.2511045222967387  0.6118102678814292
  0.9011484951038731  0.2483690625556942  0.2503596521896215
  0.7452314018730983  0.2470113533353810  0.2215154621211855
  0.5954727804364323  0.2517618912434482  0.2481620142276228
  0.6529428922731075  0.3759145382616170  0.3371115798824111
  0.4953221735207800  0.3749350264004451  0.3232017553991191
  0.8461134419966774  0.3763681784633401  0.3361217837682774
  0.9001428487987514  0.3740304904138316  0.4292671633121588
  0.7485343575542969  0.3754654552225955  0.4144213047414082
  0.6018866870458708  0.3745474973150911  0.4280968362184835
  0.6538400821036946  0.3749267581908076  0.5243315374023206
  0.0001237020887774  0.3757210414126801  0.5035884892614246
  0.8488182128915637  0.3722923303847656  0.5218195362159243
  0.8995289547426915  0.3782676161621533  0.6152565931857892
  0.7517590479666022  0.3709918104921105  0.6006088638424641
  0.6013034450702789  0.3720771323054423  0.6116067484758998
  0.9068157568609212  0.3732751036067058  0.2489597326803509
  0.7440596861822365  0.3716860310844137  0.1898063607266518
  0.5950833122342377  0.3747036338326670  0.2473588405687954
  0.6518755548096651  0.0003343421805222  0.3371373707100843
  0.4996851408188274  0.9993638882666658  0.3253001192989570
  0.8440664143037236  0.0029439140444715  0.3389255848727832
  0.9004866163756736  0.5019689134772233  0.4308537838771454
  0.7489015819229815  0.4989957251261143  0.4138446719225847
  0.6005629600904184  0.4963862899805722  0.4305052187017376
  0.6512408467838532  0.4996103948730953  0.5232112323157155
  0.0012808939806703  0.4996918081263938  0.5043202150386372
  0.8458614017711151  0.0012974175627552  0.5185121337540225
  0.8979534680129837  0.4991978795904097  0.6094235811503538
  0.7506495172685356  0.4988550015467892  0.5939732743673468
  0.5946306386083139  0.9984437540679250  0.6093214028148407
  0.9023564909629282  0.5007034317046896  0.2487520000262299
  0.7495936284061394  0.4995471266562507  0.2275368404923896