Ru Cu                                   
   1.00000000000000     
    10.8623999999999992    0.0000000000000000    0.0000000000000000
    -5.4311999999999969    9.4071143460680844    0.0000000000000000
     0.0000000000000000    0.0000000000000000   22.7112499999999962
   Ru   Cu
    96     2
Direct
  0.0832814997076818  0.1665707441497175  0.3581160102151786
  0.1666649762920186  0.0833781022836400  0.2675105292990363
  0.0833840937378652  0.1667086356344488  0.5478424524670936
  0.1667810063679692  0.0834298061170878  0.4519558180556782
  0.0841289978257129  0.1668023891165571  0.7323893971839853
  0.1668776617848015  0.0830920265283664  0.6417452533374001
  0.0832999134620382  0.4167035949530759  0.3581304115373960
  0.1666647774717355  0.3333173783957566  0.2677044858814412
  0.0833816353662721  0.4165945330099537  0.5478511841230247
  0.1668410134550854  0.3333195655026174  0.4520141541524291
  0.0833715722278554  0.4162229026547685  0.7327619986937990
  0.1662073557834050  0.3326696977884748  0.6421153484723481
  0.0833468750582087  0.6665452469337863  0.3580628864635871
  0.1666750230058528  0.5832431601775889  0.2675589498975717
  0.0835367742198630  0.6667273766653339  0.5478846067951029
  0.1669287447069381  0.5834572658305957  0.4520904930718773
  0.0838960707131649  0.6668323289442825  0.7322025948534663
  0.1665588833846949  0.5831428284427105  0.6419268496709346
  0.0834374967123035  0.9167263184500306  0.3580714608085828
  0.1668073381194236  0.8332797945290271  0.2675858491801932
  0.0834469749816716  0.9165755514925589  0.5477820867977262
  0.1666680269316854  0.8330494282132140  0.4517222092370895
  0.0831166555343639  0.9161048915225790  0.7320904078280736
  0.1668838191471934  0.8332948602775135  0.6417792532381421
  0.3333093380889138  0.1665098324864528  0.3582156803998462
  0.4167736508946883  0.0833817714029942  0.2675089093492082
  0.3335218793723566  0.1666706907156941  0.5477628858218366
  0.4168311026104529  0.0833864492287613  0.4519408889389301
  0.3339316857159353  0.1668264922257302  0.7319897237392797
  0.4168448344539563  0.0831029028152393  0.6418088633265888
  0.3333704870980517  0.4167070295902064  0.3581301471460698
  0.4168668205266534  0.3335546759266539  0.2676725018841107
  0.3334917163287734  0.4168330088038867  0.5481363748937553
  0.4168594029045172  0.3335541892436058  0.4519694443006739
  0.3313806501019271  0.4131178673529220  0.7325320113073379
  0.4163482278453727  0.3321602907411191  0.6411708917159780
  0.3333369395852803  0.6665541804916064  0.3582100721790082
  0.4167617409023497  0.5832675083850415  0.2676682735323423
  0.3335722993494669  0.6667469910189102  0.5484635134682108
  0.4168679702163586  0.5834069515985087  0.4521535266485878
  0.3320723841244737  0.6677158058441753  0.7329341397145860
  0.4160930782193901  0.5832366717144098  0.6418901344990704
  0.3334559732206364  0.9167084695417929  0.3580790875329403
  0.4169240509442591  0.8333008888254309  0.2676485140282628
  0.3333504757895706  0.9165885373912145  0.5478216491841993
  0.4167124413669863  0.8330629876418675  0.4519767320032737
  0.3334043919193526  0.9159342084430465  0.7321166183707432
  0.4170249996855942  0.8339264199044669  0.6416102229114601
  0.5833930401284160  0.1665909112155239  0.3581105161463842
  0.6666751774790297  0.0834073175879960  0.2676351336913755
  0.5835272257614253  0.1667166254736015  0.5478666076048070
  0.6667013777360653  0.0833538014593610  0.4521393481485089
  0.5835360148343356  0.1667130085852424  0.7324231978704221
  0.6671097901399058  0.0833670183487103  0.6424533310565259
  0.5834368351396537  0.4166721118389323  0.3581477821658720
  0.6667734096821543  0.3333077970709791  0.2677102222591536
  0.5835643323286338  0.4167780903717145  0.5481297611933033
  0.6667136239708225  0.3333065091981499  0.4520156965222292
  0.5822574627384205  0.4128683957830704  0.7324985928053471
  0.6671390011614772  0.3326961456298275  0.6421394731199586
  0.5833723174439085  0.6666055209662513  0.3581046734623027
  0.6665464921592078  0.5832389680020649  0.2676680169501984
  0.5834288435927762  0.6665439728628582  0.5488435203703170
  0.6666853990258202  0.5834031856184029  0.4521574349562891
  0.5858842962164464  0.6698085911454464  0.7322974494071880
  0.6678509036022613  0.5832170895534099  0.6417627632792500
  0.5834311812279601  0.9166902416131243  0.3581883571041149
  0.6665962075651043  0.8329191749490024  0.2677444910257155
  0.5833960599647561  0.9166649353601125  0.5478446807328003
  0.6665540824267896  0.8328898960419111  0.4520750573384827
  0.5834813824191782  0.9167628910367958  0.7324887164091630
  0.6677195206578543  0.8349584555658776  0.6416168455361956
  0.8334189572293358  0.1667108323257832  0.3582046126109972
  0.9168076458309274  0.0834129203290731  0.2676298287767345
  0.8336212654686530  0.1669141837319977  0.5478383925413333
  0.9167459921683018  0.0833466485901706  0.4521479714493544
  0.8342637049401174  0.1668813879773444  0.7328262694166547
  0.9167787890397060  0.0834070061168321  0.6424422102160084
  0.8334985856214620  0.4167113437893353  0.3581138895299638
  0.9167169286232921  0.3332480611533930  0.2676472283805562
  0.8334279088152503  0.4165683784869816  0.5478290450266806
  0.9167223045856383  0.3333460731874040  0.4521641854229924
  0.8334769934748550  0.4162686554032271  0.7327310339684875
  0.9168459710381738  0.3331351880179491  0.6426789538818207
  0.8333799973321858  0.6665636538848119  0.3582215660656667
  0.9166405583525413  0.5832361070222367  0.2675567520474566
  0.8336015323804178  0.6667648663123698  0.5483908471047525
  0.9167149803710828  0.5834163499543075  0.4521001794648874
  0.8369328322364887  0.6677753985117160  0.7326685971128495
  0.9172711958961843  0.5831004779277259  0.6418091435942170
  0.8334514165168754  0.9167300309211742  0.3581811302231494
  0.9165334662514166  0.8332466140860320  0.2676458655751164
  0.8334174980207679  0.9166913502400541  0.5478424459982629
  0.9165628538639593  0.8331192643646449  0.4519829980978592
  0.8337229556098646  0.9167131881290105  0.7324157592972523
  0.9174567535093265  0.8339858945007583  0.6415063635592687
  0.4256956232784564  0.5814785823854824  0.8206421857315563
  0.6604512335165182  0.5811170134569865  0.8204785693961991
 
  0.00000000E+00  0.00000000E+00  0.00000000E+00
  0.00000000E+00  0.00000000E+00  0.00000000E+00
  0.00000000E+00  0.00000000E+00  0.00000000E+00
  0.00000000E+00  0.00000000E+00  0.00000000E+00
  0.00000000E+00  0.00000000E+00  0.00000000E+00
  0.00000000E+00  0.00000000E+00  0.00000000E+00
  0.00000000E+00  0.00000000E+00  0.00000000E+00
  0.00000000E+00  0.00000000E+00  0.00000000E+00
  0.00000000E+00  0.00000000E+00  0.00000000E+00
  0.00000000E+00  0.00000000E+00  0.00000000E+00
  0.00000000E+00  0.00000000E+00  0.00000000E+00
  0.00000000E+00  0.00000000E+00  0.00000000E+00
  0.00000000E+00  0.00000000E+00  0.00000000E+00
  0.00000000E+00  0.00000000E+00  0.00000000E+00
  0.00000000E+00  0.00000000E+00  0.00000000E+00
  0.00000000E+00  0.00000000E+00  0.00000000E+00
  0.00000000E+00  0.00000000E+00  0.00000000E+00
  0.00000000E+00  0.00000000E+00  0.00000000E+00
  0.00000000E+00  0.00000000E+00  0.00000000E+00
  0.00000000E+00  0.00000000E+00  0.00000000E+00
  0.00000000E+00  0.00000000E+00  0.00000000E+00
  0.00000000E+00  0.00000000E+00  0.00000000E+00
  0.00000000E+00  0.00000000E+00  0.00000000E+00
  0.00000000E+00  0.00000000E+00  0.00000000E+00
  0.00000000E+00  0.00000000E+00  0.00000000E+00
  0.00000000E+00  0.00000000E+00  0.00000000E+00
  0.00000000E+00  0.00000000E+00  0.00000000E+00
  0.00000000E+00  0.00000000E+00  0.00000000E+00
  0.00000000E+00  0.00000000E+00  0.00000000E+00
  0.00000000E+00  0.00000000E+00  0.00000000E+00
  0.00000000E+00  0.00000000E+00  0.00000000E+00
  0.00000000E+00  0.00000000E+00  0.00000000E+00
  0.00000000E+00  0.00000000E+00  0.00000000E+00
  0.00000000E+00  0.00000000E+00  0.00000000E+00
  0.00000000E+00  0.00000000E+00  0.00000000E+00
  0.00000000E+00  0.00000000E+00  0.00000000E+00
  0.00000000E+00  0.00000000E+00  0.00000000E+00
  0.00000000E+00  0.00000000E+00  0.00000000E+00
  0.00000000E+00  0.00000000E+00  0.00000000E+00
  0.00000000E+00  0.00000000E+00  0.00000000E+00
  0.00000000E+00  0.00000000E+00  0.00000000E+00
  0.00000000E+00  0.00000000E+00  0.00000000E+00
  0.00000000E+00  0.00000000E+00  0.00000000E+00
  0.00000000E+00  0.00000000E+00  0.00000000E+00
  0.00000000E+00  0.00000000E+00  0.00000000E+00
  0.00000000E+00  0.00000000E+00  0.00000000E+00
  0.00000000E+00  0.00000000E+00  0.00000000E+00
  0.00000000E+00  0.00000000E+00  0.00000000E+00
  0.00000000E+00  0.00000000E+00  0.00000000E+00
  0.00000000E+00  0.00000000E+00  0.00000000E+00
  0.00000000E+00  0.00000000E+00  0.00000000E+00
  0.00000000E+00  0.00000000E+00  0.00000000E+00
  0.00000000E+00  0.00000000E+00  0.00000000E+00
  0.00000000E+00  0.00000000E+00  0.00000000E+00
  0.00000000E+00  0.00000000E+00  0.00000000E+00
  0.00000000E+00  0.00000000E+00  0.00000000E+00
  0.00000000E+00  0.00000000E+00  0.00000000E+00
  0.00000000E+00  0.00000000E+00  0.00000000E+00
  0.00000000E+00  0.00000000E+00  0.00000000E+00
  0.00000000E+00  0.00000000E+00  0.00000000E+00
  0.00000000E+00  0.00000000E+00  0.00000000E+00
  0.00000000E+00  0.00000000E+00  0.00000000E+00
  0.00000000E+00  0.00000000E+00  0.00000000E+00
  0.00000000E+00  0.00000000E+00  0.00000000E+00
  0.00000000E+00  0.00000000E+00  0.00000000E+00
  0.00000000E+00  0.00000000E+00  0.00000000E+00
  0.00000000E+00  0.00000000E+00  0.00000000E+00
  0.00000000E+00  0.00000000E+00  0.00000000E+00
  0.00000000E+00  0.00000000E+00  0.00000000E+00
  0.00000000E+00  0.00000000E+00  0.00000000E+00
  0.00000000E+00  0.00000000E+00  0.00000000E+00
  0.00000000E+00  0.00000000E+00  0.00000000E+00
  0.00000000E+00  0.00000000E+00  0.00000000E+00
  0.00000000E+00  0.00000000E+00  0.00000000E+00
  0.00000000E+00  0.00000000E+00  0.00000000E+00
  0.00000000E+00  0.00000000E+00  0.00000000E+00
  0.00000000E+00  0.00000000E+00  0.00000000E+00
  0.00000000E+00  0.00000000E+00  0.00000000E+00
  0.00000000E+00  0.00000000E+00  0.00000000E+00
  0.00000000E+00  0.00000000E+00  0.00000000E+00
  0.00000000E+00  0.00000000E+00  0.00000000E+00
  0.00000000E+00  0.00000000E+00  0.00000000E+00
  0.00000000E+00  0.00000000E+00  0.00000000E+00
  0.00000000E+00  0.00000000E+00  0.00000000E+00
  0.00000000E+00  0.00000000E+00  0.00000000E+00
  0.00000000E+00  0.00000000E+00  0.00000000E+00
  0.00000000E+00  0.00000000E+00  0.00000000E+00
  0.00000000E+00  0.00000000E+00  0.00000000E+00
  0.00000000E+00  0.00000000E+00  0.00000000E+00
  0.00000000E+00  0.00000000E+00  0.00000000E+00
  0.00000000E+00  0.00000000E+00  0.00000000E+00
  0.00000000E+00  0.00000000E+00  0.00000000E+00
  0.00000000E+00  0.00000000E+00  0.00000000E+00
  0.00000000E+00  0.00000000E+00  0.00000000E+00
  0.00000000E+00  0.00000000E+00  0.00000000E+00
  0.00000000E+00  0.00000000E+00  0.00000000E+00
  0.00000000E+00  0.00000000E+00  0.00000000E+00
  0.00000000E+00  0.00000000E+00  0.00000000E+00
