Mo  S                                   
   1.00000000000000     
    15.9215000000000000    0.0000000000000000    0.0000000000000000
    -7.9622500000000000   13.7910219999999999    0.0000000000000000
     0.0000000000000000    0.0000000000000000   13.5822000000000003
    25    49
Direct
  0.1340467180142042  0.0685485016200857  0.6768839450815776
  0.1365690110871114  0.2677733085818588  0.6738643969702309
  0.1340441835685411  0.4644739529924777  0.6768840683310273
  0.1329975872473597  0.6655643772291953  0.6794898177307402
  0.1330011106782649  0.8664154211172033  0.6794888582352172
  0.3326393565597812  0.0669332869991379  0.6796104183852165
  0.3307401363084281  0.2677675751901347  0.6738603261521021
  0.3307380402689759  0.4619456385520806  0.6738664772123144
  0.3326382456028725  0.6646830341977861  0.6796114587021336
  0.3326052156033796  0.8657939378623496  0.6805525696570669
  0.5325633315060543  0.0659478309110071  0.6808245070577215
  0.5315726820855389  0.2658676088539380  0.6796170515347910
  0.5299552782454455  0.4644644184660152  0.6768863939147067
  0.5315695283720530  0.6646806827465781  0.6796175166531029
  0.5325606531037224  0.8655914019501552  0.6808248482740922
  0.7329231181364335  0.0659523026600795  0.6808296644932312
  0.7327184757220522  0.2659047924506126  0.6805601677471387
  0.7320926322805406  0.4655075244548144  0.6794941907011847
  0.7320936910328584  0.6655628363768429  0.6794923383081368
  0.7327184414856873  0.8657969329333284  0.6805565107690654
  0.9338307748073120  0.0669409495533628  0.6796168546702930
  0.9338293697659665  0.2658697746503975  0.6796174141449569
  0.9329431829233101  0.4655106857167652  0.6794920350337961
  0.9326768540557140  0.6658291763738546  0.6793487486196099
  0.9329443188250437  0.8664138236746055  0.6794892993294894
  0.0657146567582103  0.1338674648310700  0.5615890705534454
  0.0717555411246877  0.1380812451653171  0.7919931900066501
  0.0657133653256992  0.3308308544085108  0.5615897167853703
  0.0717539900212500  0.3326557789568838  0.7919960467896416
  0.0661487708418562  0.5323635576817622  0.5640398607965125
  0.0672940830738682  0.5312205590466021  0.7932571455366642
  0.0663387011198608  0.7326624310923293  0.5645809695382127
  0.0661393265921078  0.7325624702890536  0.7942661329739664
  0.0661525503146976  0.9327726353529115  0.5640403561404952
  0.0672927769954512  0.9350551497013200  0.7932565067586737
  0.2676848028591365  0.1338569681707256  0.5615884505093831
  0.2658606897177904  0.1380598316157062  0.7919964621426274
  0.2660194832224292  0.3325014901359182  0.5580591570575137
  0.2676829162416894  0.5328053979452605  0.5615908384313855
  0.2658591237371581  0.5267808709466237  0.7919997980173790
  0.2665925312200770  0.7326501068541447  0.5650518441575940
  0.2658220083116092  0.7313494379460934  0.7949707330161715
  0.2665953971162480  0.9329281712893405  0.5650504554485991
  0.2658219924202996  0.9334581622672218  0.7949723947658640
  0.4661005422445257  0.1324174768536395  0.5652752437030486
  0.4654229938396028  0.1330866109899418  0.7952564886881390
  0.4646599239105171  0.3308317515579020  0.5615905673844921
  0.4604423272526148  0.3326548131906009  0.7920006570849267
  0.4646546898351360  0.5328048021657779  0.5615923021884655
  0.4604413661468030  0.5267664946211212  0.7920014142134733
  0.4660944493716812  0.7326659160069937  0.5652725510222751
  0.4654186651241403  0.7313197188691802  0.7952529817945191
  0.4661191221890206  0.9325533419824907  0.5657897670832170
  0.4657405222386046  0.9323637622575589  0.7958085174173561
  0.6659704527327435  0.1324006727251614  0.5657945627699021
  0.6661550398726916  0.1327741823044946  0.7958131742380559
  0.6655944537630205  0.3319261705043814  0.5650581043521328
  0.6650622800958956  0.3326998132645400  0.7949774676680903
  0.6657435271647358  0.5323616485357334  0.5640425773152273
  0.6634557246651056  0.5312201641990697  0.7932603024141898
  0.6655890929998733  0.7326483106044108  0.5650641672486643
  0.6650581627667123  0.7313439131882049  0.7949684930285841
  0.6659683822992761  0.9325596613333218  0.5657911925143964
  0.6661568747207909  0.9323663717627895  0.7958103264752410
  0.8658524167213528  0.1324238408901408  0.5652758931869784
  0.8672067699289059  0.1330995766423939  0.7952549721219668
  0.8658682044848618  0.3319266647608146  0.5650574651269693
  0.8671790557802339  0.3327015479384414  0.7949744194488275
  0.8658496930464352  0.5321725300297260  0.5645829117691434
  0.8659532795029321  0.5323764260816333  0.7942690439957616
  0.8658495979488308  0.7326637618116152  0.5645817821328762
  0.8659516640802565  0.7325642964110202  0.7942688230670925
  0.8658713246870491  0.9329326731744487  0.5650620622972014
  0.8671836862848110  0.9334675855309413  0.7949672311137306
 
  0.00000000E+00  0.00000000E+00  0.00000000E+00
  0.00000000E+00  0.00000000E+00  0.00000000E+00
  0.00000000E+00  0.00000000E+00  0.00000000E+00
  0.00000000E+00  0.00000000E+00  0.00000000E+00
  0.00000000E+00  0.00000000E+00  0.00000000E+00
  0.00000000E+00  0.00000000E+00  0.00000000E+00
  0.00000000E+00  0.00000000E+00  0.00000000E+00
  0.00000000E+00  0.00000000E+00  0.00000000E+00
  0.00000000E+00  0.00000000E+00  0.00000000E+00
  0.00000000E+00  0.00000000E+00  0.00000000E+00
  0.00000000E+00  0.00000000E+00  0.00000000E+00
  0.00000000E+00  0.00000000E+00  0.00000000E+00
  0.00000000E+00  0.00000000E+00  0.00000000E+00
  0.00000000E+00  0.00000000E+00  0.00000000E+00
  0.00000000E+00  0.00000000E+00  0.00000000E+00
  0.00000000E+00  0.00000000E+00  0.00000000E+00
  0.00000000E+00  0.00000000E+00  0.00000000E+00
  0.00000000E+00  0.00000000E+00  0.00000000E+00
  0.00000000E+00  0.00000000E+00  0.00000000E+00
  0.00000000E+00  0.00000000E+00  0.00000000E+00
  0.00000000E+00  0.00000000E+00  0.00000000E+00
  0.00000000E+00  0.00000000E+00  0.00000000E+00
  0.00000000E+00  0.00000000E+00  0.00000000E+00
  0.00000000E+00  0.00000000E+00  0.00000000E+00
  0.00000000E+00  0.00000000E+00  0.00000000E+00
  0.00000000E+00  0.00000000E+00  0.00000000E+00
  0.00000000E+00  0.00000000E+00  0.00000000E+00
  0.00000000E+00  0.00000000E+00  0.00000000E+00
  0.00000000E+00  0.00000000E+00  0.00000000E+00
  0.00000000E+00  0.00000000E+00  0.00000000E+00
  0.00000000E+00  0.00000000E+00  0.00000000E+00
  0.00000000E+00  0.00000000E+00  0.00000000E+00
  0.00000000E+00  0.00000000E+00  0.00000000E+00
  0.00000000E+00  0.00000000E+00  0.00000000E+00
  0.00000000E+00  0.00000000E+00  0.00000000E+00
  0.00000000E+00  0.00000000E+00  0.00000000E+00
  0.00000000E+00  0.00000000E+00  0.00000000E+00
  0.00000000E+00  0.00000000E+00  0.00000000E+00
  0.00000000E+00  0.00000000E+00  0.00000000E+00
  0.00000000E+00  0.00000000E+00  0.00000000E+00
  0.00000000E+00  0.00000000E+00  0.00000000E+00
  0.00000000E+00  0.00000000E+00  0.00000000E+00
  0.00000000E+00  0.00000000E+00  0.00000000E+00
  0.00000000E+00  0.00000000E+00  0.00000000E+00
  0.00000000E+00  0.00000000E+00  0.00000000E+00
  0.00000000E+00  0.00000000E+00  0.00000000E+00
  0.00000000E+00  0.00000000E+00  0.00000000E+00
  0.00000000E+00  0.00000000E+00  0.00000000E+00
  0.00000000E+00  0.00000000E+00  0.00000000E+00
  0.00000000E+00  0.00000000E+00  0.00000000E+00
  0.00000000E+00  0.00000000E+00  0.00000000E+00
  0.00000000E+00  0.00000000E+00  0.00000000E+00
  0.00000000E+00  0.00000000E+00  0.00000000E+00
  0.00000000E+00  0.00000000E+00  0.00000000E+00
  0.00000000E+00  0.00000000E+00  0.00000000E+00
  0.00000000E+00  0.00000000E+00  0.00000000E+00
  0.00000000E+00  0.00000000E+00  0.00000000E+00
  0.00000000E+00  0.00000000E+00  0.00000000E+00
  0.00000000E+00  0.00000000E+00  0.00000000E+00
  0.00000000E+00  0.00000000E+00  0.00000000E+00
  0.00000000E+00  0.00000000E+00  0.00000000E+00
  0.00000000E+00  0.00000000E+00  0.00000000E+00
  0.00000000E+00  0.00000000E+00  0.00000000E+00
  0.00000000E+00  0.00000000E+00  0.00000000E+00
  0.00000000E+00  0.00000000E+00  0.00000000E+00
  0.00000000E+00  0.00000000E+00  0.00000000E+00
  0.00000000E+00  0.00000000E+00  0.00000000E+00
  0.00000000E+00  0.00000000E+00  0.00000000E+00
  0.00000000E+00  0.00000000E+00  0.00000000E+00
  0.00000000E+00  0.00000000E+00  0.00000000E+00
  0.00000000E+00  0.00000000E+00  0.00000000E+00
  0.00000000E+00  0.00000000E+00  0.00000000E+00
  0.00000000E+00  0.00000000E+00  0.00000000E+00
  0.00000000E+00  0.00000000E+00  0.00000000E+00
