Ta  N Co Cu                             
   1.00000000000000     
    18.1096308199999996    0.0000000000000000    0.0000000000000000
     0.0000000000000000   23.3551997799999995    0.0000000000000000
     0.0000000000000000    0.0000000000000000   30.4818171199999988
   Ta   N    Co   Cu
   216   240    24     2
Direct
  0.0006053495838430  0.0010515599138685  0.1973085786680784
  0.3341714938591593  0.0638934753209597  0.2029930421926878
  0.1671493415792540  0.0639228248613435  0.2029391997832874
  0.2507723702767279  0.1261662438792044  0.2785545081202088
  0.0834059787380568  0.0635040118197736  0.2839954493312007
  0.4179946918406614  0.0636035015173206  0.2841738257181277
  0.0008846223909842  0.1253848288710557  0.3698900204347098
  0.3332627071119205  0.0633505856534171  0.3687459219227804
  0.1688061930504290  0.0631178504318726  0.3684901333811581
  0.2514018487928737  0.1256162780866958  0.4568099213855774
  0.0838718761644373  0.0622256878563832  0.4539387711766167
  0.4188664002598941  0.0633190310846885  0.4538899626192503
  0.3382713641831003  0.0635825582354883  0.5416624644788115
  0.1641057320792072  0.0606182909471542  0.5416865498801400
  0.0002224686699250  0.1267875673794876  0.1979562527408660
  0.3349063407649666  0.1886972827977900  0.2033094213052422
  0.1659316739142724  0.1888171583682094  0.2033980684203200
  0.2504697990499452  0.2510226521053838  0.2795077127858150
  0.0829794507468620  0.1885358157233483  0.2849553245460257
  0.4179141277290128  0.1886423853501640  0.2849735126844521
  0.0002911748665611  0.2503529759524952  0.3713242658133780
  0.3328719460081260  0.1881612368414949  0.3695194769982280
  0.1686908743497710  0.1878559229778958  0.3690915390258525
  0.2509519752189888  0.2481659828720026  0.4573567464194639
  0.0842438253644104  0.1863308942819444  0.4542319285033969
  0.4170150275439966  0.1877254996911830  0.4553700921670938
  0.3402521213728420  0.1887741534744407  0.5463243037945773
  0.1650000389893478  0.1870688906344711  0.5438638902781889
  0.9999854997145619  0.2514806059187720  0.1989175621714949
  0.3346640045098184  0.3136953143762753  0.2037268941394856
  0.1657241969948871  0.3137869739201733  0.2040771779723727
  0.2501667742575222  0.3757784109283691  0.2796573738243140
  0.0826877308073932  0.3134121569570425  0.2857860863395487
  0.4174283213309167  0.3135038255452187  0.2853840320410796
  0.0001409484864467  0.3751986188765315  0.3721366962948096
  0.3321167142190049  0.3133011213155541  0.3699437328522919
  0.1685825349021854  0.3129311742312666  0.3696029464239388
  0.2496863168733370  0.3774058174052755  0.4597413897975144
  0.0862676011245824  0.3114509064687141  0.4554626144358096
  0.4161665205878293  0.3127156036749739  0.4551405248263194
  0.3643229427198165  0.3191810869946394  0.5479952881203687
  0.9996744024323618  0.3758046664615264  0.1995790242054554
  0.3340079903119317  0.4382453982574290  0.2040486038523710
  0.1661847628289834  0.4381585661954546  0.2043981924906859
  0.2509347098548034  0.0009767623269852  0.2779783342257574
  0.0827371087813304  0.4382889023285443  0.2860490538404648
  0.4171986966839114  0.4384683517762227  0.2855726522488311
  0.0013236927205611  0.0005998402317218  0.3690341722109025
  0.3311354518549336  0.4386002962528224  0.3703957453313862
  0.1689926077648920  0.4383949270973133  0.3702074622801348
  0.2515779925138588  0.0002647063574273  0.4559165291418381
  0.0856825607183538  0.4373374067132403  0.4550082839266878
  0.4169183254612250  0.4383837156816313  0.4540202152398294
  0.3449068638819099  0.4401355194633467  0.5476124294117142
  0.9999183897531552  0.5006086146097601  0.1994881310367376
  0.3345988721785531  0.5631409661551459  0.2036608176229961
  0.1658324745650930  0.5628779973752671  0.2038796509134144
  0.2502293387187322  0.6256426113344347  0.2792923786026407
  0.0828351870842710  0.5631948825665845  0.2855024523907588
  0.4171939845390469  0.5633782872132187  0.2853380896820994
  0.0009407616635855  0.6262491919243658  0.3707036692658505
  0.3311227351763648  0.5639054481810035  0.3702584052323843
  0.1685797893863068  0.5638452289318536  0.3698963938799125
  0.2495354684301105  0.6264780573284057  0.4639480746650193
  0.0832369533777140  0.5626370660610789  0.4547618127751960
  0.4169867014487778  0.5641227212310440  0.4545891452311110
  0.3671266409852194  0.5604494924098589  0.5475600912598324
  0.0001601554439716  0.6250846255825309  0.1986213569298059
  0.3344629574593512  0.6879698823168923  0.2031420661056487
  0.1663854988334634  0.6878250892821924  0.2031718264113067
  0.2507072365237022  0.7506526603771135  0.2780990194872999
  0.0831697372702038  0.6881725618190089  0.2844163571838365
  0.4175402042327008  0.6882847425448944  0.2845522007063863
  0.0015775281669832  0.7510922916073426  0.3693563482909141
  0.3323083185551639  0.6883395035318074  0.3692073741029986
  0.1684645118766284  0.6882920777043253  0.3689297418859212
  0.2523948231735744  0.7538728570233246  0.4550624782896335
  0.0853956031380534  0.6894369830269014  0.4557645534556372
  0.4170865179043304  0.6893228038647692  0.4547024945782283
  0.3411718557464809  0.6927565932590625  0.5446208201926623
  0.0004679926160662  0.7503431417926336  0.1976282569247587
  0.3344202643135290  0.8131822040979770  0.2026321139360903
  0.1668172719242023  0.8131531245532884  0.2024862191576844
  0.2509649536407750  0.8759253366933208  0.2776169583137857
  0.0834607516377375  0.8132627243610031  0.2835989967164210
  0.4179179243348727  0.8133406517654009  0.2839161233646834
  0.0015504121463081  0.8759698168929475  0.3686877568371614
  0.3334162376483647  0.8136836559340423  0.3684475855817624
  0.1688932898190316  0.8135679294343561  0.3679109531255094
  0.2525831845634059  0.8764528733566266  0.4555142639310006
  0.0851364617411932  0.8146179498376398  0.4530285454059211
  0.4183071961159541  0.8144724277663400  0.4535275806249359
  0.3441644947522775  0.8160253949106817  0.5425629893065320
  0.1732518415673283  0.8049612854193597  0.5415585046211149
  0.0005584986796165  0.8758071860862344  0.1971029838430880
  0.3346782304902263  0.9384709343244708  0.2024775339415612
  0.1667670621657393  0.9384072609312923  0.2023483330820071
  0.2500518505794815  0.5008659598120460  0.2797553554040277
  0.0835796386848600  0.9384181852265030  0.2834577672894696
  0.4180962681124782  0.9384927029606587  0.2837588323365310
  0.0005729533125916  0.5009720594928950  0.3714805808879902
  0.3334231193157748  0.9386453087969642  0.3681971049878001
  0.1689840245094132  0.9384562692998344  0.3678540522302995
  0.2494646497580106  0.4996770895573448  0.4612746350920318
  0.0844346336475326  0.9381022669152443  0.4532656899319960
  0.4196367060949058  0.9388913087932735  0.4534062878480256
  0.3393988239394119  0.9394331615417144  0.5414891052232917
  0.1651709013339442  0.9334785619903201  0.5417426046774310
  0.5005408989285058  0.0010615147202202  0.1974040790556657
  0.8341386759183038  0.0637648897410088  0.2030233172411400
  0.6670709294786974  0.0637081037788647  0.2030364876503867
  0.7506835675019801  0.1260170877444438  0.2787015339542904
  0.5835446582400436  0.0635018404573415  0.2841685077157834
  0.9178497227331519  0.0634693607450956  0.2841405937494841
  0.5005651430238984  0.1257985721064756  0.3699391586775960
  0.8331168143510510  0.0630986470655941  0.3687667467313105
  0.6684983286450077  0.0631336751643445  0.3687701188113834
  0.7510971873605428  0.1236871287444146  0.4567014207513722
  0.5836358266993855  0.0622232042733302  0.4541339435612599
  0.9194811729142245  0.0619504495840673  0.4537775950287184
  0.8380506622817023  0.0582352404919817  0.5413666485241819
  0.6642376597988147  0.0615208969139118  0.5422903426300110
  0.5006600252190765  0.1268451886815640  0.1979424512030121
  0.8349868943831567  0.1889208083705896  0.2035281302578937
  0.6662240650340863  0.1887787867413806  0.2033633967757353
  0.7506688193063127  0.2509269314021694  0.2796026457076835
  0.5835769461906466  0.1885643213754449  0.2849242322876151
  0.9173680857508728  0.1885723158558861  0.2852311439540784
  0.4996916203101165  0.2504390518809743  0.3706195404384189
  0.8327822154121236  0.1879882227192695  0.3699099523383182
  0.6684642339199698  0.1881136342279959  0.3695662236406108
  0.7509244807259279  0.2493070450873631  0.4594313025059051
  0.5820736591094828  0.1861170775877099  0.4543939463944895
  0.9179017864956478  0.1861648049197342  0.4548257808829774
  0.8433824147646192  0.1788007463790677  0.5446058615706448
  0.6674251945728642  0.1876606957993801  0.5434093338851511
  0.5004882430777400  0.2513905417852911  0.1985924407518169
  0.8351607851529010  0.3137010224723085  0.2042006586889258
  0.6663932613457391  0.3135905472864451  0.2038574812573586
  0.7508250092969107  0.3757947684395120  0.2799102292766307
  0.5837065448317063  0.3134375457854262  0.2852856071998460
  0.9169602935433971  0.3134620385948566  0.2863774500073646
  0.4990525785386239  0.3757207508514782  0.3703007206139617
  0.8318538252366849  0.3132068334192581  0.3717261166368573
  0.6685546017332058  0.3133090464943962  0.3703803338247411
  0.7536074902592063  0.3762677755748101  0.4649644706300791
  0.5814943899943259  0.3118912326292858  0.4542461856079285
  0.9180747427118376  0.3111950519915894  0.4573818521239019
  0.8182600887445304  0.2956364117479779  0.5571118833547430
  0.5005294515566092  0.3758517968948709  0.1989590981166174
  0.8348105235977741  0.4382555027597164  0.2044459032604635
  0.6666646003662109  0.4383485635629398  0.2039645743217662
  0.7506648283958555  0.0008089417772936  0.2779985425236191
  0.5837007098693192  0.4384295421712139  0.2851873260310569
  0.9166449699339196  0.4383133711352016  0.2866002202911062
  0.5011175465501836  0.0008333749665113  0.3693670188708467
  0.8314439949506536  0.4384633580563531  0.3720787958122074
  0.6690202432629491  0.4385611703574597  0.3698443612594033
  0.7510664743717257  0.9996069758538866  0.4555521184020748
  0.5804429216016302  0.4388370789459799  0.4518899976781157
  0.9199210416913246  0.4387912172515200  0.4554784311647282
  0.8376680620693762  0.4256128440521607  0.5498156914278027
  0.5002943010019223  0.5007838337291375  0.1989217537469727
  0.8349583252842621  0.5629738085507725  0.2038845562788154
  0.6662533325679973  0.5630971917052747  0.2035167909503173
  0.7504879477435864  0.6258558419487770  0.2789631032667970
  0.5835208508419925  0.5634378566239988  0.2849423763860628
  0.9169287642808683  0.5632037141894699  0.2858401902774901
  0.4994480218285275  0.6264300172014003  0.3702269100671813
  0.8317271857085586  0.5636200782499117  0.3709537954375151
  0.6688049136686232  0.5636291171295014  0.3697773732830640
  0.7496636820264087  0.6265071758869993  0.4612828787176184
  0.5811574312734109  0.5649323233440953  0.4535216377528144
  0.9189689729614798  0.5656395731800004  0.4548357333728177
  0.8465080730273939  0.5619615752863396  0.5438158897286343
  0.5003155361010485  0.6252696776843010  0.1983942268473982
  0.8345944234435692  0.6879073931565429  0.2032017881554893
  0.6666124166476948  0.6881400460532561  0.2030346291055665
  0.7505711705081950  0.7508636115560918  0.2780144912956644
  0.5834125449542569  0.6883273809393913  0.2843599469346572
  0.9173907513377415  0.6881975627481225  0.2846882614522031
  0.5001906324157872  0.7511464036492939  0.3695755618816392
  0.8323868434528947  0.6886221996376989  0.3691276863583184
  0.6684148929043232  0.6886425498135367  0.3688894503124303
  0.7519679514725510  0.7534785087910123  0.4563621280554884
  0.5821156928185900  0.6902952592421983  0.4538137079118130
  0.9194295337038838  0.6902861369360664  0.4537384913140485
  0.8469500533609917  0.6971692666030620  0.5449415649141187
  0.5003168768925548  0.7504275753605398  0.1976317997606429
  0.8345233721010743  0.8130009904621218  0.2025511471618984
  0.6666766705148603  0.8132015658685816  0.2025531616616334
  0.7506216520277462  0.8759603167447949  0.2777881198978349
  0.5832745538014308  0.8133541767534425  0.2837994615469199
  0.9179772352484932  0.8132805490486277  0.2838121760274035
  0.5010431568576408  0.8760755452799529  0.3691702990670933
  0.8330863382103502  0.8135430856579262  0.3682628915503301
  0.6685552765057494  0.8135416762379037  0.3681440841407380
  0.7519019175879649  0.8753058867604793  0.4554167646010470
  0.5834674734548670  0.8144589850867945  0.4535431046546421
  0.9205274604457614  0.8145429188563114  0.4525975843563046
  0.8429002467051490  0.8162451826241011  0.5405003909633237
  0.6698005762776233  0.8080299615321991  0.5410520255626068
  0.5005411474660235  0.8759115038805163  0.1972219978405434
  0.8346156747854394  0.9384522450475501  0.2024051902690616
  0.6665888489582699  0.9384223230749669  0.2024917664313506
  0.7507242771973850  0.5008667773173983  0.2796360127904407
  0.5834167371822758  0.9384145507002870  0.2837399021634397
  0.9179917609222557  0.9383620015570031  0.2835958112256662
  0.4989269604379061  0.5013617132293788  0.3700972627940047
  0.8332135422881919  0.9383059124995228  0.3680253978432404
  0.6685958618378649  0.9383467233228941  0.3681752207566475
  0.7522723523954014  0.5032601650396131  0.4653296485196421
  0.5841432335831058  0.9381526928710358  0.4539355244216949
  0.9196182169072671  0.9379986059750820  0.4529754250092211
  0.8393748221593853  0.9368774314330253  0.5412506561134265
  0.6649562160521469  0.9348529690453375  0.5421537789579389
  0.4061995989032070  0.0011889801819152  0.2322348123240303
  0.2506317616967237  0.0011100339934416  0.1989591063219365
  0.0950950845246723  0.0011362782998461  0.2319907450675700
  0.1555722711142522  0.1257565822985924  0.3161139123685999
  0.0004765463266452  0.1258901389110605  0.3032773059358291
  0.3458714497377571  0.1259707336656462  0.3163693732968653
  0.4018632371035267  0.1258291849580573  0.4027320174188276
  0.2508630727121783  0.1253955695688020  0.3885206714440628
  0.0998093064167875  0.1250034997591598  0.4022934090785668
  0.1511654236761117  0.1245424537093527  0.4874592654894556
  0.0016153595675519  0.1239554251998101  0.4752475136125796
  0.3513937445900908  0.1254956944612289  0.4881938250801525
  0.4063441563182337  0.1239058585469053  0.5674807475726595
  0.2501268533659058  0.1186728474259624  0.5550459031838102
  0.0964612303116255  0.1239411474912231  0.5663124711814973
  0.4062061337858296  0.1264679281579433  0.2328248411201344
  0.2504848495112384  0.1267447125668184  0.1991865445054728
  0.0947637822117926  0.1264184519822606  0.2327037409918944
  0.1552733407926326  0.2506822332166649  0.3169310950019479
  0.0001035029008847  0.2509094356170181  0.3046005533030751
  0.3456770725478293  0.2508850427078713  0.3171299336029136
  0.4005266577544049  0.2504047231753290  0.4035674259852868
  0.2505190988298338  0.2504720044347550  0.3894658346371216
  0.1002711061598731  0.2495849018847025  0.4030100463367603
  0.1526144261075331  0.2462403005963836  0.4885789370402946
  0.0014070414426683  0.2484552237983948  0.4748851665930331
  0.3486964881142498  0.2506714556298064  0.4909787086355877
  0.4118192475689000  0.2471297384559037  0.5707500697989261
  0.2488875634346499  0.2261340204317577  0.5738732698147473
  0.0822455428967928  0.2500047106904120  0.5624686249777540
  0.4058989571592591  0.2512299913641058  0.2335031723160341
  0.2503258418518115  0.2513127551742897  0.2021347061138954
  0.0945822127578211  0.2512777399693675  0.2336946318077722
  0.1554071139205817  0.3759251856147543  0.3174487123497869
  0.9999081152911415  0.3758797429061147  0.3053825636144367
  0.3451112007143848  0.3760789305747991  0.3174536262776471
  0.3998418291377490  0.3756678374439844  0.4031944428699958
  0.2500162744391972  0.3757599389239417  0.3908610371163661
  0.1011080762512933  0.3747680506036772  0.4031073977676058
  0.1498246511421470  0.3747031757190769  0.4903281099980745
  0.0023434891390011  0.3739944240094459  0.4700328134970846
  0.3512837386005998  0.3778758840094412  0.4897282003212311
  0.4277061157208237  0.3800462605645549  0.5677017852733925
  0.2817141436847166  0.3730639999458489  0.5689382709298414
  0.0552143840082095  0.3701617469326237  0.5586679629294267
  0.4057013111598664  0.3759722005262205  0.2336692218416303
  0.2502267783412364  0.3757658614325052  0.2004133682580687
  0.0944281513692715  0.3759197101950136  0.2341683873617484
  0.1557794960418661  0.0009403947829369  0.3155308097038869
  0.0007882281677141  0.0008545981014834  0.3024452006105705
  0.3459144211315106  0.0010672114414945  0.3157678263935395
  0.4024865129847868  0.0010600064338533  0.4019233812072045
  0.2510927401883691  0.0008131233187001  0.3878397224553254
  0.1000479959542275  0.0005061053195874  0.4017381747828921
  0.1515178865285876  0.9991400546599749  0.4869218045554575
  0.0017359953866105  0.0001679270015202  0.4747207261516238
  0.3519570430231553  0.0009119031252212  0.4868542528150002
  0.4088703910398976  0.0010341823237425  0.5653093392427664
  0.2516381181627807  0.9988645166567593  0.5555727267849946
  0.0960091217461141  0.9966393473437165  0.5654508921312100
  0.4054897951788519  0.5007796951690011  0.2336924533403462
  0.2502302229008819  0.5007394651943144  0.2011783422592330
  0.0946787785446190  0.5005663097688853  0.2340900769593475
  0.1553246085593756  0.6257680856315986  0.3168232363760382
  0.0001620282630412  0.6258034154273346  0.3039967986899583
  0.3451823961944527  0.6258404497469741  0.3170536691631511
  0.4001443483726206  0.6265393970698625  0.4029325758329279
  0.2498953254928864  0.6262512663006632  0.3917571984722557
  0.1000613149014029  0.6269352610942605  0.4027166891994796
  0.1439185656457411  0.6249727341771276  0.4863939976589862
  0.0000534593140955  0.6274268860571084  0.4739628039216726
  0.3541253737060401  0.6263628319129353  0.4902894780671190
  0.4050591499269487  0.6333793935436276  0.5729129548870802
  0.2367577665305163  0.6560165748596560  0.5360867681662995
  0.0660972034972858  0.6148698570252762  0.5623446436645096
  0.4057336340050526  0.6255221416869290  0.2332582811167470
  0.2502708131622668  0.6252789379211876  0.2007905325995551
  0.0947419310953137  0.6253323674459494  0.2332960685794347
  0.1557628709467735  0.7507668943135997  0.3157308076650409
  0.0006450597019310  0.7507661262174494  0.3027914203798616
  0.3455660897047537  0.7508159081813517  0.3160609061936697
  0.4011159596298697  0.7511344503998814  0.4021442173039134
  0.2507937757420606  0.7508515563867988  0.3878194704016877
  0.1005569254655967  0.7511362423588039  0.4015967157187319
  0.1542319190272750  0.7556951630822724  0.4844591543901302
  0.0029076501471863  0.7525986331956744  0.4733933529209509
  0.3506719694180944  0.7526077241332345  0.4882043825414328
  0.4127858507479942  0.7552947837735289  0.5668126820807657
  0.2626669350936339  0.7623616688692323  0.5630593249687834
  0.0984333401853519  0.7375232653720047  0.5620368762397234
  0.4059583159120024  0.7505789768332463  0.2325246138868238
  0.2504699657073317  0.7503519689077365  0.1992400395341889
  0.0950152748392696  0.7504565184353567  0.2323000062048237
  0.1558625220477907  0.8759353346048826  0.3152331301213991
  0.0008732680983954  0.8758324888833826  0.3021860127621210
  0.3459250908501019  0.8760053481687464  0.3155679535653206
  0.4023155536017100  0.8764194169763044  0.4016999725782782
  0.2512202606289762  0.8763503555194490  0.3874669276194709
  0.1002857341930081  0.8761941366392634  0.4012538138069388
  0.1526472811093882  0.8754633634996836  0.4861671610799405
  0.0023708525885624  0.8761348553826593  0.4744388438345624
  0.3529567406732284  0.8775656008959913  0.4869558010284081
  0.4110540968431451  0.8795468496031518  0.5663731676451320
  0.2535575867054405  0.8782412014097503  0.5555568082554458
  0.1000567850531269  0.8672955777501272  0.5645633411873305
  0.4061757591078035  0.8758354934972559  0.2321098633810124
  0.2506465152200832  0.8758454849200490  0.1988045316205671
  0.0950779251514504  0.8757883081572970  0.2318043251137212
  0.1553845838569146  0.5009430511258515  0.3175555385027167
  0.9999678447407945  0.5007757498907779  0.3048556452422275
  0.3449189780792068  0.5010938315338507  0.3175317771745654
  0.3997254407351036  0.5012652955039627  0.4029509691794075
  0.2497358952946271  0.5015988406286027  0.3916971029320351
  0.1007472326466541  0.5006230768682087  0.4030904653985985
  0.1476357199787302  0.5000234023979857  0.4900788317214193
  0.0009853624103684  0.5005595488813839  0.4728516582470519
  0.3531962713097059  0.4988690979907773  0.4890640224698402
  0.4272146679749582  0.4974355090811784  0.5684145181676570
  0.2800560778961980  0.5099805469785963  0.5647168099819169
  0.0561125599494474  0.4905203215123279  0.5605867234192132
  0.9061516167599990  0.0010952109438804  0.2320578295820894
  0.7506112869064978  0.0010102972859443  0.1986413021635229
  0.5950478721924313  0.0010872540856184  0.2321459671187469
  0.6557572975985480  0.1258486812148618  0.3164251854744506
  0.5007684166578201  0.1260154973827596  0.3032936852097023
  0.8455624628016025  0.1257708661065138  0.3165357462607687
  0.9022922335512717  0.1247393292490386  0.4024760358252877
  0.7506870726624726  0.1251941066134776  0.3887653517899068
  0.5993283638237799  0.1249830690812530  0.4024048468072294
  0.6511557857730921  0.1244367241669693  0.4876428243470414
  0.5005927160963282  0.1246115085568036  0.4753686210787436
  0.8517468902627670  0.1221966642511632  0.4877509664078445
  0.9098702068568585  0.1175640439465013  0.5675702765518693
  0.7525789586709877  0.1176922978048935  0.5559142950409708
  0.5986510042801925  0.1261502755666086  0.5664479129812676
  0.9060281702700479  0.1263918070987344  0.2329727154256673
  0.7506204835757657  0.1266095918790597  0.1998475082014082
  0.5950071020668020  0.1263246950669625  0.2328220001731580
  0.6558342036043214  0.2509728749492979  0.3171720814899572
  0.5006351924673069  0.2510780221399784  0.3039562078156095
  0.8450446183661384  0.2510576369635587  0.3178912504869515
  0.9011677402972467  0.2498103156459521  0.4039142400526075
  0.7501805122851906  0.2503510522149739  0.3906803376727126
  0.5986181545108877  0.2497825109743701  0.4027053811130799
  0.6481787941429928  0.2451427567797211  0.4874518866385600
  0.4990430769209269  0.2487897926648230  0.4755406733182284
  0.8520158282140855  0.2446130523778791  0.4902431312227193
  0.9093413270415098  0.2453294199979865  0.5678980735161971
  0.7568721168990891  0.2284331128867265  0.5721034248671444
  0.5901265324175853  0.2515163913914336  0.5620501041600576
  0.9057417738313589  0.2513458784857860  0.2341456234519796
  0.7506591752226370  0.2512625706459275  0.2014011427734061
  0.5950989033685943  0.2511735183326493  0.2334463627537886
  0.6561712738316814  0.3759208372353555  0.3172846202138260
  0.5004683813346915  0.3759695545502453  0.3038588570803498
  0.8445074664077268  0.3759124307593567  0.3187438119891723
  0.9004726951642397  0.3748381395147575  0.4044871173974656
  0.7499522399671861  0.3761360976406465  0.3934644515309813
  0.5981512642919498  0.3752969086384184  0.4010253274205979
  0.6454336693304583  0.3769038656109487  0.4815866273592988
  0.4993273709125603  0.3752583997096366  0.4723791981997678
  0.8668434968873697  0.3753139085791730  0.4950955277377318
  0.8200849829776189  0.3658355442555887  0.5903914030242348
  0.7436236483817424  0.3130991120274231  0.5101515252413265
  0.5986250736960130  0.3763254984349089  0.5592263230025196
  0.9055176673859364  0.3759436518679138  0.2347950482896835
  0.7506587884764144  0.3758587478384143  0.2011782513388880
  0.5951749511921065  0.3759142978577259  0.2335858892611782
  0.6556211563850596  0.0009152248516102  0.3157330642295264
  0.5008192359613588  0.0009586388713316  0.3027080764890258
  0.8458194904634482  0.0008687583376883  0.3156455897104422
  0.9026729969131395  0.0004297675209557  0.4016275593793779
  0.7509190418875349  0.0005457457849971  0.3876568324889433
  0.5997583913139550  0.0004865938054266  0.4021148808043264
  0.6517334035113720  0.9996245448001062  0.4873902209725713
  0.5015292396903064  0.0005138377764027  0.4750902338990102
  0.8514975470563115  0.9989084378143076  0.4866388501874752
  0.9096119638217743  0.9971996699072321  0.5653179265743660
  0.7523276077838474  0.9967713455645537  0.5568127283436368
  0.5967022524043060  0.9975097227150940  0.5659838969105238
  0.9054853777032648  0.5005770626618755  0.2344942499555387
  0.7506394719076681  0.5007132322491472  0.2007760170719024
  0.5950905695180140  0.5008289769295615  0.2334234211022803
  0.6558391493107578  0.6258288207741245  0.3165916432146858
  0.5004349294895363  0.6259128924723782  0.3035817844308610
  0.8447526142164747  0.6256691287363196  0.3171905074356687
  0.9013647223576839  0.6270690354831174  0.4024237872783729
  0.7499212322840947  0.6263024978799123  0.3912002076691081
  0.5988779863710789  0.6269124953476108  0.4016640534176616
  0.6457077382022263  0.6299749656457223  0.4859320291811642
  0.4986420824493365  0.6276217406503335  0.4738900563635440
  0.8529632452699332  0.6317756143977462  0.4879531133297661
  0.8895138192286751  0.6285115318663870  0.5737509066946913
  0.7442610057563073  0.5673799320787367  0.5179553893608571
  0.5844953897819281  0.6226987613898842  0.5606794794048895
  0.9056984332642344  0.6253430503980724  0.2335363341561987
  0.7505686852849038  0.6253847528312235  0.2003972839232304
  0.5950727449001292  0.6256356769374420  0.2329339270228630
  0.6556883966924545  0.7509302161404889  0.3158230185486204
  0.5005383814425812  0.7508066243143219  0.3029432838427226
  0.8453848342069534  0.7509381056386388  0.3159182450913249
  0.9025225900228193  0.7515784918448603  0.4013451563162889
  0.7506251673242659  0.7511415479145782  0.3884823809931390
  0.5993735764146564  0.7519878153331945  0.4015712027055045
  0.6510211104691450  0.7532166412848511  0.4862365718198092
  0.4998205634227446  0.7530749303275854  0.4740095719724380
  0.8536493455157981  0.7541152474413693  0.4862485154380920
  0.9163536222339985  0.7539362975958284  0.5644459347520581
  0.7603411638789837  0.7513119367834378  0.5558333666359232
  0.5875050976486165  0.7493831417261063  0.5631434455596036
  0.9060383049349454  0.7504823165648915  0.2324536012347806
  0.7506059060608763  0.7504950741794545  0.1987135864113370
  0.5949376255678871  0.7506557177488560  0.2322777104903082
  0.6555982992710341  0.8758830090979330  0.3155193598041777
  0.5007401284112589  0.8758884861190737  0.3025711151197186
  0.8458875287392829  0.8758621615891258  0.3154066169085326
  0.9027571872848270  0.8762337406374030  0.4011616383981007
  0.7508939177861649  0.8759042761291767  0.3874495796392026
  0.5998285942491393  0.8761134573998177  0.4017546353770527
  0.6524190963653851  0.8746407261123252  0.4871351377992923
  0.5016889702215082  0.8765246555223101  0.4747317763378689
  0.8524672689560546  0.8765457955383908  0.4863985579868455
  0.9119975691520139  0.8760508845598167  0.5650883071106207
  0.7538672993424811  0.8735018913482548  0.5563053468526249
  0.6008485355517408  0.8702739937244957  0.5661426580040754
  0.9061576488628447  0.8757338793124703  0.2319259949535564
  0.7506727913510218  0.8758035399125248  0.1993957643226452
  0.5949303191884923  0.8758174740268956  0.2320243288241670
  0.6562371346244262  0.5010548287375016  0.3170973817510188
  0.5003874061722513  0.5009844028395278  0.3036964901939001
  0.8444266440862691  0.5008902537253945  0.3183591693992298
  0.9011017427079366  0.5017031194061516  0.4031285426490285
  0.7498042488128149  0.5016137664154172  0.3935410623952151
  0.5983500519654896  0.5017529731302162  0.4008216819088375
  0.6446212133605371  0.5017485157499451  0.4825985724831128
  0.4992077171516556  0.5016266752459728  0.4724498073327581
  0.8612547135781696  0.5032558142907604  0.4888383158590273
  0.8812395676476683  0.4954331609535814  0.5764373041828321
  0.7441247506434507  0.4396039745816651  0.5165986158989568
  0.6000153355317366  0.5002479358479448  0.5595718025779561
  0.0030455279113255  0.1139365008699897  0.5429603760102282
  0.9943467489962643  0.2540235991721147  0.5395926042904406
  0.9723970469533540  0.3728380981125596  0.5298702867393033
  0.1122623598389794  0.3147924592001630  0.5384198441516190
  0.0024392581483639  0.0037314154659427  0.5417424899142347
  0.1020278784115476  0.4313278149205004  0.5380209126317723
  0.9812618452382367  0.6218090507148233  0.5379872251523494
  0.1005229533237468  0.5513647091288263  0.5391371994178087
  0.0102580952808182  0.7475976385220946  0.5381545963471055
  0.1281627531044336  0.6687762588455470  0.5419441864156838
  0.0053809433284329  0.8670729874654768  0.5419927698395384
  0.9712327628677997  0.4940740893370332  0.5352618717510040
  0.5014948225073894  0.1275101555014970  0.5442888990168555
  0.5014979927124728  0.2425269095290901  0.5406881057904656
  0.5113688108847683  0.3797184347954214  0.5356935774695017
  0.6302520040503481  0.3114552905131660  0.5333643598229543
  0.5023333693758474  0.9982772743343418  0.5427154800017391
  0.6332761553187822  0.4378581874716119  0.5308669410003901
  0.4962693208183353  0.6295243454144241  0.5392223706075185
  0.6307060781386653  0.5646753218170844  0.5331746981897680
  0.5002022350040605  0.7551949119232617  0.5381934163623896
  0.6172945360098367  0.6866840835305652  0.5357383402135625
  0.5048868761735505  0.8736754474159696  0.5433515746944764
  0.5120894708739598  0.4999109498979166  0.5367299190904760
  0.2344118407091358  0.3044035479192360  0.5801069784413642
  0.2294953833685014  0.5781598776120234  0.5529188725114196
 
  0.00000000E+00  0.00000000E+00  0.00000000E+00
  0.00000000E+00  0.00000000E+00  0.00000000E+00
  0.00000000E+00  0.00000000E+00  0.00000000E+00
  0.00000000E+00  0.00000000E+00  0.00000000E+00
  0.00000000E+00  0.00000000E+00  0.00000000E+00