Ta  N Cu                                
   1.00000000000000     
     9.0548154099999998    0.0000000000000000    0.0000000000000000
     0.0000000000000000   11.6775998899999998    0.0000000000000000
     0.0000000000000000    0.0000000000000000   23.4818170799999990
   Ta   N    Cu
    60    60     2
Selective dynamics
Direct
  0.0000000000000000  0.0000000000000000  0.2546926809530987   F   F   F
  0.6670845899906297  0.1250000003211298  0.2638822399803757   F   F   F
  0.3329153514769843  0.1250000003211298  0.2638822399803757   F   F   F
  0.4999999994478088  0.2499999997859135  0.3618861993156202   F   F   F
  0.1650707596845180  0.1250000003211298  0.3684425577811794   F   F   F
  0.8349292403154820  0.1250000003211298  0.3684425577811794   F   F   F
  0.0000512795060243  0.2501210801693088  0.4798079990620719   T   T   T
  0.6646832611637881  0.1250145151739556  0.4780387276143833   T   T   T
  0.3343479520992204  0.1250014552683957  0.4782510654704231   T   T   T
  0.4994241298843570  0.2502119990347942  0.5909868818104976   T   T   T
  0.1677103491165818  0.1250270654213907  0.5905140404277835   T   T   T
  0.8318622917247565  0.1250441690419218  0.5899276571657530   T   T   T
  0.0006960440496325  0.2493480764644069  0.7016639092004325   T   T   T
  0.6730649256434510  0.1250711558834610  0.7034773682062918   T   T   T
  0.3366018567911738  0.1250397199321134  0.7023364163028878   T   T   T
  0.0000000000000000  0.2499999997859135  0.2546926809530987   F   F   F
  0.6670845899906297  0.3750000001070433  0.2638822399803757   F   F   F
  0.3329153514769843  0.3750000001070433  0.2638822399803757   F   F   F
  0.4999999994478088  0.5000000004281731  0.3618861993156202   F   F   F
  0.1650707596845180  0.3750000001070433  0.3684425577811794   F   F   F
  0.8349292403154820  0.3750000001070433  0.3684425577811794   F   F   F
  0.0000595387499142  0.4999333574262487  0.4798070575863561   T   T   T
  0.6648876093074053  0.3750181387636457  0.4781310761978607   T   T   T
  0.3345376828304361  0.3750237279585354  0.4783360554227049   T   T   T
  0.4994405621368843  0.4998800131520191  0.5909959082811332   T   T   T
  0.1678658793682621  0.3750444939466751  0.5905607460697420   T   T   T
  0.8315291690419017  0.3750662971856702  0.5897745964826445   T   T   T
  0.0007268415287149  0.5007564622929952  0.7016898288608959   T   T   T
  0.6740273573478707  0.3750826983692528  0.7035787265003275   T   T   T
  0.3325191226622101  0.3750306416173064  0.7052822372048302   T   T   T
  0.0000000000000000  0.5000000004281731  0.2546926809530987   F   F   F
  0.6670845899906297  0.6249999998929567  0.2638822399803757   F   F   F
  0.3329153514769843  0.6249999998929567  0.2638822399803757   F   F   F
  0.4999999994478088  0.7500000002140865  0.3618861993156202   F   F   F
  0.1650707596845180  0.6249999998929567  0.3684425577811794   F   F   F
  0.8349292403154820  0.6249999998929567  0.3684425577811794   F   F   F
  0.0000907009097547  0.7501430639090862  0.4798220604240764   T   T   T
  0.6646852256498570  0.6250410289798987  0.4780399426858888   T   T   T
  0.3343507411392118  0.6250343420716673  0.4782555098539890   T   T   T
  0.4993986301249359  0.7502311144811163  0.5910241882552182   T   T   T
  0.1677308718427893  0.6250611054893771  0.5905239456141952   T   T   T
  0.8318770521020531  0.6250650914731852  0.5899289676574949   T   T   T
  0.0008349190789791  0.7493090940809136  0.7017731125542103   T   T   T
  0.6731372309368611  0.6250829704307383  0.7034790574833277   T   T   T
  0.3366490866614699  0.6250222989514048  0.7023380224473432   T   T   T
  0.0000000000000000  0.7500000002140865  0.2546926809530987   F   F   F
  0.6670845899906297  0.8750000005352163  0.2638822399803757   F   F   F
  0.3329153514769843  0.8750000005352163  0.2638822399803757   F   F   F
  0.4999999994478088  0.0000000000000000  0.3618861993156202   F   F   F
  0.1650707596845180  0.8750000005352163  0.3684425577811794   F   F   F
  0.8349292403154820  0.8750000005352163  0.3684425577811794   F   F   F
  0.0000787368386763  0.9999039038482361  0.4798191907602110   T   T   T
  0.6648900200279512  0.8750195835412027  0.4781487023088990   T   T   T
  0.3345328170583654  0.8750149519684528  0.4783657146749831   T   T   T
  0.4993875483968551  0.9998614243674362  0.5910188014867667   T   T   T
  0.1678162171023203  0.8750367777703896  0.5906458165038718   T   T   T
  0.8314983211849046  0.8750596325766233  0.5898016149253253   T   T   T
  0.0007328191385770  0.0007899835961948  0.7017653895668764   T   T   T
  0.6739828841803628  0.8751040008883374  0.7036003397387005   T   T   T
  0.3323904320327339  0.8750384270132948  0.7054695432487000   T   T   T
  0.8141011533980276  0.0000000000000000  0.3013105672926031   F   F   F
  0.4999999994478088  0.0000000000000000  0.2564174481620327   F   F   F
  0.1858988466019724  0.0000000000000000  0.3013105672926031   F   F   F
  0.3088456122590841  0.2499999997859135  0.4099867722441957   F   F   F
  0.0000000000000000  0.2499999997859135  0.3930971035158137   F   F   F
  0.6911543877409159  0.2499999997859135  0.4099867722441957   F   F   F
  0.8021583775074800  0.2500363651437663  0.5219703124859916   T   T   T
  0.4996105994307310  0.2498709150737471  0.5029269007918281   T   T   T
  0.1975075029404627  0.2502013863390881  0.5224284763817462   T   T   T
  0.3033287125926348  0.2508349447584835  0.6342447682973683   T   T   T
  0.9995911897476655  0.2501210726358303  0.6134819743587658   T   T   T
  0.6958436734190556  0.2502876054672284  0.6330527789498993   T   T   T
  0.8081603955410798  0.2496302620627711  0.7402746541655785   T   T   T
  0.5019569574972278  0.2505120503704695  0.7239942045813371   T   T   T
  0.1967919963428029  0.2518025514545286  0.7438785804847098   T   T   T
  0.8141011533980276  0.2499999997859135  0.3013105672926031   F   F   F
  0.4999999994478088  0.2499999997859135  0.2564174481620327   F   F   F
  0.1858988466019724  0.2499999997859135  0.3013105672926031   F   F   F
  0.3088456122590841  0.5000000004281731  0.4099867722441957   F   F   F
  0.0000000000000000  0.5000000004281731  0.3930971035158137   F   F   F
  0.6911543877409159  0.5000000004281731  0.4099867722441957   F   F   F
  0.8021702905393185  0.5000445990036757  0.5219731861896745   T   T   T
  0.4996226066183709  0.5001810623531698  0.5029323549254834   T   T   T
  0.1975166118916085  0.4998636845195043  0.5224344470687099   T   T   T
  0.3033437613334654  0.4992361551373018  0.6342579386626602   T   T   T
  0.9996078877601610  0.4999876452802869  0.6134933530334127   T   T   T
  0.6958471867633745  0.4998575819214874  0.6330578271083827   T   T   T
  0.8082176893910781  0.5005224250523307  0.7402726195156362   T   T   T
  0.5019970854681050  0.4995907179954173  0.7240017800224609   T   T   T
  0.1968401439403085  0.4981934197259742  0.7439040306182999   T   T   T
  0.8141011533980276  0.5000000004281731  0.3013105672926031   F   F   F
  0.4999999994478088  0.5000000004281731  0.2564174481620327   F   F   F
  0.1858988466019724  0.5000000004281731  0.3013105672926031   F   F   F
  0.3088456122590841  0.7500000002140865  0.4099867722441957   F   F   F
  0.0000000000000000  0.7500000002140865  0.3930971035158137   F   F   F
  0.6911543877409159  0.7500000002140865  0.4099867722441957   F   F   F
  0.8021914425355962  0.7500610810018156  0.5219894733231981   T   T   T
  0.4996055289440445  0.7498877400888915  0.5029583016108431   T   T   T
  0.1975185571667613  0.7502467792124630  0.5224822733684733   T   T   T
  0.3032798937449608  0.7508531557929187  0.6343324628582653   T   T   T
  0.9995740873049193  0.7501478665684402  0.6135706563831547   T   T   T
  0.6958045884347516  0.7502974210011335  0.6330692215384290   T   T   T
  0.8081972661378561  0.7496922556495859  0.7402642433216227   T   T   T
  0.5019796745122731  0.7504999299140825  0.7240730148943970   T   T   T
  0.1968726904013689  0.7516772273653430  0.7440917893062421   T   T   T
  0.8141011533980276  0.7500000002140865  0.3013105672926031   F   F   F
  0.4999999994478088  0.7500000002140865  0.2564174481620327   F   F   F
  0.1858988466019724  0.7500000002140865  0.3013105672926031   F   F   F
  0.3088456122590841  0.0000000000000000  0.4099867722441957   F   F   F
  0.0000000000000000  0.0000000000000000  0.3930971035158137   F   F   F
  0.6911543877409159  0.0000000000000000  0.4099867722441957   F   F   F
  0.8021788754587195  0.0000147714452551  0.5219869968569896   T   T   T
  0.4995963919084848  0.0001626999789246  0.5029557644811158   T   T   T
  0.1975087621810764  0.9998036475105462  0.5224788279745303   T   T   T
  0.3032672181438387  0.9992212755652912  0.6343222492921149   T   T   T
  0.9995567636078565  0.9999514201654416  0.6135547734568170   T   T   T
  0.6957848550581748  0.9998402960661310  0.6330669474832458   T   T   T
  0.8081524655362036  0.0004914697188259  0.7402686726288229   T   T   T
  0.5019404367774939  0.9996047151578860  0.7240686704420380   T   T   T
  0.1968092812981706  0.9984026470288985  0.7440564094274157   T   T   T
  0.1407974061428874  0.1252736712777179  0.7916826377376247   T   T   T
  0.1414578147077512  0.6247655508015963  0.7917659563846811   T   T   T
 
  0.00000000E+00  0.00000000E+00  0.00000000E+00
  0.00000000E+00  0.00000000E+00  0.00000000E+00
  0.00000000E+00  0.00000000E+00  0.00000000E+00
  0.00000000E+00  0.00000000E+00  0.00000000E+00
  0.00000000E+00  0.00000000E+00  0.00000000E+00
  0.00000000E+00  0.00000000E+00  0.00000000E+00
  0.00000000E+00  0.00000000E+00  0.00000000E+00
  0.00000000E+00  0.00000000E+00  0.00000000E+00
  0.00000000E+00  0.00000000E+00  0.00000000E+00
  0.00000000E+00  0.00000000E+00  0.00000000E+00
  0.00000000E+00  0.00000000E+00  0.00000000E+00
  0.00000000E+00  0.00000000E+00  0.00000000E+00
  0.00000000E+00  0.00000000E+00  0.00000000E+00
  0.00000000E+00  0.00000000E+00  0.00000000E+00
  0.00000000E+00  0.00000000E+00  0.00000000E+00
  0.00000000E+00  0.00000000E+00  0.00000000E+00
  0.00000000E+00  0.00000000E+00  0.00000000E+00
  0.00000000E+00  0.00000000E+00  0.00000000E+00
  0.00000000E+00  0.00000000E+00  0.00000000E+00
  0.00000000E+00  0.00000000E+00  0.00000000E+00
  0.00000000E+00  0.00000000E+00  0.00000000E+00
  0.00000000E+00  0.00000000E+00  0.00000000E+00
  0.00000000E+00  0.00000000E+00  0.00000000E+00
  0.00000000E+00  0.00000000E+00  0.00000000E+00
  0.00000000E+00  0.00000000E+00  0.00000000E+00
  0.00000000E+00  0.00000000E+00  0.00000000E+00
  0.00000000E+00  0.00000000E+00  0.00000000E+00
  0.00000000E+00  0.00000000E+00  0.00000000E+00
  0.00000000E+00  0.00000000E+00  0.00000000E+00
  0.00000000E+00  0.00000000E+00  0.00000000E+00
  0.00000000E+00  0.00000000E+00  0.00000000E+00
  0.00000000E+00  0.00000000E+00  0.00000000E+00
  0.00000000E+00  0.00000000E+00  0.00000000E+00
  0.00000000E+00  0.00000000E+00  0.00000000E+00
  0.00000000E+00  0.00000000E+00  0.00000000E+00
  0.00000000E+00  0.00000000E+00  0.00000000E+00
  0.00000000E+00  0.00000000E+00  0.00000000E+00
  0.00000000E+00  0.00000000E+00  0.00000000E+00
  0.00000000E+00  0.00000000E+00  0.00000000E+00
  0.00000000E+00  0.00000000E+00  0.00000000E+00
  0.00000000E+00  0.00000000E+00  0.00000000E+00
  0.00000000E+00  0.00000000E+00  0.00000000E+00
  0.00000000E+00  0.00000000E+00  0.00000000E+00
  0.00000000E+00  0.00000000E+00  0.00000000E+00
  0.00000000E+00  0.00000000E+00  0.00000000E+00
  0.00000000E+00  0.00000000E+00  0.00000000E+00
  0.00000000E+00  0.00000000E+00  0.00000000E+00
  0.00000000E+00  0.00000000E+00  0.00000000E+00
  0.00000000E+00  0.00000000E+00  0.00000000E+00
  0.00000000E+00  0.00000000E+00  0.00000000E+00
  0.00000000E+00  0.00000000E+00  0.00000000E+00
  0.00000000E+00  0.00000000E+00  0.00000000E+00
  0.00000000E+00  0.00000000E+00  0.00000000E+00
  0.00000000E+00  0.00000000E+00  0.00000000E+00
  0.00000000E+00  0.00000000E+00  0.00000000E+00
  0.00000000E+00  0.00000000E+00  0.00000000E+00
  0.00000000E+00  0.00000000E+00  0.00000000E+00
  0.00000000E+00  0.00000000E+00  0.00000000E+00
  0.00000000E+00  0.00000000E+00  0.00000000E+00
  0.00000000E+00  0.00000000E+00  0.00000000E+00
  0.00000000E+00  0.00000000E+00  0.00000000E+00
  0.00000000E+00  0.00000000E+00  0.00000000E+00
  0.00000000E+00  0.00000000E+00  0.00000000E+00
  0.00000000E+00  0.00000000E+00  0.00000000E+00
  0.00000000E+00  0.00000000E+00  0.00000000E+00
  0.00000000E+00  0.00000000E+00  0.00000000E+00
  0.00000000E+00  0.00000000E+00  0.00000000E+00
  0.00000000E+00  0.00000000E+00  0.00000000E+00
  0.00000000E+00  0.00000000E+00  0.00000000E+00
  0.00000000E+00  0.00000000E+00  0.00000000E+00
  0.00000000E+00  0.00000000E+00  0.00000000E+00
  0.00000000E+00  0.00000000E+00  0.00000000E+00
  0.00000000E+00  0.00000000E+00  0.00000000E+00
  0.00000000E+00  0.00000000E+00  0.00000000E+00
  0.00000000E+00  0.00000000E+00  0.00000000E+00
  0.00000000E+00  0.00000000E+00  0.00000000E+00
  0.00000000E+00  0.00000000E+00  0.00000000E+00
  0.00000000E+00  0.00000000E+00  0.00000000E+00
  0.00000000E+00  0.00000000E+00  0.00000000E+00
  0.00000000E+00  0.00000000E+00  0.00000000E+00
  0.00000000E+00  0.00000000E+00  0.00000000E+00
  0.00000000E+00  0.00000000E+00  0.00000000E+00
  0.00000000E+00  0.00000000E+00  0.00000000E+00
  0.00000000E+00  0.00000000E+00  0.00000000E+00
  0.00000000E+00  0.00000000E+00  0.00000000E+00
  0.00000000E+00  0.00000000E+00  0.00000000E+00
  0.00000000E+00  0.00000000E+00  0.00000000E+00
  0.00000000E+00  0.00000000E+00  0.00000000E+00
  0.00000000E+00  0.00000000E+00  0.00000000E+00
  0.00000000E+00  0.00000000E+00  0.00000000E+00
  0.00000000E+00  0.00000000E+00  0.00000000E+00
  0.00000000E+00  0.00000000E+00  0.00000000E+00
  0.00000000E+00  0.00000000E+00  0.00000000E+00
  0.00000000E+00  0.00000000E+00  0.00000000E+00
  0.00000000E+00  0.00000000E+00  0.00000000E+00
  0.00000000E+00  0.00000000E+00  0.00000000E+00
  0.00000000E+00  0.00000000E+00  0.00000000E+00
  0.00000000E+00  0.00000000E+00  0.00000000E+00
  0.00000000E+00  0.00000000E+00  0.00000000E+00
  0.00000000E+00  0.00000000E+00  0.00000000E+00
  0.00000000E+00  0.00000000E+00  0.00000000E+00
  0.00000000E+00  0.00000000E+00  0.00000000E+00
  0.00000000E+00  0.00000000E+00  0.00000000E+00
  0.00000000E+00  0.00000000E+00  0.00000000E+00
  0.00000000E+00  0.00000000E+00  0.00000000E+00
  0.00000000E+00  0.00000000E+00  0.00000000E+00
  0.00000000E+00  0.00000000E+00  0.00000000E+00
  0.00000000E+00  0.00000000E+00  0.00000000E+00
  0.00000000E+00  0.00000000E+00  0.00000000E+00
  0.00000000E+00  0.00000000E+00  0.00000000E+00
  0.00000000E+00  0.00000000E+00  0.00000000E+00
  0.00000000E+00  0.00000000E+00  0.00000000E+00
  0.00000000E+00  0.00000000E+00  0.00000000E+00
  0.00000000E+00  0.00000000E+00  0.00000000E+00
  0.00000000E+00  0.00000000E+00  0.00000000E+00
  0.00000000E+00  0.00000000E+00  0.00000000E+00
  0.00000000E+00  0.00000000E+00  0.00000000E+00
  0.00000000E+00  0.00000000E+00  0.00000000E+00
  0.00000000E+00  0.00000000E+00  0.00000000E+00
  0.00000000E+00  0.00000000E+00  0.00000000E+00
  0.00000000E+00  0.00000000E+00  0.00000000E+00
  0.00000000E+00  0.00000000E+00  0.00000000E+00
