generated by phonopy                    
   1.00000000000000     
     5.3183192718005667   -0.0079169865473927   -0.0126444463106806
    -2.6660159473717440    4.6018411015419476    0.0126444463106806
    -0.0208735263290845    0.0120513360450337    8.7546982237274875
   B    N    Ga
    14    16     2
Direct
  0.6624079748010213  0.3255005650363518  0.0024083776391668
  0.1744994349636483  0.8375920251989787  0.0024083776391668
  0.6607235831210007  0.8392764168789993  0.0042880749802687
  0.1607545746547149  0.3392454253452850  0.5042959171284097
  0.6745199509381116  0.3375964923385981  0.5024316922323817
  0.1624035076614019  0.8254800490618884  0.5024316922323817
  0.3344313858966056  0.1655686141033944  0.2623186327193443
  0.8353101659087391  0.1737409508241807  0.2601750232779876
  0.3262590491758193  0.6646898340912609  0.2601750232779876
  0.8371593822692021  0.6628406177307979  0.2502392440533563
  0.3372494295660624  0.1627505704339376  0.7502367338481892
  0.8263643224373444  0.1646200626969179  0.7601776317087042
  0.3353799373030821  0.6736356775626557  0.7601776317087042
  0.8344900905492522  0.6655099094507478  0.7623157193342331
  0.3519928353030944  0.1480071646969056  0.9301918353046782
  0.7975609054842052  0.1526735610768067  0.9376166107764313
  0.3473264389231933  0.7024390945157948  0.9376166107764313
  0.8351666045027033  0.6648333954972967  0.9448176794993430
  0.3351610311439185  0.1648389688560813  0.4448342051023211
  0.8473369441300119  0.2024658105263475  0.4376150492869990
  0.2975341894736527  0.6526630558699881  0.4376150492869990
  0.8519838826757734  0.6480161173242266  0.4301999934248734
  0.1681473045020053  0.3318526954979947  0.2194135118991583
  0.6647992764710730  0.3315994924280468  0.1899919854538458
  0.1684005075719533  0.8352007235289270  0.1899919854538458
  0.6657922014353393  0.8342077985646607  0.1948356857613961
  0.1658831332505039  0.3341168667494961  0.6948354381092907
  0.6684932644404609  0.3351259713407173  0.6900000721728857
  0.1648740286592828  0.8315067355595391  0.6900000721728857
  0.6682268608123565  0.8317731391876435  0.7194012376132766
  0.1696934818028430  0.3303065181971571  0.0099514364863527
  0.6696743201716305  0.8303256798283695  0.5099521795567139
 
  0.00000000E+00  0.00000000E+00  0.00000000E+00
  0.00000000E+00  0.00000000E+00  0.00000000E+00
  0.00000000E+00  0.00000000E+00  0.00000000E+00
  0.00000000E+00  0.00000000E+00  0.00000000E+00
  0.00000000E+00  0.00000000E+00  0.00000000E+00
  0.00000000E+00  0.00000000E+00  0.00000000E+00
  0.00000000E+00  0.00000000E+00  0.00000000E+00
  0.00000000E+00  0.00000000E+00  0.00000000E+00
  0.00000000E+00  0.00000000E+00  0.00000000E+00
  0.00000000E+00  0.00000000E+00  0.00000000E+00
  0.00000000E+00  0.00000000E+00  0.00000000E+00
  0.00000000E+00  0.00000000E+00  0.00000000E+00
  0.00000000E+00  0.00000000E+00  0.00000000E+00
  0.00000000E+00  0.00000000E+00  0.00000000E+00
  0.00000000E+00  0.00000000E+00  0.00000000E+00
  0.00000000E+00  0.00000000E+00  0.00000000E+00
  0.00000000E+00  0.00000000E+00  0.00000000E+00
  0.00000000E+00  0.00000000E+00  0.00000000E+00
  0.00000000E+00  0.00000000E+00  0.00000000E+00
  0.00000000E+00  0.00000000E+00  0.00000000E+00
  0.00000000E+00  0.00000000E+00  0.00000000E+00
  0.00000000E+00  0.00000000E+00  0.00000000E+00
  0.00000000E+00  0.00000000E+00  0.00000000E+00
  0.00000000E+00  0.00000000E+00  0.00000000E+00
  0.00000000E+00  0.00000000E+00  0.00000000E+00
  0.00000000E+00  0.00000000E+00  0.00000000E+00
  0.00000000E+00  0.00000000E+00  0.00000000E+00
  0.00000000E+00  0.00000000E+00  0.00000000E+00
  0.00000000E+00  0.00000000E+00  0.00000000E+00
  0.00000000E+00  0.00000000E+00  0.00000000E+00
  0.00000000E+00  0.00000000E+00  0.00000000E+00
  0.00000000E+00  0.00000000E+00  0.00000000E+00
