Ta  N Ru Cu                             
   1.00000000000000     
    18.1096308199999996    0.0000000000000000    0.0000000000000000
     0.0000000000000000   23.3551997799999995    0.0000000000000000
     0.0000000000000000    0.0000000000000000   30.4818171199999988
   Ta   N    Ru   Cu
   216   240    24    29
Direct
  0.9988884452126442  0.0034609834064331  0.1961615483378529
  0.3246482421295377  0.0618283773084555  0.1994220022068917
  0.1633716644426547  0.0658383002598505  0.1966743409329726
  0.2496775668188727  0.1285907084695997  0.2773569291669424
  0.0797739757667954  0.0672787512824689  0.2829969850436240
  0.4167029488108511  0.0686029647847589  0.2836459257492904
  0.0048724510133009  0.1261216512672545  0.3693835275621500
  0.3316639712837132  0.0654891981136599  0.3679294881596275
  0.1707840134315974  0.0651409973525440  0.3659511131403325
  0.2519201758454029  0.1274148751032291  0.4553077404236386
  0.0809750460796684  0.0617969086332886  0.4540583792299397
  0.4133476531093638  0.0631808360885010  0.4530440307041290
  0.9988811230838420  0.1318342046296867  0.1932870932576546
  0.3274414986052283  0.1990250571557894  0.1999434374015358
  0.1649415245846363  0.1944545231685006  0.2012081755693060
  0.2503104464090356  0.2522581883749372  0.2803815866754184
  0.0803308255024536  0.1919050279992606  0.2810163000940346
  0.4159904355923981  0.1910093905998029  0.2811054121429005
  0.0008873222739831  0.2514988192701708  0.3677761515137373
  0.3329822307073003  0.1889316736353875  0.3670140573557391
  0.1722100570152993  0.1883672006360050  0.3671177434171413
  0.2506732036684495  0.2465310528943902  0.4531607401031578
  0.0847695516704755  0.1872837525073204  0.4536000594287745
  0.4162912324287405  0.1896453900467360  0.4531391042991101
  0.3347616107489839  0.1861185823142883  0.5384697012279270
  0.9952366059123549  0.2564455342730236  0.1952499519927775
  0.3267398126971571  0.3127746235191653  0.2036634231819835
  0.1674718768528568  0.3142560136461020  0.2006808926487623
  0.2482134756451352  0.3770054075475232  0.2799620853364709
  0.0796357412343882  0.3173650053353735  0.2834420920836526
  0.4157676816456147  0.3165645438535278  0.2839176882060852
  0.9937607179483543  0.3758444021544857  0.3707251896016037
  0.3298870602925981  0.3135002555595106  0.3678211772913959
  0.1657428967848475  0.3147193047653195  0.3683312950152655
  0.2474047938260393  0.3788742365485478  0.4542925178349446
  0.0812362044772554  0.3149575308377235  0.4531362273442354
  0.4188091763655993  0.3127963873503686  0.4558072837863709
  0.9935239519693589  0.3806941444772167  0.1951003663781832
  0.3264522920385119  0.4444814275106055  0.2028673374874707
  0.1657278229779505  0.4420807286955352  0.1996003491541127
  0.2510500332981515  0.0045653976343915  0.2794469829241746
  0.0795416874974301  0.4394410224310319  0.2858924580333539
  0.4168041212412061  0.4405776278532316  0.2834291815719419
  0.9995755372331934  0.0040640771056110  0.3696037368217332
  0.3317806164014271  0.4412760391856301  0.3683576459701717
  0.1667295875755457  0.4403300770652669  0.3674500598447045
  0.2472649896537409  0.0010467609732793  0.4541662083533976
  0.0778078470883320  0.4384912133265845  0.4538531610355204
  0.4154804794330852  0.4389438160757760  0.4537307784823328
  0.3358288452625172  0.4408207463172233  0.5421214840330331
  0.9947391945503589  0.4991851763310374  0.1960921501134854
  0.3240180476088580  0.5626379902818910  0.2046516789506525
  0.1653388098768063  0.5623462393498478  0.2010759919648424
  0.2488516914298007  0.6280983785712928  0.2797258180789900
  0.0793674180095753  0.5637525510674534  0.2849162746879864
  0.4163448448998389  0.5666855035387027  0.2838857283775768
  0.0002617542071639  0.6283427810242842  0.3714420192552702
  0.3342664014733587  0.5642894661691799  0.3683089956011347
  0.1670594101239583  0.5640385064816970  0.3685861391947404
  0.2496263887483763  0.6247043531895519  0.4540085775388060
  0.0805258270396793  0.5670008741056065  0.4536983768800522
  0.4171829237514043  0.5653320823312652  0.4560371212371405
  0.9930992366364997  0.6219895378982423  0.1961273926792415
  0.3266097031833411  0.6961382083090845  0.2013754897561324
  0.1696030474192569  0.6913241846325957  0.2003008032648852
  0.2552664871363499  0.7494216709590340  0.2811463508688694
  0.0771490252894926  0.6879112126044400  0.2820979615592000
  0.4175944619277023  0.6934000138253041  0.2807461228684953
  0.9987209030225682  0.7532777989186582  0.3680891257202060
  0.3297436648076749  0.6911812732039595  0.3658294290547661
  0.1661872960673916  0.6900155131797143  0.3663852325152623
  0.2511227430537625  0.7509030545334135  0.4532056912907580
  0.0842662779037099  0.6923001808593072  0.4550787841046733
  0.4169064142507359  0.6904826473008234  0.4541295273275708
  0.3355503230913165  0.6887257197391602  0.5426544792164077
  0.0011638202530067  0.7544419591757197  0.1914244489459946
  0.3229967920383331  0.8098080413556682  0.2020229594342791
  0.1650701282186701  0.8126424291494148  0.1996074609079846
  0.2493427203189378  0.8735602156322122  0.2799396542094461
  0.0814771515298302  0.8143026436210928  0.2838698617138435
  0.4206766805018732  0.8165936562145591  0.2805158549598066
  0.0006531018720158  0.8737348621163149  0.3680350668028360
  0.3303869748510307  0.8153766445806403  0.3675779757564088
  0.1629625997450664  0.8122285654910079  0.3714977503200386
  0.2524868910334780  0.8790038159677234  0.4558503588605041
  0.0799835941155540  0.8173050028386847  0.4539139947233827
  0.4150679886168150  0.8138525527254072  0.4517729732889927
  0.0037812244992008  0.8809899836839257  0.1946845258851941
  0.3268307201643134  0.9440495453839994  0.2023094827911115
  0.1699945517743890  0.9403630689331668  0.2002822579469616
  0.2480096459202080  0.5067878671601732  0.2800772091779318
  0.0792794835637588  0.9407965117243083  0.2835087160583183
  0.4165273460249103  0.9376006001153894  0.2808140734905004
  0.9975865515274466  0.5037184678442872  0.3713021162393495
  0.3352423650034120  0.9370694231986096  0.3673480105035233
  0.1685812930590540  0.9379684721765705  0.3673197426049368
  0.2505110696770687  0.5051281941320966  0.4534125775451798
  0.0778220504624848  0.9403574930929217  0.4528355303290321
  0.4165028209629669  0.9416433516282409  0.4521489606426110
  0.3416806835777310  0.9367801240294983  0.5378698454379331
  0.1659969473090811  0.9414031752759842  0.5399673602020651
  0.4978337627139494  0.0001381228621966  0.1957187727262375
  0.8333361852936202  0.0641442521444720  0.2009254175950372
  0.6674028088360615  0.0652939246520185  0.2013440642891468
  0.7470229701997277  0.1309953861293807  0.2765314375050842
  0.5815440061826588  0.0656267016109913  0.2828446453650672
  0.9175826891050157  0.0675367803453582  0.2819432364510019
  0.4975909327597278  0.1258351822443493  0.3679891095044812
  0.8398523908273898  0.0659251780406004  0.3684616766500989
  0.6685928876586040  0.0637349729715481  0.3680232786805246
  0.7487878027236849  0.1268694222696037  0.4534760205222230
  0.5812973977652017  0.0629181275402167  0.4556306177747257
  0.9170061487578173  0.0648184737545690  0.4521911323448898
  0.5004084011312098  0.1290820503741345  0.1962589586890493
  0.8265235269532096  0.1913370712403610  0.2004198574285624
  0.6714167124647525  0.1961768362432214  0.2040488109254543
  0.7496879637673790  0.2566544827915417  0.2806325683690623
  0.5816398654531054  0.1920072290541004  0.2844844884118579
  0.9145593208329535  0.1924053097340468  0.2818021461553981
  0.4991340088958615  0.2487728463962820  0.3690627753205957
  0.8309950550257984  0.1900593079920981  0.3665532823654199
  0.6689383338246153  0.1893098978689418  0.3681952762775963
  0.7529654537697398  0.2524651889594351  0.4564246997219676
  0.5842570689756353  0.1909984936966715  0.4510080603467610
  0.9170099964091026  0.1873982859551972  0.4543877931568512
  0.8463065649884167  0.1880691053759230  0.5436199441189548
  0.5001054346613097  0.2539561562638443  0.1927490814580285
  0.8255817426232972  0.3160474634404040  0.2037686293002513
  0.6649946252992140  0.3139737825308670  0.2042653392800665
  0.7481844117671443  0.3842671618671490  0.2805630211392225
  0.5792111637510906  0.3158698342655481  0.2842688326605299
  0.9161823233573099  0.3192727410716854  0.2820578947965207
  0.4982638598875206  0.3776887222722244  0.3700944281098027
  0.8309875463199033  0.3138536949918200  0.3680310867285943
  0.6665357553805459  0.3170036551025534  0.3684951356827961
  0.7522519637460207  0.3803152366267307  0.4545082636202243
  0.5880506702831522  0.3147135454133380  0.4515732044193422
  0.9178573730389848  0.3141752322010265  0.4545996385368444
  0.4940542716785400  0.3774485318620280  0.1964631874662837
  0.8255598006085391  0.4436686200898878  0.2019976947501572
  0.6677165606613763  0.4442276375077289  0.2016599241816990
  0.7503084188029203  0.0060609603648836  0.2782105040433121
  0.5792829026755065  0.4393892275406796  0.2826905322648846
  0.9116959774025372  0.4416645372297091  0.2836940691996920
  0.4985168750359030  0.0002338771417214  0.3673912318630994
  0.8300210348991797  0.4404479746943291  0.3674852878028753
  0.6652485574202691  0.4404042234371495  0.3675726408463030
  0.7478872144939843  0.0008468605943652  0.4555874356301222
  0.5844640441561895  0.4396997934918953  0.4562812933777688
  0.9175420935798546  0.4389473449556805  0.4551702826040858
  0.8333558868591110  0.4411768151682857  0.5466850668975469
  0.4953910279074891  0.5021020204889688  0.1957441161406941
  0.8253235348292860  0.5619459837121107  0.2017042374289649
  0.6637678846547147  0.5621709747907011  0.1989053092150030
  0.7481565404114652  0.6236152950386582  0.2806017077432661
  0.5792631788802868  0.5627423042435235  0.2838243751571845
  0.9147307326762988  0.5661319813577144  0.2841695594649038
  0.5002064540590483  0.6255218908568562  0.3694344910041157
  0.8306726847702429  0.5649925835621028  0.3683734756612617
  0.6631552402496133  0.5652120488559367  0.3689920982955574
  0.7508503413629575  0.6296024687785837  0.4542065445800649
  0.5909610298421961  0.5646258444259351  0.4542351304620642
  0.9127745610545789  0.5643632024356758  0.4572804088562680
  0.4999518075298631  0.6300221135917448  0.1976915346450159
  0.8281549558158054  0.6962578623877382  0.2038506937468715
  0.6653436667724388  0.6882823745183200  0.1986255041895098
  0.7510740926184223  0.7516089175989791  0.2825482324120520
  0.5820070130872116  0.6856437068366140  0.2832955902896956
  0.9168096226012097  0.6885331762819784  0.2832873746607382
  0.5001695055699137  0.7523454540769414  0.3681163357918834
  0.8315792625594565  0.6891279910098015  0.3672972082737726
  0.6690440416186915  0.6915235110790940  0.3663665453865832
  0.7527600070818055  0.7539417541823299  0.4547974735644865
  0.5861134926782225  0.6919756711108729  0.4536375215382860
  0.9155750209943836  0.6914701307572390  0.4528685351377814
  0.8421020380248856  0.6935438224163627  0.5455203141249056
  0.5044825265267623  0.7506275987475738  0.1928529839054314
  0.8310206881326809  0.8139709126507790  0.2055755117251696
  0.6677827592574982  0.8088556012123918  0.2004749558112342
  0.7487202392739565  0.8755695876092296  0.2800735550787815
  0.5820262594271005  0.8131467138093215  0.2817411929464854
  0.9193488272356697  0.8170811074123401  0.2850591679658008
  0.5012381722907266  0.8736196741430730  0.3661753265089547
  0.8319255074936892  0.8155376437854194  0.3694402838672278
  0.6667121152696593  0.8154562309964283  0.3683861287252727
  0.7468595496738782  0.8739267023193281  0.4550852541410711
  0.5815495178468570  0.8161667107328860  0.4541237020208612
  0.9141516680574765  0.8158749630066064  0.4548538845900941
  0.5061088447955024  0.8755036799942347  0.1937786896294054
  0.8333801322104084  0.9378550695412960  0.2045515064705689
  0.6658325319353173  0.9415799743406746  0.2022221176423744
  0.7439994895996489  0.5026114688182596  0.2803265613969027
  0.5847174041030893  0.9385622162492365  0.2826071289980203
  0.9160176070621281  0.9417422631249835  0.2831239250426151
  0.5014265969171019  0.5015519347049531  0.3704518399731648
  0.8329871477377141  0.9381377107140483  0.3702569033085811
  0.6660320324448606  0.9383871367305823  0.3656521162053106
  0.7510790837357373  0.5058234463631173  0.4555393931989846
  0.5800838875588951  0.9414504474038992  0.4504480949876549
  0.9171747177181934  0.9392423464201620  0.4553422889425361
  0.8263461253841486  0.9439528072149552  0.5428252216947005
  0.6631541840611810  0.9376864465555447  0.5417153564171008
  0.3404911071626667  0.0612932005757543  0.5428669878586498
  0.1609533297068605  0.0653761755122468  0.5393477585703573
  0.3340778666768649  0.3139633420267350  0.5410530188424281
  0.3385300509623501  0.5671558289577717  0.5422359828830682
  0.3449033643672636  0.8135988990930225  0.5408991606227678
  0.8325931478704571  0.0642684343683111  0.5429222255405602
  0.6610091205064446  0.0628335407356169  0.5432823020282566
  0.8433665550390557  0.3179069591373305  0.5390859821965962
  0.8514422983011627  0.5691005591555635  0.5468527512233847
  0.8393524833145470  0.8210865496780008  0.5431529416127143
  0.1627729417304785  0.1892177039326932  0.5403490678135945
  0.6674053962546767  0.1889706390636772  0.5341461841374963
  0.1822305294649483  0.8142490913565024  0.5388681927092281
  0.6664246193491058  0.8112940699349991  0.5401184345973085
  0.4021836705287762  0.0043736929791624  0.2326198595489307
  0.2426911381133054  0.0028580670169259  0.1787046910021279
  0.0933290866816268  0.0045233703676237  0.2315961481005211
  0.1527891356840092  0.1296988605478775  0.3150929929024818
  0.9993050340833274  0.1302567881797400  0.3018493539381062
  0.3458179671826861  0.1300869117056715  0.3137199673310151
  0.3975727519459750  0.1278763783375612  0.4045637821913597
  0.2510349620539302  0.1259872211398406  0.3869612372242650
  0.1005052273334835  0.1254911613580645  0.4018597729951785
  0.1551457122382225  0.1261858519276590  0.4891330107484343
  0.9985047626595596  0.1263497621553478  0.4717024360992282
  0.3439792386501531  0.1238579341254571  0.4882210534454422
  0.3977918686275722  0.1260627824528850  0.5763746307169868
  0.2452102109248611  0.1298899458208424  0.5628245390129136
  0.0935803964845532  0.1306800891026771  0.5672043271704243
  0.4036462801975349  0.1270238721273969  0.2286973147436333
  0.2446345008098319  0.1302908058146767  0.2056811221000156
  0.0913816206967269  0.1256933961819492  0.2296113671792491
  0.1499185069287829  0.2546492319262864  0.3150297419570267
  0.9992601158854454  0.2574889622592172  0.3014285421199590
  0.3494620294620144  0.2499228225845262  0.3150714996416670
  0.3981291258418839  0.2513523451631092  0.4015929509870184
  0.2508286111057782  0.2507372309462895  0.3854551099736350
  0.1004444056155702  0.2525644175837720  0.4015042001325908
  0.1506598632767043  0.2508004066181520  0.4836829053180669
  0.9986472476472156  0.2514198038042271  0.4700215997944191
  0.3485350934377496  0.2504063835780241  0.4853027449177721
  0.3992101111142629  0.2496364023555431  0.5696554732274228
  0.2523247513635604  0.2508846762680188  0.5574401002502600
  0.0860720072549214  0.2418057145018791  0.5674600199951982
  0.4093396251805071  0.2531448889788651  0.2327667387270405
  0.2434736535192078  0.2539421443828866  0.1812044334158435
  0.0895494315776981  0.2558955779113778  0.2294697957388044
  0.1523416181713267  0.3787859521313310  0.3155982537198902
  0.9994255058546809  0.3771789751352802  0.3031012643884643
  0.3439195164820166  0.3781698344807619  0.3163281913177676
  0.3982936878624057  0.3752134496785113  0.4010118009565477
  0.2462909931683670  0.3764224787816233  0.3877047095067246
  0.0943634401681404  0.3778487018213954  0.3995393507614473
  0.1483742529134160  0.3797403717558067  0.4869096314344350
  0.9969016460017391  0.3766589125566451  0.4727207061250679
  0.3458778995699571  0.3783549405741526  0.4865294522844610
  0.3963579102734371  0.3717586586306930  0.5684139664096346
  0.2438594732034590  0.3774374673088218  0.5606645467068180
  0.0590557123620403  0.3796983145785943  0.5874075337481968
  0.4008269831271570  0.3780525306431392  0.2317728293299594
  0.2471452894258881  0.3802442896593249  0.2121094326612040
  0.0896778602976408  0.3789801104645893  0.2318548143577417
  0.1490779072142669  0.0002144477881631  0.3146256134571314
  0.9997036553427536  0.0052091069458732  0.3020251228233765
  0.3482622542174258  0.0006271549293339  0.3161193707901770
  0.4018533524316055  0.9999233674490429  0.3993186419328869
  0.2508511075759617  0.9985651118267563  0.3845529586968442
  0.0965723622295732  0.0011469472156299  0.3998824479516208
  0.1432042305157996  0.9996393232661809  0.4880208446061197
  0.9957359250748399  0.0035489347135029  0.4737791296115057
  0.3487641758505459  0.9981080082184786  0.4850246748287441
  0.4074906059651630  0.0004060633531408  0.5693826302982377
  0.2505156509367000  0.0044489339289071  0.5513428671053071
  0.0948461422346248  0.0000910208348295  0.5706710794394245
  0.4025548430009342  0.5027396579937676  0.2306714588252196
  0.2487368267389887  0.5022927625154505  0.1780816493373616
  0.0885242645125351  0.5010366306661573  0.2331705453840901
  0.1505644646225180  0.6286723208794175  0.3166313902195729
  0.9984243777889358  0.6277986967545248  0.3042348004746611
  0.3472191335841205  0.6269970330242584  0.3161602470492752
  0.4001938699092872  0.6266211913728800  0.4023261439183712
  0.2525078631969127  0.6302108501490190  0.3882569085655748
  0.0967949226029411  0.6260138122042849  0.4029061088227677
  0.1511942115420749  0.6269644951122920  0.4850118985101275
  0.9993812883041447  0.6311164289849298  0.4733726022652531
  0.3475674081691063  0.6305096271818253  0.4877454582157462
  0.3999948114869055  0.6276528360152793  0.5735282057342356
  0.2451781197284679  0.6237193803964471  0.5585202379637830
  0.0648188501908022  0.6952301607045287  0.5531868449703715
  0.4024908338421513  0.6282778411469453  0.2331550544639922
  0.2460674835430033  0.6286210508707497  0.2092337386009252
  0.0877566006287316  0.6210608840776929  0.2296641025758554
  0.1542659515065276  0.7508675294766439  0.3148258985814297
  0.9969638916784576  0.7527100891230835  0.3012938842982686
  0.3504739462557617  0.7534644135417345  0.3180919294928734
  0.4003633993422438  0.7526348903478739  0.4005324519699421
  0.2508105660040350  0.7494804882028427  0.3889466487850578
  0.0957636092196109  0.7540154548572837  0.4030511781607514
  0.1518266501338720  0.7588769706664039  0.4839435587824683
  0.9955494948306567  0.7529591507319927  0.4736018835803578
  0.3462969108094803  0.7541322880631950  0.4881860104363612
  0.4117958134851689  0.7520173237017321  0.5717221751669085
  0.2577686977229797  0.7559124720345834  0.5620856942800729
  0.0790630882035109  0.8118610630523778  0.5746172129595375
  0.4079677520172486  0.7530490083044321  0.2270324690058922
  0.2400510427404597  0.7523937126704903  0.1772816138619137
  0.0881716238241644  0.7547577648353011  0.2301454948367609
  0.1491682816582244  0.8773692021333129  0.3165911483154517
  0.0011729653390992  0.8793043557807863  0.2999693005384439
  0.3454955391873251  0.8760927257825336  0.3143092801733333
  0.4002790529914846  0.8765959824972277  0.4012502800051671
  0.2496825498405540  0.8757027338550212  0.3884538303764336
  0.0976619740299066  0.8770721136544293  0.4027563842153415
  0.1508780694718753  0.8763957609195255  0.4873036818397924
  0.9987019231581892  0.8793448116347737  0.4746390985226406
  0.3515668880141221  0.8741203003026010  0.4866079504239723
  0.4127716885097389  0.8779635152296558  0.5670503197453155
  0.2558661713939129  0.8792390502579396  0.5560458738696318
  0.0820608206626528  0.8776936235357957  0.5711555852704004
  0.4021747853196522  0.8774273298038744  0.2271503002864000
  0.2485562035560098  0.8787254152004151  0.2088284473689866
  0.0944405560585224  0.8784175898317113  0.2330296452305952
  0.1500709563729136  0.5045217827246612  0.3164823929475770
  0.9958060393126690  0.5023511202334322  0.3045856951384841
  0.3494243255396085  0.5027389526526871  0.3162297290390130
  0.4002476579441376  0.5056794650581296  0.4023165345477928
  0.2548339361759298  0.5063330478359209  0.3850315112501093
  0.0976469753424330  0.5011403383594019  0.4011717781735984
  0.1474607469380061  0.5020791310173927  0.4822266872212817
  0.0012983328625771  0.5032317682603697  0.4708420725586538
  0.3475937640744461  0.4982735660662312  0.4899914160965747
  0.4039138848808173  0.5027085474016042  0.5705027864912001
  0.2567127027830298  0.4989050356404152  0.5688479369614881
  0.0645479170156461  0.5676121995608643  0.5485561850942690
  0.9050039917977133  0.0010133083253154  0.2302695036590627
  0.7516743219012422  0.0017099684425761  0.1957818310333817
  0.5913389225738764  0.0007115512029359  0.2288670887079413
  0.6546484114408240  0.1301513848722770  0.3163733553288517
  0.4955762743260724  0.1288822642562298  0.3014389847890961
  0.8459140043656455  0.1264212061374087  0.3132558452034932
  0.9056238402160558  0.1277899848094092  0.3998047670593921
  0.7506946391993710  0.1251902158638438  0.3855100351257955
  0.5980882818711845  0.1209550196676709  0.4018683104298371
  0.6528986952435968  0.1250647321133586  0.4841308940336657
  0.4986432955713101  0.1256334407267152  0.4737914804147367
  0.8476940130752824  0.1296267665651679  0.4899904649463334
  0.9083077484798069  0.1255514666765838  0.5673085871709264
  0.7511354721879248  0.1283279386177617  0.5639233919009305
  0.5973632378622770  0.1306943684898565  0.5647973196522639
  0.9076420117660705  0.1293609841067862  0.2303505032489416
  0.7504235592571991  0.1294576252728324  0.2044963497229570
  0.5935747361988948  0.1283681679894949  0.2321239213663173
  0.6537791953102323  0.2545200916647207  0.3164324466178162
  0.4987051828283587  0.2516376539791871  0.3025401293692084
  0.8451848662450205  0.2532370157070307  0.3142224169197386
  0.9008056287326749  0.2516643572983524  0.4016700732880564
  0.7490452753396346  0.2528913805571429  0.3861969605825279
  0.5989790403410550  0.2500376489136239  0.4005935399731505
  0.6508558731419412  0.2500542352345051  0.4818515462078975
  0.4991719434874851  0.2516825830918853  0.4749331428740486
  0.8529116264960466  0.2505692462310019  0.4881119920833137
  0.9102577919107968  0.2519485320644443  0.5716880930411297
  0.7574415844402784  0.2561549606796249  0.5570329408564846
  0.6033277458684518  0.2560146846188568  0.5594853770320831
  0.8965359511494815  0.2561526177131891  0.2335380606705100
  0.7497541918353680  0.2579521918808238  0.1769522752826013
  0.5890570673742485  0.2552590558697679  0.2341676263402257
  0.6518093888324709  0.3794097747130954  0.3154827163916401
  0.4999101403592601  0.3793076926932494  0.3026344433906685
  0.8444714398122631  0.3773212212615468  0.3161806818437460
  0.8993715521359286  0.3757100678457232  0.4043439099385751
  0.7497139253868169  0.3808394595227459  0.3866029499709017
  0.6022811459565610  0.3770183762189204  0.4013788678700791
  0.6549292582184383  0.3786856785932357  0.4832148956074939
  0.4985394921601004  0.3770052674273328  0.4721250917515741
  0.8503937110591018  0.3811883177883247  0.4897806698045338
  0.8965154676574235  0.3807794062175242  0.5772038812781585
  0.7526729116929618  0.3772201245465662  0.5569092693658662
  0.5976796305186467  0.3657873571181317  0.5545703416909696
  0.8992238004929944  0.3806209974868704  0.2309186651703307
  0.7468346324763028  0.3775207430260584  0.2139912723649091
  0.5881950943359724  0.3784524107125084  0.2306506585639405
  0.6536147564716015  0.0042122874005527  0.3158264994352118
  0.4948299409344948  0.0023475878803131  0.3019991498845408
  0.8454205074922509  0.0015607636364639  0.3178426388442809
  0.9012471930646431  0.0019141988281403  0.4043874051459223
  0.7521302444981354  0.0003553534793155  0.3881990852694243
  0.5986116916573225  0.0049269595164646  0.4024176215478467
  0.6466398999734863  0.9999536886571538  0.4882768563613055
  0.4993516673587847  0.0022322460928738  0.4721082240787321
  0.8431255401883623  0.0001517026734144  0.4877342304158631
  0.8995621627595221  0.0062340838658812  0.5662799853241697
  0.7451000293091227  0.0018478456615457  0.5613736201834766
  0.5871910401693220  0.0071651653982183  0.5667571301486790
  0.8986674921536808  0.5006343191849801  0.2299781067628160
  0.7431792020851535  0.5012714741350742  0.1777113301472235
  0.5873561407124780  0.5047447724654821  0.2290119791718166
  0.6510893445466767  0.6238805884189668  0.3167807019453863
  0.4994568170107098  0.6277964191384678  0.3039077117230616
  0.8421645026453853  0.6275094885483871  0.3156194776732726
  0.9000147446841829  0.6266960424738592  0.4051839329671301
  0.7521704031597078  0.6265959442052116  0.3873387243096038
  0.5982705642540891  0.6292509915560889  0.4016103067741510
  0.6506408324937497  0.6282908818227153  0.4846167230478875
  0.5002633680701899  0.6284977295537442  0.4728454345527585
  0.8520808789173888  0.6314325516658369  0.4884701361821215
  0.9094951443408006  0.6334720961893635  0.5746556049331225
  0.7675053863607658  0.6310124929310903  0.5561063881112801
  0.5858708934259442  0.6240156040602434  0.5682690323337122
  0.9028368640841691  0.6282074229226294  0.2320286981763218
  0.7479321524021733  0.6268678514448131  0.2080186507483316
  0.5934411395399871  0.6269397074976586  0.2313600574773178
  0.6508383846101711  0.7523003981406832  0.3165870320404328
  0.5030563890221473  0.7497190961921043  0.3004507784343079
  0.8498622514381172  0.7529232122976031  0.3177716815995388
  0.9001867480966004  0.7534402402919815  0.4013727041719805
  0.7513002570167351  0.7496583440446674  0.3877389493621841
  0.6002082247914041  0.7543623326199430  0.4009183777081252
  0.6552551086456900  0.7570619484464668  0.4850739661331039
  0.5006452112207054  0.7537519177252552  0.4711312094847745
  0.8508073357971134  0.7551363868664435  0.4904834102999021
  0.9076887345328910  0.7623676288960965  0.5718208657560304
  0.7547250406898695  0.7645151784894310  0.5597587094667063
  0.5829896484408750  0.7551576991228030  0.5722229352481910
  0.9088656039640738  0.7546467731585014  0.2316403649417638
  0.7473444421771750  0.7516090083324067  0.1790836435929692
  0.5972242462248659  0.7478792631578360  0.2312622177544551
  0.6526845023480853  0.8730389418329411  0.3147632623433984
  0.5012916754512904  0.8773338916172019  0.2997743772788483
  0.8463555702446556  0.8783958759638147  0.3187256598424961
  0.9025285792605324  0.8802007022546188  0.4010310330676262
  0.7491561424909778  0.8744811029970586  0.3881949219805226
  0.5991387056371781  0.8781122746187082  0.4011515933082358
  0.6471452850815316  0.8781249032874708  0.4855279955353384
  0.4985747935369189  0.8797804807348615  0.4710608429129655
  0.8447497680516115  0.8801037633782121  0.4893849179117608
  0.9015360307328991  0.8902242456766187  0.5745618009652922
  0.7468055445504233  0.8796525789673871  0.5617479612746015
  0.5907718819949536  0.8838496086396530  0.5678709655217807
  0.9114765585624576  0.8784972192823471  0.2328559773557660
  0.7481480114653899  0.8755479257084102  0.2100329008410423
  0.5931264381397751  0.8753801699278076  0.2301283295858715
  0.6463241537776303  0.5030317542311007  0.3163976797233019
  0.4976362017653461  0.5019483901333088  0.3044975406314125
  0.8437761860843561  0.5028303654484282  0.3153976561101041
  0.8973453370591302  0.5007524498216885  0.4048994713694338
  0.7496661566313343  0.5040773785617182  0.3863424071814751
  0.6019362167279902  0.5001733491448401  0.4034786147968330
  0.6564917950773387  0.5064308177186981  0.4894222677197380
  0.5029205348912329  0.5009800245019189  0.4726768663773973
  0.8475283110807494  0.5038062670540794  0.4879714841909504
  0.9093537169151309  0.4995219198119327  0.5674630274608373
  0.7641921127109081  0.5105812184843668  0.5643442217369096
  0.5824114416060246  0.4937004675773472  0.5826071699318793
  0.9880313427909978  0.8843857131404265  0.5411956948289333
  0.4989715424687222  0.8857974888939699  0.5370803592086750
  0.0010676767935772  0.9977467608690811  0.5381512785275303
  0.4960791158100119  0.9968625806468402  0.5375237387758302
  0.0019746048940702  0.1262584507757285  0.5372250329927053
  0.9980384146418754  0.3831747099071404  0.5454246862982183
  0.1879641590066222  0.4490318959370238  0.5262893546523199
  0.0085932982839716  0.6328914970141480  0.5432121055269570
  0.1855463915499502  0.6917726620205128  0.5291783634397937
  0.4969495705398723  0.1386903109350053  0.5401659301914482
  0.4905476933304153  0.3799971183444260  0.5390394157148601
  0.6220547648479268  0.4391123153786380  0.5373095875031438
  0.4983052286806605  0.6314683528664367  0.5416595005284018
  0.7015164511362810  0.6926832408991077  0.5266324986391204
  0.0019478346250252  0.2539544711154083  0.5374699506707102
  0.1920661386807792  0.3116695369510250  0.5256090820958025
  0.1942894821292201  0.5606669163525027  0.5308261997102817
  0.9990498687494517  0.7655812248508707  0.5395060187670953
  0.0005418655783697  0.5013779888459771  0.5389246309925430
  0.4994062458375210  0.2490823170091628  0.5410326241415675
  0.6816337559474474  0.3184202400833931  0.5298501261639394
  0.7036921413651873  0.5696960463368914  0.5306755807643520
  0.5023684265353421  0.7533529794882314  0.5372213921376255
  0.5013789905666144  0.5008029939082387  0.5420904764517079
  0.4128589351157793  0.3076123807194451  0.6202115285724364
  0.5656180376855499  0.3157959831664426  0.6039762330665028
  0.4825564465422823  0.3794182083395922  0.6651160876795557
  0.6118644117593690  0.3492878385088181  0.6680520321087955
  0.6518860939322222  0.2404017392233788  0.6610260569457941
  0.2807700494284382  0.3588659908365088  0.6289190286761656