Ta N Ru                                 
   1.00000000000000     
    18.1096308199999996    0.0000000000000000    0.0000000000000000
     0.0000000000000000   23.3551997799999995    0.0000000000000000
     0.0000000000000000    0.0000000000000000   30.4818171199999988
   Ta   N    Ru
   216   240    24
Direct
  0.9994699049649197  0.0004412867587904  0.1958880002726102
  0.3335131761911799  0.0625245769409128  0.2019914984900944
  0.1657884473697568  0.0625251412563675  0.2019750403527579
  0.2496313743529452  0.1254440196128226  0.2777771760833679
  0.0822879544040296  0.0628692376552717  0.2830632443887107
  0.4170361159699959  0.0628952503820006  0.2829533839331749
  0.9992314996008202  0.1254465575732979  0.3689880486567872
  0.3317435158790827  0.0630866993319265  0.3675089463393902
  0.1673486528961158  0.0630605991251779  0.3676580353708047
  0.2481227793036195  0.1239937999078344  0.4547323010565408
  0.0818954102881213  0.0622661341311044  0.4526501475288698
  0.4152758695540852  0.0628260621213472  0.4531227225482284
  0.0003204860609372  0.1253362901252474  0.1962589285779770
  0.3335224840392625  0.1883167704849481  0.2021300272012812
  0.1658977353429165  0.1883559029889205  0.2022563157585022
  0.2497082809773250  0.2503070030528675  0.2775363251067415
  0.0824170633907304  0.1878467055407231  0.2834325138568304
  0.4170453822438062  0.1878725885882091  0.2831889966010155
  0.9991333841695141  0.2501518665307560  0.3692910241843398
  0.3319649104440333  0.1880899011784785  0.3677950441901361
  0.1670470525573173  0.1880169591218203  0.3680899483851862
  0.2492738203799687  0.2512358429962950  0.4546296780901559
  0.0838761250521968  0.1878499258984606  0.4545858646979723
  0.4154869120880885  0.1878462316964430  0.4544097393206493
  0.3369721845179947  0.1860582184225596  0.5432542030293643
  0.9995136842445066  0.2502713593486930  0.1963989442409325
  0.3338869494027358  0.3123014718095898  0.2021278667345197
  0.1657062577573649  0.3123379714172699  0.2022127828548362
  0.2498954700271029  0.3753645568318638  0.2779021191202521
  0.0824223597324159  0.3127950607299380  0.2834997427895529
  0.4171871921399139  0.3127764377007931  0.2833348107384948
  0.9993979898800248  0.3751974031224671  0.3691031056504493
  0.3324283199724347  0.3130387490065601  0.3680303570048701
  0.1673409920447994  0.3130510429259397  0.3681170194901481
  0.2497795017893238  0.3768605251049262  0.4543488496949870
  0.0828953725143246  0.3137243066749912  0.4536501448505356
  0.4157301055503498  0.3131943190428093  0.4546351662677064
  0.0004277353094582  0.3751842055622102  0.1964330774209048
  0.3337610449901838  0.4381414785580200  0.2020930887380958
  0.1659525789835922  0.4381127541366157  0.2021074623217464
  0.2497292412307642  0.0004555478417175  0.2770150561685604
  0.0825575928498598  0.4377550898560527  0.2832622176679461
  0.4173182322292231  0.4377504360834346  0.2830588070293407
  0.9994146206983999  0.0000703221894128  0.3683753721072998
  0.3324312114783223  0.4380881124451007  0.3675837427706781
  0.1675611058750515  0.4381244799842192  0.3675979685867393
  0.2490215519740110  0.0003479482378766  0.4537605421979545
  0.0837278477916028  0.4390240416334626  0.4533578381996671
  0.4164527748778214  0.4383661040729769  0.4538006103162992
  0.3442992060469548  0.4390062116407007  0.5423035615089568
  0.9994550562986687  0.4999932184530620  0.1962309061244676
  0.3336854880713510  0.5621709139352994  0.2020014490751225
  0.1661128001197492  0.5621796835713995  0.2019443672383148
  0.2502141351182072  0.6254398654589909  0.2774131030483674
  0.0824776945745042  0.5627615404618553  0.2830110772936925
  0.4176963530820573  0.5627956554761274  0.2829588160584449
  0.9993096146877160  0.6252969478207610  0.3687013426730247
  0.3327998365868788  0.5631078754732285  0.3674133052250781
  0.1678400799723377  0.5632180586813752  0.3674079897253153
  0.2515704584031921  0.6265275170147789  0.4535610824831823
  0.0830187904879985  0.5639650800982058  0.4529476210791432
  0.4169897430777627  0.5632951221276808  0.4540331152679954
  0.0002906030195725  0.6251274317204774  0.1959743715564592
  0.3340043023824340  0.6880679655942386  0.2017206567075683
  0.1659428213338559  0.6880528539446377  0.2017361678176796
  0.2501478135889447  0.7502668663534003  0.2769448984719231
  0.0825254749045409  0.6877320091131156  0.2828077577311675
  0.4177143183448677  0.6877553884497024  0.2827666399578666
  0.9994157232551112  0.7501382974003145  0.3684618383899089
  0.3327859845817985  0.6880491032792613  0.3670212689202588
  0.1678077790082186  0.6880753859867897  0.3670337523891331
  0.2506481034037767  0.7526387391236867  0.4535393262629712
  0.0844704219175233  0.6889609611654890  0.4526126388840397
  0.4169808238708935  0.6886143617222873  0.4540085012024023
  0.3432121482059571  0.6910792400585540  0.5440435798364721
  0.9993502670319439  0.7500750363765059  0.1958292700659989
  0.3336150890018023  0.8122384082245884  0.2017409434222643
  0.1660992571904975  0.8122745231618101  0.2017096023505967
  0.2499428030966950  0.8752047437446212  0.2772101539605331
  0.0824549019324717  0.8127363334901060  0.2826266403984996
  0.4174829836228959  0.8127399202439592  0.2826739061518938
  0.9994470199119463  0.8751012142356546  0.3683054361470157
  0.3323742190393661  0.8129944161670428  0.3671617244218230
  0.1679023146122764  0.8129479097806653  0.3670714924989176
  0.2497104156730571  0.8756939030018834  0.4539007787823937
  0.0829590457850304  0.8134496472458239  0.4523242292428250
  0.4164479236292976  0.8132446587711328  0.4532903073865177
  0.0002372553074448  0.8752614319026045  0.1957726379767208
  0.3334045953399701  0.9382189130433359  0.2018849341664097
  0.1661187321349669  0.9382072176421415  0.2018212089076886
  0.2500643142870569  0.5002000263456916  0.2772525722251920
  0.0823704807506030  0.9377991755389729  0.2827368161634058
  0.4172987029727098  0.9378241771341244  0.2827248107929695
  0.9995584438135265  0.5003203526678167  0.3688190355417020
  0.3318684789049891  0.9379560435246618  0.3671209464947125
  0.1672955699634823  0.9379226811406365  0.3670667869754665
  0.2505649000876007  0.5019417308106752  0.4540200336359128
  0.0829503918274476  0.9380151115769535  0.4528046949101896
  0.4157788331501663  0.9382109078575321  0.4530313822758471
  0.3332116505232642  0.9385446756666929  0.5408920902514899
  0.1627596774968400  0.9373479766770586  0.5402362384699437
  0.5001226994611444  0.0004277655885231  0.1958666958691410
  0.8335654243711981  0.0631635102681791  0.2019280410642692
  0.6659174258440884  0.0631276853904492  0.2018789564140087
  0.7497980504446059  0.1250940278792971  0.2773224565441272
  0.5822062030938459  0.0627840209766927  0.2828834139512705
  0.9171684470432973  0.0627500392357616  0.2829036752810449
  0.4991553118079449  0.1254670032804767  0.3688102725555115
  0.8317766757174859  0.0625427200645028  0.3672537556879059
  0.6675250893653744  0.0626449578856113  0.3672495582934375
  0.7484891513488707  0.1226272258540218  0.4542658919048697
  0.5819431916799386  0.0617406731539567  0.4521976220928676
  0.9151415535676064  0.0618159933607825  0.4529375673824241
  0.4992379293606493  0.1253358201001132  0.1961723778015305
  0.8338921369400969  0.1874684428105902  0.2021008597994925
  0.6656991515119521  0.1874719317690379  0.2021180861640898
  0.7498296559531791  0.2500818121350104  0.2777946758989607
  0.5823598176060850  0.1876944318753285  0.2833143814301226
  0.9172796254557284  0.1877119709555037  0.2832403056319257
  0.4991419320850148  0.2503621295338267  0.3691490826249572
  0.8319372618860750  0.1875594822218189  0.3678165548333091
  0.6669428566526583  0.1875571815667407  0.3681132938181319
  0.7481383410884185  0.2501950403396991  0.4548196431385363
  0.5840043904254151  0.1871699273939585  0.4543521611263232
  0.9152506133497039  0.1871445587560202  0.4547200344005490
  0.8379280351208767  0.1835171309360085  0.5437005350178463
  0.5001522445612551  0.2502803629367713  0.1962909197846133
  0.8337850955119203  0.3130090248240420  0.2022532211414659
  0.6658039511313425  0.3129555835736383  0.2021857919789186
  0.7500615732652712  0.3750605563984482  0.2774385594694794
  0.5823230928648730  0.3126132086585989  0.2833825390439104
  0.9172380342321679  0.3126642626373714  0.2833434189525137
  0.4995718811090671  0.3749666466517113  0.3689408540234244
  0.8324564627033558  0.3123881783051676  0.3678290175847010
  0.6674196153333043  0.3124169549450132  0.3677275245887668
  0.7499594943929310  0.3753080702551740  0.4543717960341388
  0.5838485305158087  0.3131296821188138  0.4542798017458013
  0.9154492672399810  0.3123330627498315  0.4547949902584659
  0.4993122335143041  0.3750703921238803  0.1963472057943809
  0.8338803040976048  0.4371836998978155  0.2021144844597169
  0.6659343563143700  0.4372273892054173  0.2021331793749479
  0.7497965033449800  0.0003020479120181  0.2772722575167270
  0.5826142243587942  0.4376075386758529  0.2832411514969982
  0.9173559336064040  0.4375983166130319  0.2833554750794733
  0.4992542248669910  0.0001485607870941  0.3683402298266042
  0.8321211451183409  0.4374672509802990  0.3680653477788718
  0.6680611740510886  0.4375651332825047  0.3673414317773425
  0.7492743839001635  0.9993577807625053  0.4534939506431150
  0.5832699726948343  0.4378051124333666  0.4517728991482570
  0.9166299194681976  0.4376428397592917  0.4542052623661637
  0.8333469234526812  0.4347506922203124  0.5449135616414398
  0.5004188373885124  0.5000640270487059  0.1961875721424126
  0.8336146609068489  0.5628633398575934  0.2020373712852290
  0.6660497515017084  0.5629134383308531  0.2020661972638485
  0.7500742098422759  0.6250716650202746  0.2772841741474214
  0.5826091454666016  0.5626835313367071  0.2831688739847385
  0.9173929220399970  0.5625641610096642  0.2829633291545074
  0.4997946984678865  0.6253915236383051  0.3689717960344175
  0.8327667255958806  0.5626183782309556  0.3675764283805669
  0.6679504194346519  0.5627996040460871  0.3674358517638723
  0.7493952222111078  0.6245503433725580  0.4546944499241359
  0.5847769184095544  0.5625331468071155  0.4538889422311120
  0.9166870447636438  0.5628977283800692  0.4541961734563615
  0.4996679723205913  0.6251613183509646  0.1960537176513265
  0.8338032351725095  0.6871898298035031  0.2017889646751461
  0.6658451663315259  0.6872174253681668  0.2019211341824838
  0.7499759565407098  0.7500046190982603  0.2773967277671139
  0.5827511194389716  0.6876446925507756  0.2831524005136331
  0.9174112996656089  0.6876032233100354  0.2827653565380088
  0.4999047145532292  0.7501452778341493  0.3687635043655142
  0.8325104131815523  0.6874792405345507  0.3673070947370289
  0.6677458102492960  0.6875879311168773  0.3678659489129689
  0.7496247565919689  0.7515281543032479  0.4541849812090017
  0.5851500142501886  0.6879823913360266  0.4538931952937423
  0.9163459815759772  0.6878053073966034  0.4542196183651394
  0.8446234514809035  0.6871245040827932  0.5434804117842500
  0.5005116591737245  0.7501078783364784  0.1959092955979740
  0.8336480180402244  0.8129072547529572  0.2017619714345387
  0.6659430903476380  0.8128584860486258  0.2018475962088263
  0.7498441108955944  0.8750475799714322  0.2769243335758352
  0.5824842879799045  0.8126083094723942  0.2828859396096278
  0.9173594343173481  0.8126319112960853  0.2827309748103033
  0.4995731433515350  0.8752412814920765  0.3683901738023799
  0.8322033207602950  0.8124324606843254  0.3672871289677366
  0.6678578620464547  0.8125087652823718  0.3674460779486340
  0.7497376248425094  0.8747792033507263  0.4540351860019700
  0.5830037742656324  0.8130392639460515  0.4526723598970462
  0.9160645043000464  0.8123570627874342  0.4531393082960894
  0.4994798749143508  0.8751975451486701  0.1957653972634581
  0.8333444964647192  0.9374020829147587  0.2018635396041443
  0.6660704492657492  0.9373804795992364  0.2018743228078498
  0.7502119684753237  0.5000575570497984  0.2776424561710528
  0.5822965398454621  0.9376862046446681  0.2827486584955219
  0.9173075955888441  0.9376676928982184  0.2827020477473509
  0.4998744537624690  0.5006532241075363  0.3688305642704638
  0.8318010347351771  0.9374105429416100  0.3670215831618414
  0.6673105677815881  0.9375080402596228  0.3669468612970529
  0.7503987476836583  0.4993487230844208  0.4542275358660889
  0.5830295060751387  0.9378210317202355  0.4527165968181248
  0.9157402193335267  0.9373432892966309  0.4529095022135188
  0.8334819486646379  0.9359658668013368  0.5409731533943840
  0.6627963664061294  0.9370874959794474  0.5402140660343860
  0.3353230221076132  0.0617095136752412  0.5408092290693706
  0.1652041161323470  0.0638186459697131  0.5406749720244683
  0.3404746010896400  0.3120389211513936  0.5434175504827027
  0.3447785995968592  0.5658493358177898  0.5435511854309530
  0.3356947070571605  0.8155126131934070  0.5409620611667750
  0.8340016465504247  0.0592213898813595  0.5405325261084822
  0.6639847539499167  0.0627924767275565  0.5405355422960095
  0.8427362811110856  0.3100286593701433  0.5436550604463268
  0.8424505316764059  0.5593187307695189  0.5424302603806673
  0.8358125155673999  0.8121663816783612  0.5412037558670701
  0.1657983868528671  0.8119915364524003  0.5407242015757004
  0.6659501230229027  0.8115623248437985  0.5415245886494450
  0.9979794736638811  0.8751676849523259  0.5418901744184491
  0.4978699901983623  0.8787208030899959  0.5421919514842247
  0.4061916764819996  0.0004105660451622  0.2309451302288631
  0.2496947860761453  0.0004580555175940  0.1965574705779872
  0.0933627612287534  0.0004054574466621  0.2309966453854778
  0.1541666505742907  0.1254026768887414  0.3152742526530987
  0.9997266348981581  0.1253077190637087  0.3022553860984733
  0.3450699174006833  0.1255128370365556  0.3151107955236960
  0.4003542861635169  0.1256561912001097  0.4016812736325223
  0.2495349001620924  0.1256753876651590  0.3868701219560461
  0.0980137132646522  0.1258006902144920  0.4017809037888825
  0.1492166318579405  0.1223694521591166  0.4866152487027521
  0.9987890735031401  0.1236711828811580  0.4733429231783956
  0.3476057155641429  0.1246226682994343  0.4873589971647341
  0.4011000124686352  0.1233813674730212  0.5694327161909609
  0.2484581792171350  0.1233205206804024  0.5579293096369100
  0.0739244807564944  0.1071122523880461  0.5697168463049472
  0.4055239307399215  0.1254370587549409  0.2313635975685085
  0.2496655753703264  0.1254454731335861  0.2004567895175532
  0.0940032587714545  0.1254517460994776  0.2315257574256012
  0.1544984019865085  0.2504442731402493  0.3153965709730893
  0.9996867375970063  0.2502823442107537  0.3025137605846768
  0.3450354300495662  0.2504634120914392  0.3152603156855118
  0.4002986322172434  0.2504826307545563  0.4021640538293709
  0.2498462794200855  0.2505629207057293  0.3868756337710650
  0.0978583712923766  0.2503029149748419  0.4016454726128147
  0.1509214602644491  0.2529046744673709  0.4840305523077621
  0.0002204456391588  0.2490749807341679  0.4725768706459577
  0.3485111628140021  0.2504701431810600  0.4881728095039496
  0.3975546040054885  0.2489793626144302  0.5719750016385885
  0.2461199080956278  0.2538605346440838  0.5553465560701241
  0.0840760098907936  0.2207360650783022  0.5549087927682713
  0.4061657116730454  0.2503342967005970  0.2313950522294345
  0.2497481326532763  0.2504477326659149  0.1967501962370860
  0.0933990810399306  0.2503741024425100  0.2315870054002823
  0.1545131317209132  0.3753084322931061  0.3152830715562232
  0.9998446843556700  0.3752613893365191  0.3023950131999246
  0.3454288636528148  0.3753492874966616  0.3152376415760685
  0.4005450249236883  0.3754418860218139  0.4018857368349193
  0.2501416437935832  0.3756627338664477  0.3865788651734461
  0.0984214972001328  0.3758186630165238  0.4013169148021231
  0.1514721197382447  0.3778740823157824  0.4840135319024426
  0.0007016928115176  0.3745878919779602  0.4726204436779478
  0.3489037350315311  0.3767365980129552  0.4877667234553758
  0.4053333660554713  0.3747628328422889  0.5693472899224604
  0.2495707615613234  0.3839982560863228  0.5564630840679499
  0.0863948623122271  0.3446983095293075  0.5565523716441385
  0.4056210639913405  0.3751528372967062  0.2315718414665767
  0.2498312626183334  0.3751581285784912  0.2013244502721869
  0.0940985187878740  0.3751899760192860  0.2317110313797539
  0.1543095008063004  0.0004686149586709  0.3146929641114526
  0.9996711726866609  0.0002859209202171  0.3017680602053397
  0.3450669639443421  0.0004577885927416  0.3146675317281428
  0.4003702662880716  0.0004039739053412  0.4010466586022671
  0.2495477969331085  0.0003336217450553  0.3859192455860894
  0.0983755361782716  0.0003280701014766  0.4008489443552347
  0.1505490688021592  0.0009026283925980  0.4863653384936807
  0.9992716809689846 -0.0007646222459144  0.4715547934881011
  0.3475380753500258  0.0003573905891907  0.4863648477982676
  0.4031029656360445 -0.0010092258831591  0.5676999947220839
  0.2474919605566687  0.0008119125402890  0.5567764840661810
  0.0904401802556659 -0.0010304527973458  0.5656019122968536
  0.4064178781296259  0.5002141754766650  0.2311750092143038
  0.2498710504759524  0.5000895525016775  0.1963851921415993
  0.0934979334328700  0.5001826072017816  0.2312439886348629
  0.1546182221622724  0.6253336286897746  0.3146668053803772
  0.9999246910029475  0.6251981651716042  0.3019758491566062
  0.3458061021496597  0.6253488362965393  0.3147370007683771
  0.4008546533273579  0.6257556433800067  0.4016916729033623
  0.2507172503708347  0.6258480622034148  0.3858222069915819
  0.0984158931211988  0.6260797999446771  0.4005014823193180
  0.1524268912785490  0.6275532634767444  0.4819690222779197
  0.0016485723373898  0.6256408652804668  0.4725423188843162
  0.3511623204181542  0.6265284235773193  0.4880031154476404
  0.4046067757323816  0.6281316907756138  0.5721781611740940
  0.2568040772847607  0.6294663373417103  0.5601773283206488
  0.0902580860207074  0.5986766631977746  0.5550373363028798
  0.4059088836961098  0.6251897871110074  0.2311520441593756
  0.2499385310519491  0.6252001931989376  0.2005044985522389
  0.0940393452838587  0.6251375623513705  0.2311451808455732
  0.1546025195154465  0.7504210972893637  0.3144431456050812
  0.9998557844197032  0.7501329633266782  0.3017811450325261
  0.3456505258953239  0.7504201981150457  0.3145482255985016
  0.4008755261593917  0.7505064297983584  0.4012815068265028
  0.2503740057082037  0.7504106220241442  0.3857598153662036
  0.0987205550242139  0.7504455258654039  0.4004716368605626
  0.1521269286541872  0.7535919157436832  0.4847965571834015
  0.0004325849022256  0.7509538730056616  0.4720329719740515
  0.3494937235734095  0.7516997970714054  0.4871961660344576
  0.4041208779115851  0.7561210238333417  0.5700680028744010
  0.2515265778647894  0.7536837428609172  0.5577383092897080
  0.0833225355363213  0.7565172164705540  0.5664542447603644
  0.4064765942620089  0.7501747256106702  0.2308554277543593
  0.2498776337594204  0.7500440412288935  0.1964935744276313
  0.0934442511527133  0.7501136020715392  0.2308283920209478
  0.1544229643382279  0.8753668356652446  0.3145405041923494
  0.9998486977661445  0.8751778242718157  0.3016589374256859
  0.3453135806384744  0.8754360523733367  0.3145920094161441
  0.4007213176755005  0.8755957478412186  0.4011059003122873
  0.2498586448086277  0.8755735128263531  0.3860039057475748
  0.0984994074855467  0.8754280640014453  0.4007018384732768
  0.1503743180411671  0.8750679894593447  0.4862882796834052
  0.9994629943794076  0.8751511725461765  0.4727006836560621
  0.3486173688416103  0.8762375000821012  0.4866472889769922
  0.4002875413374778  0.8780659047199240  0.5707969767439480
  0.2481138939923090  0.8754982714762363  0.5557488111976188
  0.0973641293692280  0.8744229680402933  0.5691758745698340
  0.4057869954439561  0.8752530524811482  0.2309234780571001
  0.2498257261369626  0.8751927759828830  0.1995256569860995
  0.0939417591501466  0.8752738275071537  0.2309296967068151
  0.1547362396352534  0.5005388019255808  0.3148939007323969
  0.9998473578241094  0.5002079751286768  0.3021362405384093
  0.3454947237920823  0.5004332399428949  0.3148874122000748
  0.4008273098305976  0.5007089380108140  0.4015618744034251
  0.2504129390551270  0.5007773055433450  0.3862344977919054
  0.0986432340909516  0.5008215535883666  0.4008827421419756
  0.1519037003848939  0.5035795370194984  0.4832190394778574
  0.0008311851867945  0.5000432637591359  0.4720734949440946
  0.3497321921522398  0.5011338022047054  0.4876158887641435
  0.4072359657160058  0.5018808396174618  0.5697693503409537
  0.2514755065897662  0.5098239641294798  0.5572628919017705
  0.0845210476464889  0.4685242232200706  0.5543297706769309
  0.9057270203414627  0.0002785958097600  0.2309993669508712
  0.7497380736714665  0.0003531424725163  0.1993196175288344
  0.5937885214966684  0.0003126357500814  0.2310343982427213
  0.6542705236508202  0.1252066722507116  0.3149598469088689
  0.4995378228050879  0.1253678608660309  0.3021287389936403
  0.8451277315229186  0.1252424203148440  0.3149654167849488
  0.9003266159972143  0.1250333395009504  0.4016896226548601
  0.7496198257670111  0.1250991909967971  0.3864685729018598
  0.5979131299333592  0.1252657435653833  0.4013163957664619
  0.6496926711603549  0.1206941258229743  0.4856776708160570
  0.4991144615507860  0.1245916314249732  0.4730072382205068
  0.8476558220691459  0.1228009832733740  0.4873111543018004
  0.9000964015806874  0.1195817388396309  0.5699630124074865
  0.7483323627033570  0.1209132436037170  0.5578544100969325
  0.5755777925605789  0.1109395237995615  0.5690527006519486
  0.9062150556096965  0.1253525197721697  0.2312191033070219
  0.7497444956979847  0.1254449450226598  0.1971743317207677
  0.5933309239861226  0.1253566908865400  0.2312055829050693
  0.6542894554526371  0.2500107718496836  0.3152609178514089
  0.4996506579662394  0.2502093091374983  0.3023828395398618
  0.8452344951667295  0.2500185804523098  0.3152748042159773
  0.9002199042183899  0.2496413156235600  0.4021441438364288
  0.7497601956474723  0.2500024906701130  0.3869263109482686
  0.5977602064895994  0.2500889055539351  0.4016707459462183
  0.6492966341721432  0.2515687912905848  0.4849123519264314
  0.4999079735142880  0.2498375694698556  0.4726486717790650
  0.8476826879933775  0.2487347718099641  0.4876539603445902
  0.8997222246924704  0.2436759396260592  0.5718220188204320
  0.7448079613261291  0.2520512095995541  0.5542081401384669
  0.5731309963270546  0.2392577461892400  0.5660378408981650
  0.9058168227497733  0.2502298490110329  0.2315683523307307
  0.7498167609756273  0.2501758367771895  0.2003730280071028
  0.5938161952228206  0.2502015594153024  0.2315808959018581
  0.6545924423191980  0.3749261872688234  0.3149598069809257
  0.4997648013649731  0.3752608529428207  0.3022914416682298
  0.8453538504280186  0.3750488051734908  0.3152543526064834
  0.9006030084396655  0.3748891886055331  0.4020775985508425
  0.7500348268244088  0.3745726802132801  0.3865452940423981
  0.5988389217413908  0.3744007187655593  0.4008989739187553
  0.6522274024499241  0.3777393809418474  0.4847544519388478
  0.4999324883358446  0.3748769926265010  0.4717994091545872
  0.8485905516765310  0.3757866804559876  0.4877724939985250
  0.9058958771636675  0.3714462878875178  0.5703042009472888
  0.7606431250490363  0.3689755482826589  0.5602342368834077
  0.5924001873202058  0.3641528111807223  0.5625550625444116
  0.9063479075341775  0.3751517069435254  0.2314599907310894
  0.7497855048223804  0.3750761915258536  0.1971545622928843
  0.5934480269185890  0.3750591397087008  0.2313761403162239
  0.6542055899191495  0.0001974928646322  0.3145652902443622
  0.4996882220584016  0.0003383139825157  0.3017480439243016
  0.8452797923522044  0.0000662640272559  0.3145858557088445
  0.9003958267394556  0.9997347915060401  0.4009273160905562
  0.7495505497953180 -0.0002417418006123  0.3857054913479566
  0.5984900997656183  0.0000091427306912  0.4005968335357118
  0.6506136776949079  0.0001805149054305  0.4860819074738663
  0.4992689919669693 -0.0002735790921959  0.4713981819855637
  0.8475103280015727  0.9987713432316689  0.4863000492732020
  0.9029101199389541  0.9963320760553036  0.5676162667956614
  0.7474247139295602 -0.0006996433175065  0.5566510851471211
  0.5916111998952202 -0.0011192866046085  0.5657368960736970
  0.9057277985958831  0.4999700123971333  0.2314048005167526
  0.7498332419666145  0.4999777605812507  0.2001047336443337
  0.5940891999317804  0.5001159941258093  0.2314082421906837
  0.6547737477648590  0.6252211640839471  0.3149946262199198
  0.5000142678473674  0.6252656648014098  0.3021670559461394
  0.8454788979760343  0.6250554475515917  0.3148904688560167
  0.9007969010441489  0.6253148818350754  0.4017023282180555
  0.7504851087264447  0.6251296415477025  0.3867289130842228
  0.5987756060264148  0.6253020170778425  0.4013353109685817
  0.6507360443015098  0.6238280358782707  0.4850784690568813
  0.5014076531172935  0.6260211547437174  0.4719723776297624
  0.8493571355452673  0.6252998049805847  0.4873600640970308
  0.9055532575167968  0.6223739543786015  0.5697918077207562
  0.7488465873272486  0.6198552589672378  0.5535911306894995
  0.5756299229028933  0.6350668135709352  0.5678923802874438
  0.9063406144468733  0.6250305923615902  0.2310414887413609
  0.7498407450196514  0.6250833344333896  0.1967898583769890
  0.5935706105108989  0.6251190113563965  0.2312762171318213
  0.6545682580598241  0.7500614102677162  0.3149334417480983
  0.5000373028084918  0.7501544120424433  0.3020114693679436
  0.8454739515080595  0.7500074075226663  0.3147455255638010
  0.9007147707609341  0.7497844167357959  0.4013545344848212
  0.7502802530168353  0.7498060095270059  0.3862761892985213
  0.5989072798518789  0.7499778707225861  0.4012789010205410
  0.6515007996651777  0.7533127550189422  0.4860721166629450
  0.5005821502659851  0.7511697405615543  0.4723977600403969
  0.8488000126436046  0.7503320096221444  0.4871435190840763
  0.9057083271225457  0.7517386248224769  0.5687518936380719
  0.7522498139978703  0.7519729240253765  0.5582051117940694
  0.5792871014020289  0.7601085022520065  0.5681856604561557
  0.9057413659374212  0.7500940371605085  0.2310629395526143
  0.7498370527425077  0.7499833961517980  0.1999149650166509
  0.5940687195717408  0.7500529955303162  0.2313057005177654
  0.6544991921615247  0.8750155510320584  0.3146052536505778
  0.4997688258033255  0.8751962393970409  0.3017404996060050
  0.8451972103437471  0.8750377392605870  0.3145433551474131
  0.9006306126059517  0.8749487018505598  0.4010840376019396
  0.7497895140999034  0.8751045061279622  0.3860813770296441
  0.5985479526739287  0.8750830066748579  0.4008900924511017
  0.6505801980099852  0.8745917609164016  0.4864778031351336
  0.4996329679349435  0.8757032502978553  0.4729074259088110
  0.8485005238969783  0.8746661885242794  0.4867572512386144
  0.9006826745862417  0.8752073410619242  0.5706788159253725
  0.7482965440893463  0.8738770654522459  0.5559726584229855
  0.5972523933879853  0.8746593536089698  0.5693134886276597
  0.9062189535872178  0.8751501051605203  0.2308025168184048
  0.7497403859023598  0.8750740368239108  0.1966370955452185
  0.5933827402829226  0.8751299269862647  0.2309186316245534
  0.6546909577529535  0.5002346942862207  0.3148910476061377
  0.5000274050719640  0.5001779736769065  0.3021753668445695
  0.8455833326158534  0.5000431138758478  0.3151651060582628
  0.9008699486056209  0.4998677858545288  0.4019201478463986
  0.7502887961674424  0.5004086524376016  0.3864306136101408
  0.5992298019307905  0.5010062454735712  0.4006841193256896
  0.6523801453151412  0.4978830476039601  0.4842929679354607
  0.5004498032460776  0.5011446012508041  0.4714204425919671
  0.8492468220587537  0.4985940433626012  0.4873374600436734
  0.9041713743253101  0.4948399011923915  0.5706672921964411
  0.7587408303794680  0.5002101369795595  0.5580026114229145
  0.5937431815916577  0.5101095592943168  0.5625878262606661
  0.1851370402522522  0.1907106102374102  0.5304334012861744
  0.6910681371028077  0.1873674467249794  0.5272741431344252
  0.9969302270734899 -0.0074633469995054  0.5377607314080191
  0.4970688741340080 -0.0067575061347529  0.5375181728628923
  0.9932453538344415  0.1155550538357242  0.5403436844510553
  0.9976511111535462  0.3589859471437666  0.5391283506333012
  0.1889897402483637  0.4475890958570005  0.5335843955275859
  0.9991385785057604  0.6086503202329283  0.5388971760812074
  0.1975505098711246  0.6887201911294110  0.5271566028409755
  0.4948347478095680  0.1209213389985824  0.5399139976027727
  0.4968555408899843  0.3680383594343031  0.5378343643527130
  0.6118475905898877  0.4369586310140228  0.5377792029047050
  0.4978255828303963  0.6282280595439385  0.5399499788254521
  0.6969054079603836  0.6864681204728104  0.5273219041583243
  0.9947548320827228  0.2351091152670750  0.5391428764589905
  0.1902084882794517  0.3204942503054511  0.5335652209684272
  0.1893276436020935  0.5720526301413466  0.5337477001923655
 -0.0011260771341956  0.7587059009799758  0.5384379773897956
  0.9960281231586264  0.4878324897370562  0.5388623649475099
  0.4928456955802121  0.2462995872038023  0.5403131637259345
  0.6868841757918714  0.3175172475746751  0.5358707129983299
  0.6879767766276111  0.5558659631947743  0.5354404071318400
  0.4966501121228389  0.7596799863081609  0.5391569355566715
  0.4982901062619416  0.5081271062645690  0.5376590027159507
 
  0.00000000E+00  0.00000000E+00  0.00000000E+00
  0.00000000E+00  0.00000000E+00  0.00000000E+00
  0.00000000E+00  0.00000000E+00  0.00000000E+00
  0.00000000E+00  0.00000000E+00  0.00000000E+00
  0.00000000E+00  0.00000000E+00  0.00000000E+00
  0.00000000E+00  0.00000000E+00  0.00000000E+00
  0.00000000E+00  0.00000000E+00  0.00000000E+00
  0.00000000E+00  0.00000000E+00  0.00000000E+00