Ta  N Co Cu                             
   1.00000000000000     
    18.1096308199999996    0.0000000000000000    0.0000000000000000
     0.0000000000000000   23.3551997799999995    0.0000000000000000
     0.0000000000000000    0.0000000000000000   30.4818171199999988
   Ta   N    Co   Cu
   216   240    24     1
Direct
  0.9999811043290663  0.0000024533999365  0.1978700261719055
  0.3338831108509765  0.0624082602713258  0.2029219292255604
  0.1660992372711618  0.0624169197760480  0.2029241601214977
  0.2499801636069208  0.1249268465517588  0.2783650580135202
  0.0829150146850495  0.0624951483595950  0.2842455303219396
  0.4170579904277218  0.0624964237554835  0.2842413256106795
  0.9999866975997591  0.1248449702965573  0.3697809558404330
  0.3312997426544300  0.0622592501326409  0.3689900385915408
  0.1686743264573636  0.0622573187373874  0.3689966944669720
  0.2499767074833841  0.1267444393100021  0.4599159689889163
  0.0829159968254913  0.0617287501970765  0.4535111778215182
  0.4170215802799149  0.0617484362166181  0.4535133356311434
  0.0000340362784286  0.1289576149633476  0.5416350076540226
  0.3394822111739089  0.0665411804385982  0.5472417167972239
  0.1605693128868424  0.0664822372131013  0.5472303718862861
  0.0000054420871436  0.1253498457215869  0.1979113248382021
  0.3343987261702281  0.1875615699220177  0.2028035868334612
  0.1655926002633947  0.1875573055674451  0.2028024167258593
  0.2499818356131982  0.2498809952223837  0.2783627266035111
  0.0828698894995483  0.1874302447180014  0.2843568545858375
  0.4171037515615694  0.1874350361232260  0.2843573229138130
  0.0000326027994646  0.2493378942702904  0.3694338443417067
  0.3315364450995304  0.1873051625344502  0.3690349847162651
  0.1684034551245688  0.1873073470993560  0.3690453135577130
  0.2499671709952977  0.2487564310154937  0.4600841585583311
  0.0842328605576768  0.1869753575652453  0.4545327288573517
  0.4156748814989584  0.1870003270162499  0.4544729194169292
  0.9999965213900595  0.2520247156469040  0.5401196828997215
  0.0000163554375945  0.2497794331531153  0.1980383423318770
  0.3334261870576256  0.3126629640480800  0.2031044579751722
  0.1665513760568729  0.3126445064610266  0.2030935624146935
  0.2499843589724549  0.3750089785364850  0.2786288724568280
  0.0830778561119843  0.3125360873461105  0.2843183126393640
  0.4168943132933478  0.3125409091273710  0.2843261789845073
  0.0000443102902636  0.3749738151443438  0.3695810502263654
  0.3315777188335005  0.3124408698052505  0.3687950330191399
  0.1684207136123348  0.3124234327968125  0.3687993711053039
  0.2499842556278224  0.3755631740071621  0.4614559101879081
  0.0829627209846322  0.3118523653607355  0.4523100902938637
  0.4169586911398184  0.3119330113977981  0.4522744433765880
  0.0008167966112538  0.3782761820673528  0.5414595924719805
  0.9999900656178369  0.3755983479905325  0.1982778990857383
  0.3343417881279649  0.4374367692510006  0.2032105847160892
  0.1656616202959995  0.4374189737512282  0.2032077941819352
  0.2499867815428871  0.9999952741965004  0.2783655049371418
  0.0830527271067112  0.4375962903502781  0.2848868216357232
  0.4169474561590150  0.4375965325084152  0.2849015208925252
  0.9999983877018153  0.9999940911727734  0.3692907969336829
  0.3313400127670576  0.4377829135118674  0.3700742238898158
  0.1687310781850542  0.4377452833434674  0.3700667117548448
  0.2499900803762785  0.9999873119618456  0.4624841959526051
  0.0856026609657476  0.4371720017013985  0.4549165376062021
  0.4145429345156586  0.4372647129027953  0.4549864695001276
  0.9999867884686466  0.9999801452855692  0.5436803626221760
  0.9999881723240662  0.5000237072027716  0.1984893900973930
  0.3343325034493603  0.5625708293595579  0.2032097453282162
  0.1656645280270084  0.5625883346031912  0.2032092946001498
  0.2500091335725187  0.6249943164108416  0.2786340456919874
  0.0830424481811178  0.5624011842402510  0.2849077952547958
  0.4169770089943086  0.5624178702885771  0.2849033333716307
  0.0000088555233475  0.6249101733238973  0.3696229513070719
  0.3314135018414177  0.5622514548158648  0.3700770973751517
  0.1687451011205710  0.5622221251179198  0.3700834552143206
  0.2500983788565350  0.6244927710933581  0.4613955376427796
  0.0856033504878013  0.5627338093415233  0.4550217466306492
  0.4146990719550772  0.5627592262400896  0.4549433372258065
  0.9998343467542057  0.6215294467278483  0.5416241057568527
  0.9999344803503405  0.6244054831699728  0.1983017781922030
  0.3334045341938392  0.6873423787687827  0.2031198726494452
  0.1665405785534944  0.6873565093162384  0.2031045695224307
  0.2499996193941882  0.7501180475644205  0.2783712124984206
  0.0830919916546833  0.6874541094972670  0.2843298224890773
  0.4169315245848324  0.6874599896503710  0.2843412309620135
  0.0000093817697504  0.7506100576838293  0.3694901546795037
  0.3316532271036934  0.6875635881711162  0.3688044501890246
  0.1684397097010688  0.6875549604671605  0.3688115609552725
  0.2500022764264358  0.7511691395990141  0.4600784829236346
  0.0829850430710621  0.6880692208832784  0.4522768038288447
  0.4171661899447869  0.6880593330310703  0.4523107870867733
  0.0000636424853724  0.7477789119911691  0.5400575674656807
  0.9999858456163366  0.7502027684950434  0.1980615224819076
  0.3343860464648785  0.8124443249298423  0.2028152486946908
  0.1655904092119442  0.8124401267630290  0.2028168703396815
  0.2499992942134313  0.8750661207165606  0.2783750783434371
  0.0828619863045148  0.8125519469870852  0.2843729337134135
  0.4171303853124755  0.8125595535937933  0.2843657356557756
  0.0000095467152974  0.8751320582412134  0.3698013944651279
  0.3315823147863171  0.8126659727539121  0.3690564696809773
  0.1684286262576009  0.8126704776936222  0.3690449748845523
  0.2500066629964053  0.8732274865140468  0.4598901199845926
  0.0842731607068501  0.8129793526955922  0.4545006582024058
  0.4157792200545316  0.8129585750284107  0.4545120083136140
  0.9999725054332984  0.8710171764688610  0.5416481032005152
  0.9999995593410276  0.8746436252911565  0.1979207314628368
  0.3338837380797131  0.9375807250806645  0.2029288129376567
  0.1661115010473040  0.9375840475173902  0.2029373987355925
  0.2500123359646764  0.5000017319356118  0.2792776241362986
  0.0829163558536834  0.9374957476212202  0.2842518110967305
  0.4170663614614227  0.9374958950940311  0.2842469903784703
  0.9999954938539588  0.4999826939451921  0.3702809071693878
  0.3313146353626806  0.9377177687957285  0.3689991130199246
  0.1686938432443625  0.9377278262786533  0.3689986017041846
  0.2501326349378061  0.5001162580887453  0.4698449016717063
  0.0829554673620336  0.9382346850922261  0.4535258479940865
  0.4170472398820735  0.9382349007310395  0.4535143277002120
  0.0001405433340196  0.4997822650202082  0.5416489843484484
  0.3394383549108539  0.9335147648215454  0.5472137496752936
  0.1605162271363554  0.9334946676678371  0.5472304480637504
  0.4999974620452008  0.9999995498531931  0.1978787246115488
  0.8338996102959726  0.0624218923362605  0.2029243236622378
  0.6660796203672277  0.0624166603169556  0.2029234383327605
  0.7499732521651481  0.1249213118531003  0.2783632297072245
  0.5829014359423184  0.0625000575581183  0.2842472893384453
  0.9170666197010746  0.0624942455394759  0.2842422952887631
  0.4999571518133195  0.1248594479484169  0.3697774177089883
  0.8312848458078932  0.0622478971079090  0.3689877612190102
  0.6686510992183798  0.0622689406626478  0.3689904028130044
  0.7499451041241869  0.1267125067958901  0.4598840846182881
  0.5829108249397237  0.0617609361906801  0.4535108839535127
  0.9170105811190368  0.0617136259057673  0.4534987169602971
  0.5000004268688798  0.1290819635352847  0.5416147942125775
  0.8393280933762739  0.0664315137676184  0.5472056906242884
  0.6604961662652684  0.0665533941281566  0.5472819866809431
  0.4999862637936090  0.1253500229889895  0.1979153601341608
  0.8343954006788366  0.1875560106943652  0.2027844026445393
  0.6655853216377068  0.1875571216349528  0.2027865898397962
  0.7499458763112372  0.2498656717226453  0.2783437441423828
  0.5828436408823023  0.1874361731322054  0.2843583305797850
  0.9171204237497506  0.1874204425362223  0.2843415976834294
  0.4999486350113429  0.2493823651006650  0.3694570326994651
  0.8315133782306603  0.1872791665365341  0.3690140800041135
  0.6683964109481408  0.1873029929836250  0.3690219415838172
  0.7499706697015540  0.2487018357757051  0.4600829008411864
  0.5841644433606987  0.1869680560786122  0.4544425603143694
  0.9157145004071623  0.1869109359756536  0.4544859269551296
  0.5001011769543098  0.2523832307916294  0.5400461924437323
  0.4999937646202071  0.2498008807054575  0.1980504792664846
  0.8334057609100967  0.3126295960858840  0.2031020677124076
  0.6665354190948136  0.3126408378016237  0.2031056387622172
  0.7499320819643955  0.3749876950788220  0.2786264134402785
  0.5830903062544763  0.3125402649457456  0.2843432435468145
  0.9168640388820535  0.3125200530136567  0.2843014850884984
  0.4999986813087105  0.3750597745695146  0.3696168902155605
  0.8315292867948543  0.3123788723289209  0.3687487849398039
  0.6683775694129821  0.3124336033686248  0.3688273564818942
  0.7500478334335767  0.3754636510895395  0.4615957318774662
  0.5829520071074512  0.3118889355049603  0.4523100424221340
  0.9170739991794363  0.3117359505769102  0.4521023597871903
  0.4993830604154681  0.3784811634977743  0.5414869872664667
  0.5000154217317387  0.3756009167319831  0.1983005294972457
  0.8343033326304266  0.4374287589287746  0.2031984780273106
  0.6656532728879867  0.4374395130805553  0.2032126545018613
  0.7499802234375395  0.9999882013975778  0.2783561829414438
  0.5831283453700777  0.4375964156534025  0.2849515627147667
  0.9168379315434976  0.4375774263509697  0.2848921294432500
  0.4999812375371135  0.9999926038558016  0.3692916377084430
  0.8312319894478577  0.4377126204596991  0.3701257215314584
  0.6687072820665776  0.4377302230671489  0.3702004318392511
  0.7499731856232330  0.0000188015021862  0.4624861427350737
  0.5856583413470702  0.4372139334652232  0.4551690029889670
  0.9146540244631822  0.4369703992246414  0.4548726098809226
  0.4999572424394927  0.9999805969347406  0.5436891592977418
  0.5000180077007670  0.4999945654979001  0.1985098904881681
  0.8343193774462989  0.5625728016607994  0.2032124002625935
  0.6656744756748836  0.5625706236277992  0.2032207701406392
  0.7499831916357422  0.6249939132182902  0.2786725042547147
  0.5831450251108308  0.5624118295504204  0.2849572483538125
  0.9168597657155999  0.5623980359810687  0.2849241583008961
  0.5001266137027756  0.6249786851668873  0.3696487536260378
  0.8313187110579463  0.5621811081584553  0.3701912078069398
  0.6687491271962358  0.5622244264842777  0.3702489716903088
  0.7502415005142637  0.6241829520298126  0.4616340625390905
  0.5857242795202566  0.5626758241046730  0.4551878445505793
  0.9144638538859411  0.5626051475590756  0.4551281516063312
  0.4988662968531941  0.6216463870236382  0.5416689078216308
  0.5000332046038949  0.6243975954579071  0.1983086785759554
  0.8334606921482930  0.6873835129747192  0.2031300415146262
  0.6665563418049629  0.6873586971853811  0.2031257022102864
  0.7500151465718261  0.7501045239026425  0.2783811116892565
  0.5831494479476547  0.6874545187884351  0.2843593202863985
  0.9168805646157097  0.6874515921155009  0.2843472291260554
  0.5000593390470129  0.7506052809669796  0.3694848969920486
  0.8316118763151650  0.6874985116927022  0.3688643228831125
  0.6684559004344877  0.6875142822657168  0.3688859298623939
  0.7501502018861501  0.7511775782138344  0.4600891173755954
  0.5832171069016638  0.6880419030937972  0.4524174473308022
  0.9170970135387222  0.6879797800090586  0.4523518192700422
  0.4998393376342420  0.7476383900909553  0.5400800837469930
  0.5000099406520135  0.7502106092999909  0.1980635313219778
  0.8343991008750180  0.8124311671381435  0.2028114123648379
  0.6655992356572966  0.8124402762217287  0.2028006873967527
  0.7500009898695339  0.8750623609571164  0.2783748943679001
  0.5828832369201180  0.8125574089912462  0.2843741143868996
  0.9171172464458479  0.8125538088530888  0.2843713616751629
  0.4999968632439291  0.8751206798596201  0.3697887826629866
  0.8315848174939475  0.8126600449972017  0.3690710788769067
  0.6684560612950818  0.8126707277269958  0.3690566998017957
  0.7500104150071749  0.8732394001134764  0.4598791825932054
  0.5842859597765511  0.8130124769483800  0.4544606232115811
  0.9157769018924071  0.8129933594110454  0.4545061524137850
  0.5000298033737423  0.8709307895807399  0.5416342019644915
  0.4999960225214863  0.8746413742241685  0.1979247651651264
  0.8338930910233344  0.9375673888135125  0.2029299510118037
  0.6660844177714935  0.9375744963703525  0.2029258615951335
  0.7499588498751208  0.4999911197290245  0.2792474106918732
  0.5829155167128164  0.9374947496350075  0.2842472303508430
  0.9170701449796113  0.9374952460303518  0.2842493525135836
  0.5001830346983240  0.5000003282581460  0.3703317489154117
  0.8313015288939525  0.9377188629116944  0.3689871278147834
  0.6686691087346190  0.9377151374867694  0.3689871189587279
  0.7502434368178612  0.4995066246070010  0.4702602571076824
  0.5829506304031895  0.9382388983455812  0.4535181146233285
  0.9170548096915496  0.9382369716892143  0.4534993638566434
  0.4990978978799774  0.5001030895771805  0.5419722555247972
  0.8394290293820319  0.9334769997006873  0.5472131113588645
  0.6604747762253069  0.9335008486267569  0.5472627549717188
  0.4054432423702536  0.9999970818832224  0.2324772655827445
  0.2499885831698094  0.9999978261255862  0.1984806387869753
  0.0945393587960623  0.9999984405193558  0.2324796437307555
  0.1553040099751399  0.1248192147189471  0.3162684093502932
  0.9999923826458996  0.1248809438757590  0.3031458365317903
  0.3446627993741274  0.1248189149850631  0.3162599452035195
  0.4007252294229318  0.1246923039584544  0.4019560778586566
  0.2499773231015823  0.1248664671323212  0.3898738931880672
  0.0992129562341262  0.1246992793515318  0.4019772650153897
  0.1483622264695157  0.1214281611769721  0.4885496329418544
  0.9999594471094255  0.1243656802715591  0.4732376905055773
  0.3515809018649634  0.1214409500481182  0.4885321234866709
  0.4049034052404750  0.1287083640848721  0.5712015770175327
  0.2500170834555036  0.0895929474962358  0.5766296286615571
  0.0951858313324720  0.1286747084377780  0.5712259909855817
  0.4053759524829417  0.1250163350242488  0.2326096588032698
  0.2499947409725749  0.1251346302930685  0.2000932197943612
  0.0946089668427348  0.1250141858244547  0.2326161229322565
  0.1553394604982898  0.2497616823185353  0.3161314244480593
  0.9999812676165547  0.2498901388593211  0.3029071740520450
  0.3446202275614354  0.2497588778041901  0.3161215105753712
  0.4009020413812792  0.2487491894325728  0.4013687580179166
  0.2499778417543652  0.2497710488669682  0.3900305949753928
  0.0990509439877698  0.2487137184648702  0.4014039964727232
  0.1475573988842243  0.2518206761443409  0.4867364145458524
  0.9999218446253693  0.2489155479584255  0.4726721721664688
  0.3523575381326509  0.2517792240253627  0.4866513241292552
  0.3987210593617050  0.2523454451838631  0.5648525766190389
  0.2499534915033763  0.1887695038185555  0.5116792035145536
  0.1016312562534125  0.2521273680938378  0.5649301448859276
  0.4053007428363102  0.2500265857448056  0.2326017347773117
  0.2499941468260047  0.2497989544436621  0.1993769573677113
  0.0946911623618476  0.2500208567758406  0.2326009680829841
  0.1556600693364842  0.3752152412430974  0.3164370421154956
  0.9999670067886939  0.3749909098242625  0.3029959418448271
  0.3443155640739661  0.3752304342914172  0.3164285371458391
  0.4009933413509117  0.3750975402860490  0.4011703214354227
  0.2500100087013948  0.3752058565051257  0.3913713999300583
  0.0990109394965089  0.3750086453718708  0.4011685741231119
  0.1470442011273576  0.3699285762772533  0.4849836123038429
  0.0001786921370979  0.3758470372996356  0.4738572136974000
  0.3529049153829931  0.3700284839375598  0.4849322937556977
  0.3953453143905747  0.3861921768128553  0.5637114903772442
  0.2499084053849998  0.4333487068636543  0.5184155218398487
  0.1049747095954316  0.3855357637082690  0.5640176226408187
  0.4052854715896146  0.3751607249945863  0.2328123419567376
  0.2499941526397578  0.3753881335238631  0.1987626951421220
  0.0947035689175166  0.3751596666525998  0.2328027342086258
  0.1551848127763122  0.9999986875585876  0.3161626327467246
  0.9999883238659208  0.9999955458717835  0.3027810504410979
  0.3447989403405316  0.9999917955169622  0.3161578317212204
  0.4012210399619107  0.9999911177007306  0.4016570687410024
  0.2499994333640956  0.9999963932519904  0.3901217667192398
  0.0987543415740433  0.9999864343895268  0.4016642585176911
  0.1446376691948146  0.9999896866752920  0.4874272244030848
  0.9999909603408952  0.9999954411723095  0.4743451946597119
  0.3553428165856758  0.9999828197481406  0.4874259435013641
  0.4033661293533726  0.9999710044392742  0.5732811128357085
  0.2499976301942368  0.0000124245192623  0.5348316742536952
  0.0966119054867889  0.9999889420756745  0.5732740459283576
  0.4052227730231266  0.5000096687794624  0.2332226175599956
  0.2499976550412342  0.5000088883565894  0.2020103869296435
  0.0947823823241762  0.5000060467612570  0.2332122358624744
  0.1556742799137680  0.6247745143030485  0.3164401582142560
  0.9999765864849621  0.6249959903444946  0.3030580963969101
  0.3443545120599296  0.6247742978366020  0.3164327624313188
  0.4011383435204010  0.6249627902077464  0.4011854383334210
  0.2500676025577846  0.6247904844610872  0.3913321265080967
  0.0990129002848974  0.6248765507178078  0.4011967463946249
  0.1471990299349102  0.6300624661647163  0.4848864320914004
  0.0000432260136805  0.6238753855873895  0.4740529867524970
  0.3531273111512903  0.6299506936383068  0.4849355986560582
  0.3946346876322124  0.6143624263535941  0.5641301315346823
  0.2500198879573503  0.5669338378075963  0.5183651256685380
  0.1041776842737789  0.6140300807847794  0.5634789178094977
  0.4053096691949207  0.6248449268045206  0.2328186943326571
  0.2499887559386096  0.6246195778499626  0.1987508267369691
  0.0946889679256415  0.6248337645768771  0.2328125598987967
  0.1553537519403108  0.7502308128283985  0.3161381747673886
  0.9999873777571366  0.7500878382657774  0.3029541379387055
  0.3446476197749959  0.7502402105646695  0.3161342663512272
  0.4010045497557897  0.7512366649402864  0.4014083947944016
  0.2500220968292126  0.7502110650042511  0.3900450554952570
  0.0990636527706883  0.7512543177372706  0.4013957909550925
  0.1476189851203031  0.7481399706878662  0.4867442261124069
  0.0000419496658708  0.7510129447607810  0.4726879727026017
  0.3524170323396802  0.7480979186524976  0.4867360274982246
  0.3984706505208564  0.7478182267509013  0.5649512796471612
  0.2499810803657709  0.8112194031676765  0.5116566511506235
  0.1013301381361416  0.7479206371364953  0.5649420231610804
  0.4053114061526060  0.7499693525241327  0.2326093472202189
  0.2499979693797272  0.7502003551013416  0.1993883734554558
  0.0946723436203456  0.7499790093437468  0.2326144686609339
  0.1553125200522345  0.8751693063269741  0.3162697828262324
  0.9999956558706273  0.8751028195295945  0.3031633291334401
  0.3446798273090153  0.8751630330219839  0.3162729579457633
  0.4007765810173467  0.8752720038196671  0.4019760174369367
  0.2499957550467684  0.8751057776843041  0.3898617927731820
  0.0992550363692217  0.8752865821660123  0.4019830370818198
  0.1484364420078776  0.8785503104487304  0.4885586024915796
  0.9999932362784776  0.8755759996941208  0.4732668712200478
  0.3516029639154681  0.8785394183475290  0.4885276722372680
  0.4048663844385416  0.8712581928059180  0.5711420510162597
  0.2499902536258674  0.9104485042837567  0.5766377103941167
  0.0951297830250439  0.8712430497938470  0.5711587200318817
  0.4053843790923608  0.8749767890761788  0.2326181133177059
  0.2499927404239060  0.8748614094238008  0.2000920706596432
  0.0945969444614718  0.8749783704871916  0.2326250478908705
  0.1554429009024432  0.4999924514851770  0.3170489164286394
  0.9999476440290778  0.4999851555626407  0.3036240814469267
  0.3445652859021990  0.5000146007597266  0.3170547094176968
  0.4011626878792285  0.4999806395718664  0.4018841562897535
  0.2500707291646052  0.5000203387550926  0.3939319262062924
  0.0990012034855425  0.5000117627258192  0.4018840591431783
  0.1407686791746201  0.4998710618757727  0.4859177583916292
  0.0000284632523204  0.4998668814323466  0.4727925771242241
  0.3595539613675669  0.5001212752651227  0.4860043872500768
  0.4020062508131872  0.5003475377183690  0.5745080513394853
  0.2494621483301316  0.4999694195702702  0.5809462224792341
  0.0959459403212293  0.4994621584814283  0.5741378133574102
  0.9054504284369642  0.9999951187929099  0.2324701506733362
  0.7499905697332565  0.9999966059732230  0.1985421189652712
  0.5945429521553436  0.9999990804966643  0.2324790956345453
  0.6552941841794748  0.1248246454821285  0.3162597586691192
  0.4999757715348210  0.1248892361007563  0.3031418293064760
  0.8446667263765946  0.1248096223874313  0.3162521590169476
  0.9007343819855862  0.1246730510728682  0.4019443635857343
  0.7499543408619331  0.1248605318907963  0.3898439616434430
  0.5991931186443793  0.1246925069700637  0.4019577426339538
  0.6483585530682774  0.1214847861569623  0.4885653889407635
  0.4999603251919709  0.1244033912197935  0.4732430348321159
  0.8515169105623031  0.1213819065953459  0.4885570211165557
  0.9049045774256328  0.1286549961907824  0.5711343051151374
  0.7499705399766157  0.0895669856203227  0.5766769957878424
  0.5951007086637787  0.1287825141336398  0.5711744395315179
  0.9053901403601472  0.1250086430902471  0.2326085631627350
  0.7499798832973923  0.1251275495322091  0.2001115040044397
  0.5945936619729721  0.1250212804402437  0.2326151363659648
  0.6553384952382189  0.2497527557511532  0.3161248074419802
  0.4999816391781877  0.2498988197119516  0.3029300900850203
  0.8446013210237737  0.2497245809399260  0.3160912475738087
  0.9009374929950908  0.2486218703264669  0.4013015537251405
  0.7499590110973529  0.2497468985798861  0.3900354971513451
  0.5990057506187227  0.2487441607946010  0.4013581648078386
  0.6475095546906573  0.2516756553024351  0.4865756414155342
  0.4999753040578696  0.2489949897209840  0.4726344187638460
  0.8524518115036912  0.2517451545952625  0.4866778284128443
  0.8989407555906155  0.2519493619515103  0.5650203695611964
  0.7499263400883862  0.1887128614900888  0.5116512382794340
  0.6014704283068610  0.2523525898205747  0.5648841710310535
  0.9053123888813133  0.2500036141036759  0.2325804147747306
  0.7499686584798226  0.2497798383765257  0.1993340960125920
  0.5946771504846495  0.2500180892585675  0.2326087247707136
  0.6556745833371451  0.3752356590338550  0.3164854263927310
  0.5000126054146605  0.3750037040757874  0.3030518904780379
  0.8442554886766303  0.3752184319030150  0.3164171889752723
  0.9010351467552624  0.3749813808159601  0.4010530329893101
  0.7499648912785517  0.3751444230871996  0.3914542996470303
  0.5989517844122361  0.3751041106303461  0.4012654991471720
  0.6468515097687515  0.3699060926606847  0.4849641725775840
  0.4998002283755625  0.3760271496246474  0.4739584356945556
  0.8533130088180556  0.3698710884596039  0.4847082556695099
  0.8962382964515001  0.3845093600826104  0.5639323596917336
  0.7506822213581898  0.4325363866976417  0.5188755547747519
  0.6045423415234978  0.3860532120961295  0.5636134236928925
  0.9052600198951808  0.3751576190647086  0.2327859430263928
  0.7499760306545156  0.3753649069531875  0.1987891744656594
  0.5947208108035440  0.3751786379424971  0.2328352582291870
  0.6551784372443450  0.9999980065437768  0.3161531616814131
  0.4999880785003867  0.9999963987100955  0.3027810337830417
  0.8447808196995013  0.9999889046056936  0.3161537859407275
  0.9012218113580275  0.9999880952753770  0.4016495286293846
  0.7499734960256319  0.9999833912508436  0.3901203178284405
  0.5987474635795635  0.9999940764535751  0.4016501146768974
  0.6446058449072822  0.0000088975696499  0.4874247338537003
  0.4999873780649580  0.9999921990091778  0.4743436895668012
  0.8553243002234225  0.9999637003447575  0.4874268918202631
  0.9033562362767569  0.0000068673483682  0.5732644072670325
  0.7499414549839614  0.9999808546807856  0.5348279063565258
  0.5965948033816773  0.0000268413310209  0.5732950022633148
  0.9051840900803469  0.4999993578217072  0.2332173642115762
  0.7499889684866687  0.5000106836835698  0.2017441061784169
  0.5948076883170685  0.5000078628416631  0.2332515147381855
  0.6557071715581912  0.6247399806058880  0.3165296351185560
  0.5000539646139472  0.6250091013861834  0.3030706856921768
  0.8442874568570886  0.6247330654687104  0.3164997900397424
  0.9010858650936413  0.6248283724228898  0.4012215764190046
  0.7500623240646647  0.6247250393698209  0.3915628168083245
  0.5990589081251159  0.6248963631941891  0.4013557597377755
  0.6471373239914513  0.6299165900904171  0.4851519002800302
  0.5000708779474721  0.6238626514470624  0.4740584889570130
  0.8531971507829681  0.6298935884898569  0.4849059989998068
  0.8945542391250711  0.6157962925620168  0.5642727129257494
  0.7507108577808523  0.5664452241245002  0.5190455254276216
  0.6037023767145868  0.6147886109689864  0.5642252072661122
  0.9052451035599773  0.6248329946706761  0.2328490286112554
  0.7500087336592998  0.6246471790409984  0.1988521066519837
  0.5947290181551281  0.6248309958497202  0.2328509858622567
  0.6553943556492570  0.7502206122286452  0.3161528621927090
  0.5000238811322362  0.7500950082511579  0.3029481498074560
  0.8446345576565051  0.7501991758947000  0.3161583266594974
  0.9009736615760673  0.7511919594333349  0.4014016203000281
  0.7500538143807205  0.7501883834396921  0.3900610900628507
  0.5990892509345258  0.7512040086569840  0.4014095725008389
  0.6477445625072349  0.7483880236244502  0.4865702063654638
  0.5000969184219244  0.7509617885083486  0.4726581334292987
  0.8525706049670774  0.7481713657397009  0.4866793100642326
  0.8985230789287399  0.7481337345146812  0.5650374256807993
  0.7501771191606750  0.8111995149828601  0.5116073766454861
  0.6011848799747028  0.7475442516752011  0.5647500100538139
  0.9053157374309464  0.7499849686372428  0.2326301629038525
  0.7499848365156296  0.7502078105691794  0.1993481093041112
  0.5946981906019317  0.7499783130570066  0.2326200515092083
  0.6553192517558983  0.8751672112028430  0.3162723099025797
  0.4999954907019486  0.8751059226666911  0.3031523165629935
  0.8446816568628819  0.8751588315233789  0.3162732603852518
  0.9007706387650671  0.8752724168763848  0.4019626743166143
  0.7500059346404342  0.8751139325869559  0.3898634255913436
  0.5992359793397171  0.8753000842074528  0.4019672291410217
  0.6484153858788346  0.8785078910020374  0.4885457489404601
  0.5000174448720784  0.8755720008743850  0.4732433653480470
  0.8515844779181023  0.8785806125023541  0.4885046575444676
  0.9048019166137706  0.8712939118507919  0.5711753236916977
  0.7499543398227999  0.9104218051051163  0.5766282469353072
  0.5951592847715901  0.8712584780922938  0.5712096950407499
  0.9053888573087718  0.8749814205064155  0.2326261359610982
  0.7499906537659200  0.8748666802673242  0.2000946540610968
  0.5946042939358662  0.8749737118579759  0.2326215113838188
  0.6555576079707777  0.4999916113613381  0.3171671628129573
  0.5000619021456885  0.5000074730201263  0.3036411001758310
  0.8444073660672586  0.4999833111154146  0.3171079556417027
  0.9009908229568282  0.4999461281386957  0.4019825496327769
  0.7500547017208632  0.4999050789985091  0.3941060356193091
  0.5991110768819183  0.4999769092122008  0.4021513767683231
  0.6410968112516429  0.4999401873513563  0.4864048730146848
  0.5002931402325501  0.5000353198869263  0.4730154125150889
  0.8595480681620202  0.4994102904190072  0.4863100277607941
  0.9042656790928234  0.5032706454451059  0.5745456328358287
  0.7510275031288529  0.5001765208296760  0.5837541873540530
  0.5945797497316647  0.5011419769047123  0.5742570370772029
  0.3627447487402904  0.1916009775937653  0.5328521038698355
  0.1373995520577438  0.1914398410870106  0.5328645137958077
  0.3756961715292064  0.3178772767594751  0.5341095183340272
  0.1241450199752947  0.3177109983334958  0.5343405794198546
  0.3273914225628545  0.4478356358778868  0.5634957304729014
  0.1718436287665099  0.4481156508373090  0.5630255443192524
  0.3280376706138242  0.5517321336175627  0.5629742033552958
  0.1713258378102793  0.5516250983816136  0.5624898412850925
  0.3752824105748473  0.6822873292134233  0.5341784163204721
  0.1239071123030655  0.6822110911124213  0.5339947906986424
  0.3626839124637087  0.8085993678975001  0.5328193310390148
  0.1374324847561752  0.8085221662165836  0.5327797015792157
  0.8628386260847449  0.1912773257656113  0.5328316232979802
  0.6373487588913704  0.1915246626830367  0.5327281878298180
  0.8750991961343928  0.3173219906036948  0.5337581774026106
  0.6246339083830890  0.3183101191555622  0.5344380480581776
  0.8338894543028914  0.4479733310773000  0.5606317524651132
  0.6706269024702038  0.4473741993181051  0.5622850160102786
  0.8286251676734793  0.5549420584208207  0.5638144295435055
  0.6707710730457421  0.5538773233763692  0.5626919313932461
  0.8752424981240665  0.6826228451698455  0.5344031497223654
  0.6249782496509297  0.6817370985689166  0.5344507133254055
  0.8625976856724336  0.8085404290293923  0.5328264678299561
  0.6372044437552233  0.8083755183897381  0.5328440435194963
  0.7478718041072767  0.5011203368379427  0.6422969725127103
 
  0.00000000E+00  0.00000000E+00  0.00000000E+00
  0.00000000E+00  0.00000000E+00  0.00000000E+00
  0.00000000E+00  0.00000000E+00  0.00000000E+00
  0.00000000E+00  0.00000000E+00  0.00000000E+00
  0.00000000E+00  0.00000000E+00  0.00000000E+00
  0.00000000E+00  0.00000000E+00  0.00000000E+00