Ta  N Ru                                
   1.00000000000000     
     9.0548154099999998    0.0000000000000000    0.0000000000000000
     0.0000000000000000   11.6775998899999998    0.0000000000000000
     0.0000000000000000    0.0000000000000000   23.4818170799999990
   Ta   N    Ru
    60    60     2
Selective dynamics
Direct
  0.0000000000000000  0.0000000000000000  0.2546926809530987   F   F   F
  0.6670845899906297  0.1250000003211298  0.2638822399803757   F   F   F
  0.3329153514769843  0.1250000003211298  0.2638822399803757   F   F   F
  0.4999999994478088  0.2499999997859135  0.3618861993156202   F   F   F
  0.1650707596845180  0.1250000003211298  0.3684425577811794   F   F   F
  0.8349292403154820  0.1250000003211298  0.3684425577811794   F   F   F
  0.0002234805111337  0.2501159725871305  0.4799034209790853   T   T   T
  0.6645812979258736  0.1250166817858830  0.4781009384590761   T   T   T
  0.3344338573942067  0.1250191661143003  0.4784374176126142   T   T   T
  0.4997558125933540  0.2501847187756042  0.5909109875657709   T   T   T
  0.1672830483540350  0.1250401601179338  0.5909968878062599   T   T   T
  0.8326306126166310  0.1250525415307290  0.5897263195528197   T   T   T
  0.9987354659898880  0.2480457492268815  0.7027091246714077   T   T   T
  0.6713423314141136  0.1250484873091604  0.7038415402820095   T   T   T
  0.3347511986691203  0.1250778349115579  0.7034869030072406   T   T   T
  0.0000000000000000  0.2499999997859135  0.2546926809530987   F   F   F
  0.6670845899906297  0.3750000001070433  0.2638822399803757   F   F   F
  0.3329153514769843  0.3750000001070433  0.2638822399803757   F   F   F
  0.4999999994478088  0.5000000004281731  0.3618861993156202   F   F   F
  0.1650707596845180  0.3750000001070433  0.3684425577811794   F   F   F
  0.8349292403154820  0.3750000001070433  0.3684425577811794   F   F   F
  0.0002154007614313  0.4999456387324273  0.4799025395128702   T   T   T
  0.6646078997667724  0.3750270308221444  0.4778761392111201   T   T   T
  0.3349064854151402  0.3750215154238209  0.4783525276738727   T   T   T
  0.4999030562766277  0.4999460751124991  0.5908931539619172   T   T   T
  0.1659674612064750  0.3750286785972538  0.5908745321410098   T   T   T
  0.8314593516522588  0.3750244325746810  0.5896382075017752   T   T   T
  0.9986685574473023  0.5022335180985090  0.7026685364314550   T   T   T
  0.6744381260044230  0.3750768547899032  0.7029825106054941   T   T   T
  0.3383583742659324  0.3751724620573699  0.7044181546137406   T   T   T
  0.0000000000000000  0.5000000004281731  0.2546926809530987   F   F   F
  0.6670845899906297  0.6249999998929567  0.2638822399803757   F   F   F
  0.3329153514769843  0.6249999998929567  0.2638822399803757   F   F   F
  0.4999999994478088  0.7500000002140865  0.3618861993156202   F   F   F
  0.1650707596845180  0.6249999998929567  0.3684425577811794   F   F   F
  0.8349292403154820  0.6249999998929567  0.3684425577811794   F   F   F
  0.0002350295655761  0.7500869001566246  0.4798976541649276   T   T   T
  0.6645846831642114  0.6250142345323513  0.4780951012182271   T   T   T
  0.3344159051494820  0.6250187080398897  0.4784072278013966   T   T   T
  0.4998837374882820  0.7501530744029565  0.5908876757912006   T   T   T
  0.1672613525755506  0.6250286688968650  0.5909684940335532   T   T   T
  0.8326554963612093  0.6250378941326953  0.5897654877134677   T   T   T
  0.9986800708710076  0.7479184748442624  0.7026426064391383   T   T   T
  0.6714877077945661  0.6250560335589695  0.7038895951543952   T   T   T
  0.3352242977441284  0.6250822558103011  0.7031985090511303   T   T   T
  0.0000000000000000  0.7500000002140865  0.2546926809530987   F   F   F
  0.6670845899906297  0.8750000005352163  0.2638822399803757   F   F   F
  0.3329153514769843  0.8750000005352163  0.2638822399803757   F   F   F
  0.4999999994478088  0.0000000000000000  0.3618861993156202   F   F   F
  0.1650707596845180  0.8750000005352163  0.3684425577811794   F   F   F
  0.8349292403154820  0.8750000005352163  0.3684425577811794   F   F   F
  0.0002423371271677  0.9999395780636990  0.4799003844628629   T   T   T
  0.6646204903278622  0.8750088997740553  0.4778699254278447   T   T   T
  0.3349237773103128  0.8750237622653901  0.4783504965409579   T   T   T
  0.4997456832021593  0.9999235675487618  0.5909044138291591   T   T   T
  0.1660019956770792  0.8750358168342972  0.5908679433917676   T   T   T
  0.8314748831893077  0.8750525680329987  0.5896136842624707   T   T   T
  0.9987697933828232  0.0020896140179884  0.7026965797299470   T   T   T
  0.6744459861086739  0.8750519429782780  0.7029405086945317   T   T   T
  0.3383316558496245  0.8749659177850754  0.7043947730680050   T   T   T
  0.8141011533980276  0.0000000000000000  0.3013105672926031   F   F   F
  0.4999999994478088  0.0000000000000000  0.2564174481620327   F   F   F
  0.1858988466019724  0.0000000000000000  0.3013105672926031   F   F   F
  0.3088456122590841  0.2499999997859135  0.4099867722441957   F   F   F
  0.0000000000000000  0.2499999997859135  0.3930971035158137   F   F   F
  0.6911543877409159  0.2499999997859135  0.4099867722441957   F   F   F
  0.8022712831931111  0.2499015861446458  0.5218858679582370   T   T   T
  0.4996168647866792  0.2500946495524461  0.5029837000330454   T   T   T
  0.1975880155114861  0.2503283176494919  0.5226814065244112   T   T   T
  0.3035682313168968  0.2507141029739142  0.6341095983024377   T   T   T
  0.9991173378605619  0.2499681124869184  0.6138910617360073   T   T   T
  0.6959561278801594  0.2492810703386258  0.6330107084655804   T   T   T
  0.8053995598102126  0.2496956772301672  0.7404249642703633   T   T   T
  0.5008592154208158  0.2494177554490139  0.7239247300767963   T   T   T
  0.1953818009099736  0.2619005766112301  0.7450730366795989   T   T   T
  0.8141011533980276  0.2499999997859135  0.3013105672926031   F   F   F
  0.4999999994478088  0.2499999997859135  0.2564174481620327   F   F   F
  0.1858988466019724  0.2499999997859135  0.3013105672926031   F   F   F
  0.3088456122590841  0.5000000004281731  0.4099867722441957   F   F   F
  0.0000000000000000  0.5000000004281731  0.3930971035158137   F   F   F
  0.6911543877409159  0.5000000004281731  0.4099867722441957   F   F   F
  0.8022534420998723  0.5001821767177125  0.5218904647486414   T   T   T
  0.4995962512849201  0.4999802330493460  0.5029619263554869   T   T   T
  0.1975941173656044  0.4997327495794959  0.5226630261979180   T   T   T
  0.3036839027586209  0.4994589079525549  0.6340208573912700   T   T   T
  0.9991252877839275  0.5001056585371115  0.6138598571358956   T   T   T
  0.6960835084531657  0.5007848536021039  0.6330202383091222   T   T   T
  0.8054047054868598  0.5004049065505515  0.7404760255390110   T   T   T
  0.5011246960292475  0.5005813340230525  0.7239543425988383   T   T   T
  0.1957202940503906  0.4897963057841878  0.7446909163486024   T   T   T
  0.8141011533980276  0.5000000004281731  0.3013105672926031   F   F   F
  0.4999999994478088  0.5000000004281731  0.2564174481620327   F   F   F
  0.1858988466019724  0.5000000004281731  0.3013105672926031   F   F   F
  0.3088456122590841  0.7500000002140865  0.4099867722441957   F   F   F
  0.0000000000000000  0.7500000002140865  0.3930971035158137   F   F   F
  0.6911543877409159  0.7500000002140865  0.4099867722441957   F   F   F
  0.8022694556570680  0.7498616847019675  0.5218759191399092   T   T   T
  0.4996059328202460  0.7500660327548491  0.5029612991544459   T   T   T
  0.1976056026374717  0.7503179136047233  0.5226633772920743   T   T   T
  0.3036766467340296  0.7506453727732405  0.6340128092757038   T   T   T
  0.9991299690601827  0.7499762444588318  0.6138423749617078   T   T   T
  0.6960854801992151  0.7493170055086790  0.6329978483644819   T   T   T
  0.8054130744552515  0.7497430578314660  0.7404508089497995   T   T   T
  0.5011390189038003  0.7495617397539012  0.7239194052036597   T   T   T
  0.1957352371217096  0.7603980556282767  0.7446694087926959   T   T   T
  0.8141011533980276  0.7500000002140865  0.3013105672926031   F   F   F
  0.4999999994478088  0.7500000002140865  0.2564174481620327   F   F   F
  0.1858988466019724  0.7500000002140865  0.3013105672926031   F   F   F
  0.3088456122590841  0.0000000000000000  0.4099867722441957   F   F   F
  0.0000000000000000  0.0000000000000000  0.3930971035158137   F   F   F
  0.6911543877409159  0.0000000000000000  0.4099867722441957   F   F   F
  0.8022932176319273  0.0001688776494942  0.5218744044457578   T   T   T
  0.4996204541610336  0.9999525364595065  0.5029807374588949   T   T   T
  0.1976012834189847  0.9997394261005288  0.5226817353457166   T   T   T
  0.3035612797491869  0.9994073726957353  0.6341013805569674   T   T   T
  0.9991248831250054  0.0001388492062862  0.6138719288292273   T   T   T
  0.6959628055895606  0.0008214780149469  0.6329862210723487   T   T   T
  0.8054410365320585  0.0004146886677203  0.7403969263065847   T   T   T
  0.5008840299005051  0.0007146423638667  0.7238892024690251   T   T   T
  0.1954415115778775  0.9882665106163214  0.7450491777099800   T   T   T
  0.1447568983108211  0.1250575934994620  0.7859741287283737   T   T   T
  0.1443713280646327  0.6251202942542951  0.7865756489468586   T   T   T
 
  0.00000000E+00  0.00000000E+00  0.00000000E+00
  0.00000000E+00  0.00000000E+00  0.00000000E+00
  0.00000000E+00  0.00000000E+00  0.00000000E+00
  0.00000000E+00  0.00000000E+00  0.00000000E+00
  0.00000000E+00  0.00000000E+00  0.00000000E+00
  0.00000000E+00  0.00000000E+00  0.00000000E+00
  0.00000000E+00  0.00000000E+00  0.00000000E+00
  0.00000000E+00  0.00000000E+00  0.00000000E+00
  0.00000000E+00  0.00000000E+00  0.00000000E+00
  0.00000000E+00  0.00000000E+00  0.00000000E+00
  0.00000000E+00  0.00000000E+00  0.00000000E+00
  0.00000000E+00  0.00000000E+00  0.00000000E+00
  0.00000000E+00  0.00000000E+00  0.00000000E+00
  0.00000000E+00  0.00000000E+00  0.00000000E+00
  0.00000000E+00  0.00000000E+00  0.00000000E+00
  0.00000000E+00  0.00000000E+00  0.00000000E+00
  0.00000000E+00  0.00000000E+00  0.00000000E+00
  0.00000000E+00  0.00000000E+00  0.00000000E+00
  0.00000000E+00  0.00000000E+00  0.00000000E+00
  0.00000000E+00  0.00000000E+00  0.00000000E+00
  0.00000000E+00  0.00000000E+00  0.00000000E+00
  0.00000000E+00  0.00000000E+00  0.00000000E+00
  0.00000000E+00  0.00000000E+00  0.00000000E+00
  0.00000000E+00  0.00000000E+00  0.00000000E+00
  0.00000000E+00  0.00000000E+00  0.00000000E+00
  0.00000000E+00  0.00000000E+00  0.00000000E+00
  0.00000000E+00  0.00000000E+00  0.00000000E+00
  0.00000000E+00  0.00000000E+00  0.00000000E+00
  0.00000000E+00  0.00000000E+00  0.00000000E+00
  0.00000000E+00  0.00000000E+00  0.00000000E+00
  0.00000000E+00  0.00000000E+00  0.00000000E+00
  0.00000000E+00  0.00000000E+00  0.00000000E+00
  0.00000000E+00  0.00000000E+00  0.00000000E+00
  0.00000000E+00  0.00000000E+00  0.00000000E+00
  0.00000000E+00  0.00000000E+00  0.00000000E+00
  0.00000000E+00  0.00000000E+00  0.00000000E+00
  0.00000000E+00  0.00000000E+00  0.00000000E+00
  0.00000000E+00  0.00000000E+00  0.00000000E+00
  0.00000000E+00  0.00000000E+00  0.00000000E+00
  0.00000000E+00  0.00000000E+00  0.00000000E+00
  0.00000000E+00  0.00000000E+00  0.00000000E+00
  0.00000000E+00  0.00000000E+00  0.00000000E+00
  0.00000000E+00  0.00000000E+00  0.00000000E+00
  0.00000000E+00  0.00000000E+00  0.00000000E+00
  0.00000000E+00  0.00000000E+00  0.00000000E+00
  0.00000000E+00  0.00000000E+00  0.00000000E+00
  0.00000000E+00  0.00000000E+00  0.00000000E+00
  0.00000000E+00  0.00000000E+00  0.00000000E+00
  0.00000000E+00  0.00000000E+00  0.00000000E+00
  0.00000000E+00  0.00000000E+00  0.00000000E+00
  0.00000000E+00  0.00000000E+00  0.00000000E+00
  0.00000000E+00  0.00000000E+00  0.00000000E+00
  0.00000000E+00  0.00000000E+00  0.00000000E+00
  0.00000000E+00  0.00000000E+00  0.00000000E+00
  0.00000000E+00  0.00000000E+00  0.00000000E+00
  0.00000000E+00  0.00000000E+00  0.00000000E+00
  0.00000000E+00  0.00000000E+00  0.00000000E+00
  0.00000000E+00  0.00000000E+00  0.00000000E+00
  0.00000000E+00  0.00000000E+00  0.00000000E+00
  0.00000000E+00  0.00000000E+00  0.00000000E+00
  0.00000000E+00  0.00000000E+00  0.00000000E+00
  0.00000000E+00  0.00000000E+00  0.00000000E+00
  0.00000000E+00  0.00000000E+00  0.00000000E+00
  0.00000000E+00  0.00000000E+00  0.00000000E+00
  0.00000000E+00  0.00000000E+00  0.00000000E+00
  0.00000000E+00  0.00000000E+00  0.00000000E+00
  0.00000000E+00  0.00000000E+00  0.00000000E+00
  0.00000000E+00  0.00000000E+00  0.00000000E+00
  0.00000000E+00  0.00000000E+00  0.00000000E+00
  0.00000000E+00  0.00000000E+00  0.00000000E+00
  0.00000000E+00  0.00000000E+00  0.00000000E+00
  0.00000000E+00  0.00000000E+00  0.00000000E+00
  0.00000000E+00  0.00000000E+00  0.00000000E+00
  0.00000000E+00  0.00000000E+00  0.00000000E+00
  0.00000000E+00  0.00000000E+00  0.00000000E+00
  0.00000000E+00  0.00000000E+00  0.00000000E+00
  0.00000000E+00  0.00000000E+00  0.00000000E+00
  0.00000000E+00  0.00000000E+00  0.00000000E+00
  0.00000000E+00  0.00000000E+00  0.00000000E+00
  0.00000000E+00  0.00000000E+00  0.00000000E+00
  0.00000000E+00  0.00000000E+00  0.00000000E+00
  0.00000000E+00  0.00000000E+00  0.00000000E+00
  0.00000000E+00  0.00000000E+00  0.00000000E+00
  0.00000000E+00  0.00000000E+00  0.00000000E+00
  0.00000000E+00  0.00000000E+00  0.00000000E+00
  0.00000000E+00  0.00000000E+00  0.00000000E+00
  0.00000000E+00  0.00000000E+00  0.00000000E+00
  0.00000000E+00  0.00000000E+00  0.00000000E+00
  0.00000000E+00  0.00000000E+00  0.00000000E+00
  0.00000000E+00  0.00000000E+00  0.00000000E+00
  0.00000000E+00  0.00000000E+00  0.00000000E+00
  0.00000000E+00  0.00000000E+00  0.00000000E+00
  0.00000000E+00  0.00000000E+00  0.00000000E+00
  0.00000000E+00  0.00000000E+00  0.00000000E+00
  0.00000000E+00  0.00000000E+00  0.00000000E+00
  0.00000000E+00  0.00000000E+00  0.00000000E+00
  0.00000000E+00  0.00000000E+00  0.00000000E+00
  0.00000000E+00  0.00000000E+00  0.00000000E+00
  0.00000000E+00  0.00000000E+00  0.00000000E+00
  0.00000000E+00  0.00000000E+00  0.00000000E+00
  0.00000000E+00  0.00000000E+00  0.00000000E+00
  0.00000000E+00  0.00000000E+00  0.00000000E+00
  0.00000000E+00  0.00000000E+00  0.00000000E+00
  0.00000000E+00  0.00000000E+00  0.00000000E+00
  0.00000000E+00  0.00000000E+00  0.00000000E+00
  0.00000000E+00  0.00000000E+00  0.00000000E+00
  0.00000000E+00  0.00000000E+00  0.00000000E+00
  0.00000000E+00  0.00000000E+00  0.00000000E+00
  0.00000000E+00  0.00000000E+00  0.00000000E+00
  0.00000000E+00  0.00000000E+00  0.00000000E+00
  0.00000000E+00  0.00000000E+00  0.00000000E+00
  0.00000000E+00  0.00000000E+00  0.00000000E+00
  0.00000000E+00  0.00000000E+00  0.00000000E+00
  0.00000000E+00  0.00000000E+00  0.00000000E+00
  0.00000000E+00  0.00000000E+00  0.00000000E+00
  0.00000000E+00  0.00000000E+00  0.00000000E+00
  0.00000000E+00  0.00000000E+00  0.00000000E+00
  0.00000000E+00  0.00000000E+00  0.00000000E+00
  0.00000000E+00  0.00000000E+00  0.00000000E+00
  0.00000000E+00  0.00000000E+00  0.00000000E+00
  0.00000000E+00  0.00000000E+00  0.00000000E+00
  0.00000000E+00  0.00000000E+00  0.00000000E+00
