Mo  S Cu                                
   1.00000000000000     
    15.9215000000000000    0.0000000000000000    0.0000000000000000
    -7.9622500000000000   13.7910219999999999    0.0000000000000000
     0.0000000000000000    0.0000000000000000   13.5822000000000003
   Mo   S    Cu
    25    49     1
Direct
  0.1334625309870674  0.0664862992241524  0.6781914273110630
  0.1349202297609224  0.2654934886149576  0.6775702834244299
  0.1338907156815381  0.4653518955716436  0.6788897504078477
  0.1327701697712911  0.6655172536608518  0.6798403036341512
  0.1326550356724638  0.8654187426698456  0.6795627696023843
  0.3320318992154796  0.0652458086010839  0.6797786125915266
  0.3298947695589192  0.2617694807168434  0.6752126104603704
  0.3317532713212543  0.4678246856087469  0.6745786996241634
  0.3322439512908986  0.6654105530846408  0.6798859557259149
  0.3326081551622124  0.8655439988136209  0.6803453046297179
  0.5326680799245409  0.0656625561636446  0.6805262933146423
  0.5317872965770576  0.2654976565207434  0.6802726222488573
  0.5305817283162639  0.4647242991625689  0.6793463193326517
  0.5321744703368765  0.6651883690994396  0.6800735241994715
  0.5327315810547191  0.8657731384855438  0.6804618497485180
  0.7330738665208543  0.0658703713530855  0.6808389404512525
  0.7328060659988580  0.2657032705043605  0.6808336856784578
  0.7321929035162782  0.4653486686539381  0.6802101469042157
  0.7321699041396030  0.6654142746112370  0.6800603413187289
  0.7327544804889357  0.8657352909718199  0.6805895108380113
  0.9337762936715208  0.0662679748451964  0.6806736079154661
  0.9339572676207197  0.2658223928949681  0.6809532341172400
  0.9327620953701938  0.4654547482200115  0.6801838523364125
  0.9324616049110332  0.6654162245612056  0.6796394478173866
  0.9325447006894620  0.8655490599668454  0.6797649610369518
  0.0657945810948490  0.1329444384368443  0.5631496186853369
  0.0700705119167750  0.1346363165734985  0.7944632472711319
  0.0663467693314246  0.3312799755330360  0.5639095123327564
  0.0706488532206393  0.3328310143015898  0.7942545015786067
  0.0659283542964957  0.5319982170881659  0.5648866337422831
  0.0665760146288861  0.5317447208112256  0.7944122273808887
  0.0659223603336798  0.7319465165447596  0.5645708708935473
  0.0658215378582696  0.7321070918967223  0.7946619635091423
  0.0656219438919479  0.9317212024243275  0.5643077642328720
  0.0663462431146726  0.9329310639090025  0.7939155562397318
  0.2661530055279968  0.1305990240095696  0.5614353168620525
  0.2646604181151844  0.1333073320754679  0.7944758098111322
  0.2666367518234694  0.3327086057659230  0.5632832412150961
  0.2659297577872337  0.5340936003162042  0.5617498740297435
  0.2656901244373060  0.5299155179002426  0.7945620260656057
  0.2661868977934603  0.7325843504651033  0.5649929562562050
  0.2657542191263786  0.7319182536867928  0.7953084790888667
  0.2661581609137258  0.9319058702643872  0.5648300830499764
  0.2655678941221140  0.9321834670217370  0.7951101297189140
  0.4660662606592822  0.1323518370033554  0.5654568078042246
  0.4654284436184497  0.1321476909321149  0.7952166732417396
  0.4657844157217923  0.3317870647990659  0.5633061144027067
  0.4606706237553269  0.3310656307199622  0.7934431477910380
  0.4667496479581246  0.5331892539454373  0.5628320381669667
  0.4615017801379722  0.5288875654577936  0.7937457530093965
  0.4660947985229242  0.7324763200578417  0.5654170672655852
  0.4657104265603635  0.7320744289498222  0.7951727155221562
  0.4661434073887136  0.9324442462202285  0.5653301013040135
  0.4659023385799728  0.9322876966143525  0.7955228607550353
  0.6663128608921625  0.1324858445077837  0.5657015702259045
  0.6660591391888673  0.1324270917747938  0.7957455666698579
  0.6655462618854600  0.3318109442330268  0.5655631673877934
  0.6653338273982357  0.3323544568752652  0.7955046598955988
  0.6651571814406978  0.5318081250991895  0.5653021421689459
  0.6645145426008909  0.5315711764169819  0.7945664179810450
  0.6657055418468119  0.7324841067171306  0.5653154947484751
  0.6655125740015677  0.7317901317572364  0.7953885959085625
  0.6662734592202924  0.9326487768929397  0.5655624900100094
  0.6660814235207013  0.9323209901169491  0.7956573794676061
  0.8666759789563230  0.1326960268669524  0.5660719369233504
  0.8666815535748924  0.1324784771177931  0.7959324099354319
  0.8663375878397801  0.3317764224525845  0.5657766874282117
  0.8667714882966777  0.3325668688070920  0.7956514225282945
  0.8655921489202569  0.5317294134776134  0.5649784356131136
  0.8659218355875353  0.5323177508835570  0.7949669105812021
  0.8654581373595676  0.7320250637999308  0.5647564346128746
  0.8658616058011717  0.7321023388648413  0.7947802601083040
  0.8660476821435736  0.9328315889084564  0.5653885655655060
  0.8666059566225357  0.9324805600866881  0.7953472748492700
  0.2691941092031840  0.3341988435876786  0.8121695808351745
 
  0.00000000E+00  0.00000000E+00  0.00000000E+00
  0.00000000E+00  0.00000000E+00  0.00000000E+00
  0.00000000E+00  0.00000000E+00  0.00000000E+00
  0.00000000E+00  0.00000000E+00  0.00000000E+00
  0.00000000E+00  0.00000000E+00  0.00000000E+00
  0.00000000E+00  0.00000000E+00  0.00000000E+00
  0.00000000E+00  0.00000000E+00  0.00000000E+00
  0.00000000E+00  0.00000000E+00  0.00000000E+00
  0.00000000E+00  0.00000000E+00  0.00000000E+00
  0.00000000E+00  0.00000000E+00  0.00000000E+00
  0.00000000E+00  0.00000000E+00  0.00000000E+00
  0.00000000E+00  0.00000000E+00  0.00000000E+00
  0.00000000E+00  0.00000000E+00  0.00000000E+00
  0.00000000E+00  0.00000000E+00  0.00000000E+00
  0.00000000E+00  0.00000000E+00  0.00000000E+00
  0.00000000E+00  0.00000000E+00  0.00000000E+00
  0.00000000E+00  0.00000000E+00  0.00000000E+00
  0.00000000E+00  0.00000000E+00  0.00000000E+00
  0.00000000E+00  0.00000000E+00  0.00000000E+00
  0.00000000E+00  0.00000000E+00  0.00000000E+00
  0.00000000E+00  0.00000000E+00  0.00000000E+00
  0.00000000E+00  0.00000000E+00  0.00000000E+00
  0.00000000E+00  0.00000000E+00  0.00000000E+00
  0.00000000E+00  0.00000000E+00  0.00000000E+00
  0.00000000E+00  0.00000000E+00  0.00000000E+00
  0.00000000E+00  0.00000000E+00  0.00000000E+00
  0.00000000E+00  0.00000000E+00  0.00000000E+00
  0.00000000E+00  0.00000000E+00  0.00000000E+00
  0.00000000E+00  0.00000000E+00  0.00000000E+00
  0.00000000E+00  0.00000000E+00  0.00000000E+00
  0.00000000E+00  0.00000000E+00  0.00000000E+00
  0.00000000E+00  0.00000000E+00  0.00000000E+00
  0.00000000E+00  0.00000000E+00  0.00000000E+00
  0.00000000E+00  0.00000000E+00  0.00000000E+00
  0.00000000E+00  0.00000000E+00  0.00000000E+00
  0.00000000E+00  0.00000000E+00  0.00000000E+00
  0.00000000E+00  0.00000000E+00  0.00000000E+00
  0.00000000E+00  0.00000000E+00  0.00000000E+00
  0.00000000E+00  0.00000000E+00  0.00000000E+00
  0.00000000E+00  0.00000000E+00  0.00000000E+00
  0.00000000E+00  0.00000000E+00  0.00000000E+00
  0.00000000E+00  0.00000000E+00  0.00000000E+00
  0.00000000E+00  0.00000000E+00  0.00000000E+00
  0.00000000E+00  0.00000000E+00  0.00000000E+00
  0.00000000E+00  0.00000000E+00  0.00000000E+00
  0.00000000E+00  0.00000000E+00  0.00000000E+00
  0.00000000E+00  0.00000000E+00  0.00000000E+00
  0.00000000E+00  0.00000000E+00  0.00000000E+00
  0.00000000E+00  0.00000000E+00  0.00000000E+00
  0.00000000E+00  0.00000000E+00  0.00000000E+00
  0.00000000E+00  0.00000000E+00  0.00000000E+00
  0.00000000E+00  0.00000000E+00  0.00000000E+00
  0.00000000E+00  0.00000000E+00  0.00000000E+00
  0.00000000E+00  0.00000000E+00  0.00000000E+00
  0.00000000E+00  0.00000000E+00  0.00000000E+00
  0.00000000E+00  0.00000000E+00  0.00000000E+00
  0.00000000E+00  0.00000000E+00  0.00000000E+00
  0.00000000E+00  0.00000000E+00  0.00000000E+00
  0.00000000E+00  0.00000000E+00  0.00000000E+00
  0.00000000E+00  0.00000000E+00  0.00000000E+00
  0.00000000E+00  0.00000000E+00  0.00000000E+00
  0.00000000E+00  0.00000000E+00  0.00000000E+00
  0.00000000E+00  0.00000000E+00  0.00000000E+00
  0.00000000E+00  0.00000000E+00  0.00000000E+00
  0.00000000E+00  0.00000000E+00  0.00000000E+00
  0.00000000E+00  0.00000000E+00  0.00000000E+00
  0.00000000E+00  0.00000000E+00  0.00000000E+00
  0.00000000E+00  0.00000000E+00  0.00000000E+00
  0.00000000E+00  0.00000000E+00  0.00000000E+00
  0.00000000E+00  0.00000000E+00  0.00000000E+00
  0.00000000E+00  0.00000000E+00  0.00000000E+00
  0.00000000E+00  0.00000000E+00  0.00000000E+00
  0.00000000E+00  0.00000000E+00  0.00000000E+00
  0.00000000E+00  0.00000000E+00  0.00000000E+00
  0.00000000E+00  0.00000000E+00  0.00000000E+00
