Ta  N  W Cu                             
   1.00000000000000     
    18.1096308199999996    0.0000000000000000    0.0000000000000000
     0.0000000000000000   23.3551997799999995    0.0000000000000000
     0.0000000000000000    0.0000000000000000   30.4818171199999988
   Ta   N    W    Cu
   216   240    24     4
Selective dynamics
Direct
  0.0000766847520000  0.9997440600000000  0.1971170800000000   F   F   F
  0.3282082200000000  0.0661493130000000  0.2034624100000000   F   F   F
  0.1687489800000000  0.0644107300000000  0.2017471800000000   F   F   F
  0.2514968700000000  0.1246561500000000  0.2816168300000000   F   F   F
  0.0830317830000000  0.0620883940000000  0.2840846100000000   F   F   F
  0.4173967600000000  0.0620109990000000  0.2840279500000000   F   F   F
  0.0001721497000000  0.1245750400000000  0.3697158100000000   F   F   F
  0.3333337600000000  0.0620921330000000  0.3693551600000000   F   F   F
  0.1672518700000000  0.0621615730000000  0.3691329900000000   F   F   F
  0.2489358618634064  0.1230248205181344  0.4541352662809502   T   T   T
  0.0789690529353543  0.0617422478075578  0.4571006943784492   T   T   T
  0.4201333876646030  0.0611071632118975  0.4560458976748570   T   T   T
  0.3393960725178479  0.0582559423785537  0.5430690797152944   T   T   T
  0.1665093918071191  0.0618029908822431  0.5443034577822043   T   T   T
  0.9997503900000000  0.1245588900000000  0.1959083700000000   F   F   F
  0.3281152200000000  0.1829426700000000  0.2031920800000000   F   F   F
  0.1686953100000000  0.1846612500000000  0.2015747300000000   F   F   F
  0.2504032100000000  0.2495376700000000  0.2807998700000000   F   F   F
  0.0832012570000000  0.1871875900000000  0.2838482100000000   F   F   F
  0.4175917600000000  0.1872737800000000  0.2838292200000000   F   F   F
  0.0001912875500000  0.2498113800000000  0.3694707300000000   F   F   F
  0.3333101100000000  0.1871088200000000  0.3691300000000000   F   F   F
  0.1672370900000000  0.1870606100000000  0.3689011000000000   F   F   F
  0.2496106962430522  0.2495069341047474  0.4542538511447797   T   T   T
  0.0825141227533890  0.1853217326649155  0.4553227049908163   T   T   T
  0.4198907209915845  0.1852638024928851  0.4545401804764662   T   T   T
  0.3436882237036449  0.1860225027449090  0.5431270361752153   T   T   T
  0.1724911353974109  0.1874638045075463  0.5431049947318344   T   T   T
  0.9999387199999999  0.2494802700000000  0.1968969600000000   F   F   F
  0.3280888200000000  0.3161426300000000  0.2030358200000000   F   F   F
  0.1687113700000000  0.3142436100000000  0.2012984700000000   F   F   F
  0.2516630900000000  0.3746667000000000  0.2810586200000000   F   F   F
  0.0830607530000000  0.3119723100000000  0.2835526600000000   F   F   F
  0.4173733200000000  0.3119204400000000  0.2835927300000000   F   F   F
  0.0002166718000000  0.3745492200000000  0.3690521300000000   F   F   F
  0.3335023900000000  0.3120280800000000  0.3688763900000000   F   F   F
  0.1672877900000000  0.3120805600000000  0.3684893700000000   F   F   F
  0.2514337121224422  0.3772815404317972  0.4536699326154843   T   T   T
  0.0853259266923443  0.3114566566143797  0.4550659318698956   T   T   T
  0.4195869111701682  0.3101092019371546  0.4577282256119120   T   T   T
  0.3329666037776936  0.3102366816851022  0.5437447542669119   T   T   T
  0.9996332800000000  0.3746194400000000  0.1955476700000000   F   F   F
  0.3279510400000000  0.4330217100000000  0.2028939900000000   F   F   F
  0.1686028300000000  0.4347556800000000  0.2011749200000000   F   F   F
  0.2503616700000000  0.9996973300000001  0.2811914200000000   F   F   F
  0.0832170550000000  0.4372231300000000  0.2833741400000000   F   F   F
  0.4175554800000000  0.4373222500000000  0.2833689800000000   F   F   F
  0.0002696286400000  0.9997830700000000  0.3699061800000000   F   F   F
  0.3334749500000000  0.4371576800000000  0.3685330500000000   F   F   F
  0.1671085000000000  0.4370896500000000  0.3681296900000000   F   F   F
  0.2455936059616890  0.9981070115457450  0.4552446641092415   T   T   T
  0.0822206737373773  0.4360341765008601  0.4533693538509148   T   T   T
  0.4115696237114281  0.4381841493835931  0.4543593621977376   T   T   T
  0.3357672031107139  0.4345899645524070  0.5421410862986564   T   T   T
  0.9999215200000000  0.4996756600000000  0.1965569400000000   F   F   F
  0.3280454600000000  0.5663879000000001  0.2028733200000000   F   F   F
  0.1686572100000000  0.5646004400000000  0.2011556500000000   F   F   F
  0.2516900800000000  0.6247626300000000  0.2810374800000000   F   F   F
  0.0831129040000000  0.5621793300000000  0.2833930500000000   F   F   F
  0.4173993300000000  0.5620827400000000  0.2833951700000000   F   F   F
  0.0002538720900000  0.6245740900000000  0.3690617000000000   F   F   F
  0.3336284000000000  0.5621944900000000  0.3686071200000000   F   F   F
  0.1672697400000000  0.5622539500000000  0.3682441100000000   F   F   F
  0.2540189123978590  0.6218064792398700  0.4555607271998637   T   T   T
  0.0882161339445324  0.5608992710033285  0.4531033787658720   T   T   T
  0.4158836902187027  0.5620323721673054  0.4538412234032673   T   T   T
  0.3318758781020831  0.5605713899050583  0.5405570697695250   T   T   T
  0.9997206700000000  0.6247074600000000  0.1955495000000000   F   F   F
  0.3279851900000000  0.6833159100000000  0.2030292300000000   F   F   F
  0.1686837000000000  0.6851186700000000  0.2013717500000000   F   F   F
  0.2504094800000000  0.7498450400000000  0.2808670400000000   F   F   F
  0.0833087840000000  0.6874217700000000  0.2836191800000000   F   F   F
  0.4175417000000000  0.6875029200000000  0.2835473600000000   F   F   F
  0.0002831817900000  0.7497262099999999  0.3694750300000000   F   F   F
  0.3335232100000000  0.6872852300000000  0.3689035000000000   F   F   F
  0.1672733100000000  0.6872300400000000  0.3685485100000000   F   F   F
  0.2556577385040810  0.7450299937468677  0.4539390066156001   T   T   T
  0.0888073307255890  0.6873900915345682  0.4548513189358683   T   T   T
  0.4222618417828702  0.6847551934885172  0.4579174089158308   T   T   T
  0.3398580333818331  0.6862446530137989  0.5426139404840568   T   T   T
  0.0001000661600000  0.7498493100000000  0.1968659200000000   F   F   F
  0.3281842700000000  0.8164706600000000  0.2032415700000000   F   F   F
  0.1687769900000000  0.8147234300000000  0.2015294700000000   F   F   F
  0.2515826500000000  0.8747693100000000  0.2816129100000000   F   F   F
  0.0831380770000000  0.8122393800000000  0.2838518800000000   F   F   F
  0.4173584600000000  0.8121307300000000  0.2838569100000000   F   F   F
  0.0002646232200000  0.8745140900000000  0.3697578400000000   F   F   F
  0.3334506600000000  0.8121806400000000  0.3692040300000000   F   F   F
  0.1673862700000000  0.8122370000000000  0.3689439600000000   F   F   F
  0.2539731873891519  0.8710662314365802  0.4575882226176397   T   T   T
  0.0863053049981223  0.8108212907686890  0.4549412780200833   T   T   T
  0.4237316581910526  0.8098618648368334  0.4536289846207915   T   T   T
  0.3354367642584429  0.8082183628132786  0.5404476359930993   T   T   T
  0.1666834026648589  0.8085828678991011  0.5431275470836334   T   T   T
  0.9998187700000000  0.8748270200000000  0.1959031000000000   F   F   F
  0.3281686100000000  0.9332167000000000  0.2033598000000000   F   F   F
  0.1687294500000000  0.9349316300000000  0.2017724400000000   F   F   F
  0.2504747400000000  0.4996779200000000  0.2803986300000000   F   F   F
  0.0832570700000000  0.9373302999999999  0.2840318100000000   F   F   F
  0.4175723000000000  0.9374059800000000  0.2840688100000000   F   F   F
  0.0002485890400000  0.4997367400000000  0.3689303900000000   F   F   F
  0.3333791400000000  0.9372080600000000  0.3694170100000000   F   F   F
  0.1673248200000000  0.9371628800000000  0.3691130300000000   F   F   F
  0.2545653420193750  0.5004201284293698  0.4535090492788884   T   T   T
  0.0853284953355214  0.9340877263171364  0.4556182193235315   T   T   T
  0.4206925881769712  0.9370795424585215  0.4531974561021689   T   T   T
  0.3475209902643291  0.9339606697128622  0.5401218448109733   T   T   T
  0.1680336847255642  0.9348390287993691  0.5418353968053433   T   T   T
  0.4999159200000000  0.9996676500000000  0.1971874900000000   F   F   F
  0.8280925900000000  0.0662255570000000  0.2033489100000000   F   F   F
  0.6685087300000000  0.0644766890000000  0.2018564000000000   F   F   F
  0.7514427800000000  0.1246762700000000  0.2816154200000000   F   F   F
  0.5831328099999999  0.0621151400000000  0.2841262000000000   F   F   F
  0.9175793000000000  0.0620076250000000  0.2839488000000000   F   F   F
  0.5002650400000000  0.1248743700000000  0.3698426400000000   F   F   F
  0.8332824000000000  0.0620909900000000  0.3692713900000000   F   F   F
  0.6672758800000000  0.0621578670000000  0.3691362100000000   F   F   F
  0.7523390983368605  0.1280376987031235  0.4566522550295102   T   T   T
  0.5852143062706036  0.0591868541723165  0.4546331108416147   T   T   T
  0.9112402076724195  0.0619550120519079  0.4549286116920573   T   T   T
  0.8348012785297497  0.0642088908966426  0.5433077155826905   T   T   T
  0.6715323893501027  0.0589872636633183  0.5420809663820949   T   T   T
  0.4996489600000000  0.1246046000000000  0.1959884600000000   F   F   F
  0.8281051699999999  0.1830052500000000  0.2032440700000000   F   F   F
  0.6686174800000000  0.1847983300000000  0.2016529900000000   F   F   F
  0.7502830400000000  0.2496016800000000  0.2808413700000000   F   F   F
  0.5829665200000000  0.1872364400000000  0.2839555400000000   F   F   F
  0.9173793800000000  0.1872992500000000  0.2837405300000000   F   F   F
  0.5002409900000000  0.2496898000000000  0.3696265600000000   F   F   F
  0.8333402300000000  0.1870852500000000  0.3690331300000000   F   F   F
  0.6672904200000001  0.1871004600000000  0.3689868600000000   F   F   F
  0.7483596931664495  0.2510899334206353  0.4558709416921777   T   T   T
  0.5843804987318258  0.1854461302377431  0.4552398188602745   T   T   T
  0.9180744539415414  0.1877635581909175  0.4553836526482979   T   T   T
  0.8329585047370333  0.1854312566611611  0.5450241992399250   T   T   T
  0.6664017776326824  0.1836289558930860  0.5468329225687885   T   T   T
  0.4999299300000000  0.2495160700000000  0.1969657100000000   F   F   F
  0.8279280300000000  0.3161742900000000  0.2030145800000000   F   F   F
  0.6684042600000000  0.3143647100000000  0.2014978700000000   F   F   F
  0.7515443800000000  0.3746836100000000  0.2812431600000000   F   F   F
  0.5831184000000000  0.3120211400000000  0.2838005700000000   F   F   F
  0.9176046400000000  0.3119238000000000  0.2834657900000000   F   F   F
  0.5002559700000000  0.3747836300000000  0.3693211700000000   F   F   F
  0.8333436200000000  0.3119758700000000  0.3687706800000000   F   F   F
  0.6672203700000000  0.3120793600000000  0.3686552300000000   F   F   F
  0.7498167894878077  0.3736250303564130  0.4545784984523665   T   T   T
  0.5859158641611634  0.3095891491662546  0.4537874129803997   T   T   T
  0.9153236289936315  0.3083789838221379  0.4558421902739475   T   T   T
  0.8341548157307397  0.3127916357425624  0.5413991662047675   T   T   T
  0.4995955100000000  0.3746315000000000  0.1956545800000000   F   F   F
  0.8279811000000000  0.4330636800000000  0.2029415500000000   F   F   F
  0.6685204600000000  0.4348147400000000  0.2013868300000000   F   F   F
  0.7502687900000000  0.9997108400000000  0.2810962600000000   F   F   F
  0.5829135700000000  0.4372254300000000  0.2836029800000000   F   F   F
  0.9174643900000000  0.4373345400000000  0.2833418300000000   F   F   F
  0.5003113500000000  0.9995848000000001  0.3700038800000000   F   F   F
  0.8335730400000000  0.4371113100000000  0.3684794700000000   F   F   F
  0.6674493700000000  0.4370500000000000  0.3683667400000000   F   F   F
  0.7512531288877806  0.0036776641755264  0.4548806743240204   T   T   T
  0.5792203292936766  0.4376380167418061  0.4543235304560654   T   T   T
  0.9192911037245181  0.4355032510003022  0.4553251169151639   T   T   T
  0.8439541328741514  0.4372308205157053  0.5429601478208351   T   T   T
  0.4998690600000000  0.4996646800000000  0.1966909600000000   F   F   F
  0.8278627100000000  0.5663573500000000  0.2028672800000000   F   F   F
  0.6684746300000000  0.5645368600000000  0.2013536700000000   F   F   F
  0.7515546800000000  0.6246980800000000  0.2810979400000000   F   F   F
  0.5830481000000000  0.5621337900000000  0.2835809000000000   F   F   F
  0.9177019300000000  0.5620731300000000  0.2832995000000000   F   F   F
  0.5001562200000000  0.6247656800000000  0.3692676400000000   F   F   F
  0.8333842200000000  0.5621549800000000  0.3684583700000000   F   F   F
  0.6672382500000000  0.5621930500000000  0.3682887600000000   F   F   F
  0.7567610514970040  0.6251428716911759  0.4536533890705686   T   T   T
  0.5851181280872855  0.5638817182341319  0.4510102027986429   T   T   T
  0.9196297300459331  0.5599169501158527  0.4542134058784015   T   T   T
  0.8378949883888359  0.5618830738909889  0.5413186459060433   T   T   T
  0.4995850100000000  0.6247169200000000  0.1956404900000000   F   F   F
  0.8280419400000000  0.6832828500000000  0.2030349100000000   F   F   F
  0.6686619100000000  0.6849909400000000  0.2014634000000000   F   F   F
  0.7503161600000000  0.7497720500000000  0.2808462200000000   F   F   F
  0.5829561400000000  0.6873886200000000  0.2836677200000000   F   F   F
  0.9174856700000000  0.6874690900000000  0.2834586900000000   F   F   F
  0.5001691300000000  0.7494686000000000  0.3696431200000000   F   F   F
  0.8334827900000000  0.6872937700000000  0.3686208300000000   F   F   F
  0.6673270100000001  0.6872178500000000  0.3684916400000000   F   F   F
  0.7568388418761026  0.7516770899663872  0.4543673545652103   T   T   T
  0.5904070995619568  0.6884022858530799  0.4533911673834837   T   T   T
  0.9174960329072892  0.6816746420003820  0.4525506681880267   T   T   T
  0.8438589211490733  0.6883502535597921  0.5419223033230602   T   T   T
  0.4998665300000000  0.7498106200000000  0.1969619900000000   F   F   F
  0.8279731500000000  0.8164389200000000  0.2032613400000000   F   F   F
  0.6684914300000000  0.8146790600000000  0.2017169200000000   F   F   F
  0.7514803400000000  0.8747776400000000  0.2816286800000000   F   F   F
  0.5830937100000000  0.8121892200000000  0.2839421800000000   F   F   F
  0.9177178900000000  0.8121345700000000  0.2836987000000000   F   F   F
  0.5002392300000000  0.8747451600000000  0.3698443200000000   F   F   F
  0.8333287100000000  0.8122083000000000  0.3689912000000000   F   F   F
  0.6671946800000000  0.8122274200000000  0.3689408900000000   F   F   F
  0.7525677826383351  0.8724216746826549  0.4548536420727801   T   T   T
  0.5879082301185857  0.8103918855603920  0.4544465922113921   T   T   T
  0.9199306757225322  0.8108080024404583  0.4544257481295602   T   T   T
  0.8356576521758738  0.8083884283321183  0.5436076062373991   T   T   T
  0.6698988865189699  0.8062838923687730  0.5392671619044708   T   T   T
  0.4996032500000000  0.8748958300000000  0.1959866800000000   F   F   F
  0.8280636099999999  0.9332142600000000  0.2035025400000000   F   F   F
  0.6685249599999999  0.9349563100000000  0.2017942500000000   F   F   F
  0.7503656900000000  0.4996102400000000  0.2805521900000000   F   F   F
  0.5829518200000000  0.9373143600000000  0.2841501100000000   F   F   F
  0.9175007500000000  0.9373989000000000  0.2839272800000000   F   F   F
  0.5002697500000000  0.4995768200000000  0.3691908200000000   F   F   F
  0.8333298099999999  0.9372103100000000  0.3692398300000000   F   F   F
  0.6672510400000000  0.9371497900000000  0.3691553000000000   F   F   F
  0.7523596099852582  0.5005664752074832  0.4556274729497791   T   T   T
  0.5918807251234951  0.9332590201586419  0.4540411260076701   T   T   T
  0.9195548289668116  0.9364790288874761  0.4523199778008112   T   T   T
  0.8431239648041452  0.9379429720541634  0.5451268245032813   T   T   T
  0.6694887391210602  0.9345608588112042  0.5433857713689166   T   T   T
  0.4048009900000000  0.9996846100000000  0.2318992500000000   F   F   F
  0.2491474500000000  0.9996813500000000  0.2108554200000000   F   F   F
  0.0941139420000000  0.9997234500000000  0.2322571800000000   F   F   F
  0.1532537300000000  0.1246091800000000  0.3167412800000000   F   F   F
  0.0003682024800000  0.1247454700000000  0.3026100600000000   F   F   F
  0.3477996500000000  0.1246592900000000  0.3172549100000000   F   F   F
  0.4019308800000000  0.1247855700000000  0.4031750500000000   F   F   F
  0.2502221600000000  0.1246514900000000  0.3881174600000000   F   F   F
  0.0985618200000000  0.1246866500000000  0.4029992000000000   F   F   F
  0.1477464473052276  0.1214443996253002  0.4858448974304745   T   T   T
  0.9973550456762140  0.1271495767658065  0.4737114893706916   T   T   T
  0.3523358456529764  0.1233138533837936  0.4891293047463462   T   T   T
  0.4105519360008470  0.1195360314087974  0.5739759834322079   T   T   T
  0.2477910201362602  0.1194298932217895  0.5557961660184189   T   T   T
  0.0960066951818792  0.1278500545677047  0.5692819666672202   T   T   T
  0.4061766800000000  0.1245990200000000  0.2325953200000000   F   F   F
  0.2473388500000000  0.1244783300000000  0.1775307500000000   F   F   F
  0.0947346620000000  0.1245509200000000  0.2321473500000000   F   F   F
  0.1533697800000000  0.2495824700000000  0.3163253500000000   F   F   F
  0.0002683690400000  0.2495727500000000  0.3025448300000000   F   F   F
  0.3473424000000000  0.2495538700000000  0.3166637800000000   F   F   F
  0.4017977800000000  0.2497204900000000  0.4029545400000000   F   F   F
  0.2502156300000000  0.2496046900000000  0.3876701200000000   F   F   F
  0.0987605030000000  0.2497502800000000  0.4026214400000000   F   F   F
  0.1581107143199676  0.2475729165204974  0.4869260896427572   T   T   T
  0.0038762235773626  0.2498428141604749  0.4758499373286013   T   T   T
  0.3482897972925110  0.2464885997325260  0.4850784265774054   T   T   T
  0.4105309981776913  0.2478873402201654  0.5669871056490284   T   T   T
  0.2600696184510630  0.2459616806066613  0.5603316761022826   T   T   T
  0.1040395563812304  0.2558301437866805  0.5708198130103522   T   T   T
  0.4047482300000000  0.2495546900000000  0.2315574700000000   F   F   F
  0.2491291000000000  0.2495080000000000  0.2104354400000000   F   F   F
  0.0940874830000000  0.2494765100000000  0.2318939800000000   F   F   F
  0.1532702400000000  0.3745268500000000  0.3160632700000000   F   F   F
  0.0004289171900000  0.3746826600000000  0.3020675000000000   F   F   F
  0.3479032800000000  0.3746121900000000  0.3167067700000000   F   F   F
  0.4018872600000000  0.3748235100000000  0.4027114100000000   F   F   F
  0.2502887400000000  0.3746722300000000  0.3870671400000000   F   F   F
  0.0986394470000000  0.3746996400000000  0.4022704100000000   F   F   F
  0.1564131998997582  0.3748483503464151  0.4863485633618356   T   T   T
  0.0017517756383462  0.3695374815432571  0.4755033266321718   T   T   T
  0.3500977832811438  0.3718069828069325  0.4901654659359534   T   T   T
  0.4058257697279773  0.3701629198466131  0.5758642614305071   T   T   T
  0.2479452797568279  0.3703971821575248  0.5597934854110076   T   T   T
  0.1024352016264782  0.3749446308044832  0.5736053234502323   T   T   T
  0.4061613300000000  0.3745875700000000  0.2321475900000000   F   F   F
  0.2471474100000000  0.3744716700000000  0.1772295100000000   F   F   F
  0.0947947360000000  0.3745095600000000  0.2316341900000000   F   F   F
  0.1534002400000000  0.9997096000000000  0.3167633900000000   F   F   F
  0.0003063958200000  0.9996404400000000  0.3029177200000000   F   F   F
  0.3472922500000000  0.9996564800000000  0.3170556800000000   F   F   F
  0.4018991600000000  0.9996470200000001  0.4032848300000000   F   F   F
  0.2502171600000000  0.9996707100000000  0.3882306400000000   F   F   F
  0.0987724390000000  0.9996911500000000  0.4031056800000000   F   F   F
  0.1507421363039690  0.9992282324551788  0.4905439181100721   T   T   T
  0.9953096955518472  0.9970460646430934  0.4752210816641638   T   T   T
  0.3516040370875874  0.9993914021739998  0.4859091524657366   T   T   T
  0.4162862347794168  0.0007248163801343  0.5689224750981587   T   T   T
  0.2505538530041250  0.9970314788613697  0.5578293083042991   T   T   T
  0.0930143567925768  0.0010109469639619  0.5734142167960729   T   T   T
  0.4047262100000000  0.4997071800000000  0.2312293400000000   F   F   F
  0.2490302700000000  0.4997012100000000  0.2100647800000000   F   F   F
  0.0940873680000000  0.4997207900000000  0.2315438200000000   F   F   F
  0.1533942300000000  0.6247533000000000  0.3161202500000000   F   F   F
  0.0004648133700000  0.6248124500000000  0.3020687000000000   F   F   F
  0.3479070300000000  0.6248342700000000  0.3167469200000000   F   F   F
  0.4019034100000000  0.6246333500000000  0.4028584700000000   F   F   F
  0.2504004000000000  0.6247519100000000  0.3872206300000000   F   F   F
  0.0986972460000000  0.6246240300000000  0.4022847900000000   F   F   F
  0.1509495668383403  0.6206481844300925  0.4879375242637522   T   T   T
  0.0018152321115829  0.6217069956416089  0.4733668845164207   T   T   T
  0.3580777170504561  0.6242519011728922  0.4899501691955322   T   T   T
  0.4170600923205730  0.6195543032597821  0.5693542384675332   T   T   T
  0.2553169258782514  0.6237955446231991  0.5600858339819171   T   T   T
  0.1043132035097714  0.6208728627129180  0.5712866993585065   T   T   T
  0.4061395700000000  0.6248268800000000  0.2321392800000000   F   F   F
  0.2472071000000000  0.6248847199999999  0.1772849500000000   F   F   F
  0.0948031790000000  0.6248309600000000  0.2316724500000000   F   F   F
  0.1534281300000000  0.7498436500000000  0.3163794000000000   F   F   F
  0.0003744630600000  0.7497213700000001  0.3025385700000000   F   F   F
  0.3473660900000000  0.7497480900000000  0.3167201300000000   F   F   F
  0.4018595400000000  0.7494636800000000  0.4030598600000000   F   F   F
  0.2503075000000000  0.7496492800000000  0.3877726000000000   F   F   F
  0.0988196580000000  0.7496032800000000  0.4027020900000000   F   F   F
  0.1546948033534808  0.7441465336393335  0.4860219397646691   T   T   T
  0.0014544928260589  0.7474426670570610  0.4752991351503856   T   T   T
  0.3562190672289203  0.7506696189858855  0.4875096162312071   T   T   T
  0.4070598526466453  0.7462282379906224  0.5685586343961754   T   T   T
  0.2514008858062147  0.7439909651350198  0.5609400462175287   T   T   T
  0.1027473262071059  0.7406586679934912  0.5685912262109377   T   T   T
  0.4046918900000000  0.7498766900000000  0.2315615300000000   F   F   F
  0.2490977300000000  0.7498965600000000  0.2105289600000000   F   F   F
  0.0941425810000000  0.7499244900000001  0.2319268200000000   F   F   F
  0.1534043900000000  0.8747080900000000  0.3167478700000000   F   F   F
  0.0005063259100000  0.8747913300000000  0.3026377300000000   F   F   F
  0.3478516700000000  0.8747596800000000  0.3172996800000000   F   F   F
  0.4019732400000000  0.8746227800000000  0.4032609400000000   F   F   F
  0.2503024300000000  0.8746316200000001  0.3881454800000000   F   F   F
  0.0986860090000000  0.8745447300000000  0.4029789500000000   F   F   F
  0.1499946051443390  0.8716314313512203  0.4859193202570546   T   T   T
  0.9981964124797945  0.8710429229440259  0.4752562047018687   T   T   T
  0.3497134109998560  0.8744195497629342  0.4878354605518809   T   T   T
  0.4110751974267340  0.8692815839030077  0.5700050233707118   T   T   T
  0.2524492903676764  0.8778949268332075  0.5509014914769321   T   T   T
  0.0980457774634649  0.8684048281881979  0.5714901231493769   T   T   T
  0.4061447200000000  0.8748445500000001  0.2326298600000000   F   F   F
  0.2473242700000000  0.8748849600000000  0.1774319500000000   F   F   F
  0.0948074010000000  0.8748256100000000  0.2321377000000000   F   F   F
  0.1533587900000000  0.4997348800000000  0.3158493600000000   F   F   F
  0.0003182984300000  0.4996280600000000  0.3021175000000000   F   F   F
  0.3473604800000000  0.4996867600000000  0.3162605900000000   F   F   F
  0.4018047600000000  0.4996420900000000  0.4025191200000000   F   F   F
  0.2502215500000000  0.4996416600000000  0.3867269900000000   F   F   F
  0.0987516630000000  0.4996495600000000  0.4021140000000000   F   F   F
  0.1532284430710122  0.4935790197415530  0.4881333543226937   T   T   T
  0.0000746387327846  0.4968113843497851  0.4781142427305424   T   T   T
  0.3515942685639074  0.4965889817706865  0.4874803144961894   T   T   T
  0.4069785089627054  0.5034162826591395  0.5704074249841379   T   T   T
  0.2505307818299473  0.4962798614636379  0.5572333285153420   T   T   T
  0.1029262285081935  0.4978909588459740  0.5679697613562401   T   T   T
  0.9048864599999999  0.9997170800000000  0.2317814000000000   F   F   F
  0.7490068200000000  0.9997210500000000  0.2106651400000000   F   F   F
  0.5939286800000000  0.9997093400000000  0.2323422000000000   F   F   F
  0.6532445700000000  0.1247063000000000  0.3167953300000000   F   F   F
  0.5003594900000000  0.1246450500000000  0.3027346600000000   F   F   F
  0.8478274300000000  0.1245959600000000  0.3171629200000000   F   F   F
  0.9018552800000000  0.1246666200000000  0.4030838900000000   F   F   F
  0.7502236799999999  0.1246639500000000  0.3880818900000000   F   F   F
  0.5986731900000000  0.1247667900000000  0.4030694200000000   F   F   F
  0.6507187533325854  0.1240198501299057  0.4897854581300586   T   T   T
  0.4998786708470944  0.1191719476424255  0.4765705287250588   T   T   T
  0.8464436197173871  0.1292801578379066  0.4905588776756941   T   T   T
  0.9094251144163643  0.1230351401232637  0.5722270844771139   T   T   T
  0.7533277045578075  0.1259425409013623  0.5642227950363284   T   T   T
  0.6018307983462957  0.1183359076592097  0.5709485891875025   T   T   T
  0.9062455200000000  0.1245994400000000  0.2324940400000000   F   F   F
  0.7470943900000000  0.1245794800000000  0.1777042200000000   F   F   F
  0.5946120600000000  0.1246648300000000  0.2322269300000000   F   F   F
  0.6532790000000001  0.2495748200000000  0.3164528600000000   F   F   F
  0.5002067700000000  0.2496979900000000  0.3026998700000000   F   F   F
  0.8473114800000000  0.2496211600000000  0.3165801800000000   F   F   F
  0.9017550500000000  0.2497046800000000  0.4028020000000000   F   F   F
  0.7501858100000000  0.2496114900000000  0.3876912300000000   F   F   F
  0.5987765900000001  0.2497763300000000  0.4028851900000000   F   F   F
  0.6516941255050057  0.2445647386975718  0.4901992907851578   T   T   T
  0.5039889595833088  0.2483715059372329  0.4721054510170870   T   T   T
  0.8478453568956461  0.2471384058424906  0.4896516246408286   T   T   T
  0.9066051749042899  0.2476700539215419  0.5677333465207148   T   T   T
  0.7543767117578271  0.2527534220466318  0.5638181020451758   T   T   T
  0.5992004551431062  0.2498967271599296  0.5712469570489171   T   T   T
  0.9047068500000000  0.2495868000000000  0.2314506600000000   F   F   F
  0.7490107900000000  0.2496183300000000  0.2104795200000000   F   F   F
  0.5939593200000000  0.2495682200000000  0.2320674600000000   F   F   F
  0.6531818500000000  0.3746407000000000  0.3163069600000000   F   F   F
  0.5002768800000000  0.3746095700000000  0.3023080900000000   F   F   F
  0.8480001700000001  0.3744990500000000  0.3166533400000000   F   F   F
  0.9018420400000000  0.3744914300000000  0.4024871500000000   F   F   F
  0.7502927400000000  0.3745827100000000  0.3872669700000000   F   F   F
  0.5987385400000000  0.3747764200000000  0.4026088700000000   F   F   F
  0.6480335644899621  0.3708108826232570  0.4861174108197843   T   T   T
  0.4979277644900250  0.3730749545675024  0.4765680390541372   T   T   T
  0.8444783927002213  0.3740368569893784  0.4880777390164653   T   T   T
  0.9046103122811542  0.3720594877025843  0.5679545747826317   T   T   T
  0.7503763551417341  0.3707906796181025  0.5552700152731039   T   T   T
  0.5965898567537882  0.3704130726165716  0.5685810798582231   T   T   T
  0.9062094000000001  0.3745928500000000  0.2320655600000000   F   F   F
  0.7469998300000000  0.3745623200000000  0.1775324700000000   F   F   F
  0.5945593700000000  0.3746107500000000  0.2318689200000000   F   F   F
  0.6533649900000000  0.9996571800000000  0.3167764000000000   F   F   F
  0.5002408100000000  0.9997913800000000  0.3030234800000000   F   F   F
  0.8472559100000000  0.9997045600000000  0.3169130900000000   F   F   F
  0.9018127800000000  0.9996995300000000  0.4031575300000000   F   F   F
  0.7502022200000000  0.9996473800000000  0.3881676400000000   F   F   F
  0.5988108000000000  0.9996143700000000  0.4031892200000000   F   F   F
  0.6559750813993539  0.9952047000264507  0.4874401206912176   T   T   T
  0.5039133730347590  0.0016748568755435  0.4727089991022365   T   T   T
  0.8468151072566946  0.0003900013316955  0.4906541236162326   T   T   T
  0.9062519426763768  0.9976248259691505  0.5772654060732050   T   T   T
  0.7568996085709180  0.0008026605168931  0.5641026268357749   T   T   T
  0.6002746125134938  0.9926291931810151  0.5691828024729345   T   T   T
  0.9047766300000000  0.4997098300000000  0.2311253200000000   F   F   F
  0.7489709500000000  0.4996599000000000  0.2102609100000000   F   F   F
  0.5939355800000000  0.4996613100000000  0.2317724000000000   F   F   F
  0.6531882700000000  0.6247345100000000  0.3161869400000000   F   F   F
  0.5002871300000000  0.6247170100000000  0.3022543000000000   F   F   F
  0.8479723200000000  0.6247101100000000  0.3165578700000000   F   F   F
  0.9018734700000000  0.6245811700000000  0.4024122600000000   F   F   F
  0.7503176800000000  0.6247419600000000  0.3870006200000000   F   F   F
  0.5986947700000000  0.6246049500000000  0.4024338200000000   F   F   F
  0.6597950507486212  0.6237285955860612  0.4895818434877487   T   T   T