Mo  S Cu                                
   1.00000000000000     
    15.9214998300000001    0.0000000000000000    0.0000000000000000
    -7.9622501300000001   13.7910221699999997    0.0000000000000000
     0.0000000000000000    0.0000000000000000   13.5821998300000004
   Mo   S    Cu
    25    49     4
Direct
  0.1330017572940025  0.0676128873030409  0.6751862381205218
  0.1329559020676690  0.2670413888700058  0.6736608034540243
  0.1310097652482228  0.4644565115847372  0.6772182765705052
  0.1327385849856045  0.6658430965600532  0.6767753381553072
  0.1327196582514748  0.8664050030750047  0.6753062985307030
  0.3329499298443195  0.0666077812250581  0.6759873564992237
  0.3345403589223060  0.2685002917387435  0.6766313762725881
  0.3300826392705838  0.4607596965081697  0.6855153703807986
  0.3334983277697472  0.6656872600661892  0.6813894029328017
  0.3329010689462244  0.8660110821689171  0.6762393613335586
  0.5333552291256750  0.0665539010687553  0.6754089868349805
  0.5339618339686060  0.2644681657984865  0.6772676635942894
  0.5281268404043925  0.4601620359263644  0.6861267938650861
  0.5355051461408770  0.6691076624408467  0.6792941236755669
  0.5345615049709193  0.8691288913511527  0.6757127773250160
  0.7342288814372259  0.0677122599126889  0.6750999468871549
  0.7339737252701726  0.2662325574150347  0.6772839343383162
  0.7337322235527826  0.4652052410992283  0.6792812530498318
  0.7332670493118812  0.6687759250042190  0.6784431510743777
  0.7345965125980727  0.8690070296335061  0.6768202321036428
  0.9344690614397615  0.0676915849045076  0.6753438507332343
  0.9336930346425885  0.2666798384163080  0.6760729186081731
  0.9327036366590518  0.4661782904179642  0.6767423036092722
  0.9324060146588076  0.6660974566127768  0.6766267377696578
  0.9332088824266219  0.8668928336519439  0.6754480401661511
  0.0672241151561382  0.1344726395542214  0.5595217551054530
  0.0700002169537613  0.1366910511215761  0.7902016811652863
  0.0664705516836029  0.3333374395523243  0.5604052867935243
  0.0679195653047185  0.3315819363162399  0.7914334653861298
  0.0662391887517559  0.5324505911225411  0.5619688011813857
  0.0652540397508875  0.5326965099819156  0.7913078054866569
  0.0658403354218595  0.7321993216709877  0.5615710442028823
  0.0663005110814966  0.7335371776965153  0.7905337878417702
  0.0664683582825392  0.9336936563044660  0.5605573862452677
  0.0666439808969602  0.9338498013191814  0.7896034597276115
  0.2677716225896419  0.1359707236561101  0.5615227565310565
  0.2649432033679344  0.1346953906509512  0.7901758206365791
  0.2684691771906902  0.3354125404358609  0.5661520234625966
  0.2693402502749003  0.5307141768794901  0.5684548602203565
  0.2591571613716332  0.5252247451316808  0.7977150410625929
  0.2674374479427026  0.7306128018912168  0.5638483960366247
  0.2654606780232477  0.7333452691847612  0.7925555019764884
  0.2664828881584552  0.9330601644042524  0.5611768551360017
  0.2656250880857168  0.9329814787294624  0.7902794996332091
  0.4661405387775531  0.1332236016561774  0.5613043786832377
  0.4654222701865313  0.1302890833926918  0.7912836980510642
  0.4678903093578569  0.3342506491883142  0.5653891289062160
  0.4639893500330514  0.3242227269946289  0.7971941469054983
  0.4648051568976899  0.5304116389001104  0.5743362537657519
  0.4467192605999927  0.5097071169723946  0.8277936577520947
  0.4661861698679630  0.7315936623293734  0.5654944613665098
  0.4709577719957799  0.7394837013363003  0.7939548929918157
  0.4661774413113526  0.9331624529377370  0.5605985512543407
  0.4665605873555562  0.9342708254709549  0.7903014051170437
  0.6672576522799730  0.1344681558734910  0.5609592059564181
  0.6667032794808301  0.1324639849222253  0.7905575385646612
  0.6671377944240231  0.3335097844875473  0.5636892897799699
  0.6665167465408653  0.3315026344716910  0.7955209046169601
  0.6619399142260629  0.5310521074454702  0.5697218307113985
  0.6703895298782853  0.5326424815515851  0.7987983144634763
  0.6659926386615747  0.7334076613923556  0.5644443091214169
  0.6690218512711293  0.7375169730423907  0.7963786488428923
  0.6674365663346213  0.9340942648686908  0.5606301513930273
  0.6682447237194897  0.9364821834561600  0.7902274483825188
  0.8676793803234382  0.1341801229010229  0.5606205243334297
  0.8672765710923606  0.1335098542496221  0.7901077039736761
  0.8663081101011505  0.3330091363393851  0.5618074014952624
  0.8675884539327926  0.3329212941983706  0.7915927572284862
  0.8645722140735044  0.5321244541708526  0.5626113054081984
  0.8680891049726830  0.5336975028351498  0.7923356643069732
  0.8642007744958888  0.7320209124949008  0.5621183506774687
  0.8678624052034044  0.7346875658026268  0.7913001955638717
  0.8665971509816556  0.9339784354941461  0.5608613101803568
  0.8687689455389568  0.9354577775921751  0.7904566062787641
  0.3824218413379414  0.3668709740240436  0.8988508053554930
  0.5906851910621846  0.4026360176745664  0.9025878818920717
  0.5954820976423487  0.5988504388584871  0.8835664803736976
  0.3983065598157844  0.6090651764271424  0.8830252663007478
 
  0.00000000E+00  0.00000000E+00  0.00000000E+00
  0.00000000E+00  0.00000000E+00  0.00000000E+00
  0.00000000E+00  0.00000000E+00  0.00000000E+00
  0.00000000E+00  0.00000000E+00  0.00000000E+00
  0.00000000E+00  0.00000000E+00  0.00000000E+00
  0.00000000E+00  0.00000000E+00  0.00000000E+00
  0.00000000E+00  0.00000000E+00  0.00000000E+00
  0.00000000E+00  0.00000000E+00  0.00000000E+00
  0.00000000E+00  0.00000000E+00  0.00000000E+00
  0.00000000E+00  0.00000000E+00  0.00000000E+00
  0.00000000E+00  0.00000000E+00  0.00000000E+00
  0.00000000E+00  0.00000000E+00  0.00000000E+00
  0.00000000E+00  0.00000000E+00  0.00000000E+00
  0.00000000E+00  0.00000000E+00  0.00000000E+00
  0.00000000E+00  0.00000000E+00  0.00000000E+00
  0.00000000E+00  0.00000000E+00  0.00000000E+00
  0.00000000E+00  0.00000000E+00  0.00000000E+00
  0.00000000E+00  0.00000000E+00  0.00000000E+00
  0.00000000E+00  0.00000000E+00  0.00000000E+00
  0.00000000E+00  0.00000000E+00  0.00000000E+00
  0.00000000E+00  0.00000000E+00  0.00000000E+00
  0.00000000E+00  0.00000000E+00  0.00000000E+00
  0.00000000E+00  0.00000000E+00  0.00000000E+00
  0.00000000E+00  0.00000000E+00  0.00000000E+00
  0.00000000E+00  0.00000000E+00  0.00000000E+00
  0.00000000E+00  0.00000000E+00  0.00000000E+00
  0.00000000E+00  0.00000000E+00  0.00000000E+00
  0.00000000E+00  0.00000000E+00  0.00000000E+00
  0.00000000E+00  0.00000000E+00  0.00000000E+00
  0.00000000E+00  0.00000000E+00  0.00000000E+00
  0.00000000E+00  0.00000000E+00  0.00000000E+00
  0.00000000E+00  0.00000000E+00  0.00000000E+00
  0.00000000E+00  0.00000000E+00  0.00000000E+00
  0.00000000E+00  0.00000000E+00  0.00000000E+00
  0.00000000E+00  0.00000000E+00  0.00000000E+00
  0.00000000E+00  0.00000000E+00  0.00000000E+00
  0.00000000E+00  0.00000000E+00  0.00000000E+00
  0.00000000E+00  0.00000000E+00  0.00000000E+00
  0.00000000E+00  0.00000000E+00  0.00000000E+00
  0.00000000E+00  0.00000000E+00  0.00000000E+00
  0.00000000E+00  0.00000000E+00  0.00000000E+00
  0.00000000E+00  0.00000000E+00  0.00000000E+00
  0.00000000E+00  0.00000000E+00  0.00000000E+00
  0.00000000E+00  0.00000000E+00  0.00000000E+00
  0.00000000E+00  0.00000000E+00  0.00000000E+00
  0.00000000E+00  0.00000000E+00  0.00000000E+00
  0.00000000E+00  0.00000000E+00  0.00000000E+00
  0.00000000E+00  0.00000000E+00  0.00000000E+00
  0.00000000E+00  0.00000000E+00  0.00000000E+00
  0.00000000E+00  0.00000000E+00  0.00000000E+00
  0.00000000E+00  0.00000000E+00  0.00000000E+00
  0.00000000E+00  0.00000000E+00  0.00000000E+00
  0.00000000E+00  0.00000000E+00  0.00000000E+00
  0.00000000E+00  0.00000000E+00  0.00000000E+00
  0.00000000E+00  0.00000000E+00  0.00000000E+00
  0.00000000E+00  0.00000000E+00  0.00000000E+00
  0.00000000E+00  0.00000000E+00  0.00000000E+00
  0.00000000E+00  0.00000000E+00  0.00000000E+00
  0.00000000E+00  0.00000000E+00  0.00000000E+00
  0.00000000E+00  0.00000000E+00  0.00000000E+00
  0.00000000E+00  0.00000000E+00  0.00000000E+00
  0.00000000E+00  0.00000000E+00  0.00000000E+00
  0.00000000E+00  0.00000000E+00  0.00000000E+00
  0.00000000E+00  0.00000000E+00  0.00000000E+00
  0.00000000E+00  0.00000000E+00  0.00000000E+00
  0.00000000E+00  0.00000000E+00  0.00000000E+00
  0.00000000E+00  0.00000000E+00  0.00000000E+00
  0.00000000E+00  0.00000000E+00  0.00000000E+00
  0.00000000E+00  0.00000000E+00  0.00000000E+00
  0.00000000E+00  0.00000000E+00  0.00000000E+00
  0.00000000E+00  0.00000000E+00  0.00000000E+00
  0.00000000E+00  0.00000000E+00  0.00000000E+00
  0.00000000E+00  0.00000000E+00  0.00000000E+00
  0.00000000E+00  0.00000000E+00  0.00000000E+00
  0.00000000E+00  0.00000000E+00  0.00000000E+00
  0.00000000E+00  0.00000000E+00  0.00000000E+00
  0.00000000E+00  0.00000000E+00  0.00000000E+00
  0.00000000E+00  0.00000000E+00  0.00000000E+00
