Ta N                                    
   1.00000000000000     
     9.0548154099999998    0.0000000000000000    0.0000000000000000
     0.0000000000000000   11.6775998899999998    0.0000000000000000
     0.0000000000000000    0.0000000000000000   23.4818170799999990
   Ta   N 
    60    60
Direct
  0.0000000000000000  0.0000000000000000  0.2546527306493420
  0.6670721050053485  0.1250000003211298  0.2638811012134571
  0.3329278364622654  0.1250000003211298  0.2638811012134571
  0.4999999994478088  0.2499999997859135  0.3618372816827621
  0.1650515027339401  0.1250000003211298  0.3684237730628497
  0.8349484972660598  0.1250000003211298  0.3684237730628497
  0.0000000000000000  0.2499999997859135  0.4797209679858925
  0.6647566954419527  0.1250000003211298  0.4780949565272686
  0.3352432460256612  0.1250000003211298  0.4780949565272686
  0.4999999994478088  0.2499999997859135  0.5907577090955008
  0.1676112859743812  0.1250000003211298  0.5898649075187447
  0.8323887140256189  0.1250000003211298  0.5898649075187447
  0.0000000000000000  0.2499999997859135  0.7021977094656348
  0.6705140690081808  0.1250000003211298  0.7041736128836380
  0.3294858724594332  0.1250000003211298  0.7041736128836380
  0.0000000000000000  0.2499999997859135  0.2546527306493420
  0.6670721050053485  0.3750000001070433  0.2638811012134571
  0.3329278364622654  0.3750000001070433  0.2638811012134571
  0.4999999994478088  0.5000000004281731  0.3618372816827621
  0.1650515027339401  0.3750000001070433  0.3684237730628497
  0.8349484972660598  0.3750000001070433  0.3684237730628497
  0.0000000000000000  0.5000000004281731  0.4797209679858925
  0.6647566954419527  0.3750000001070433  0.4780949565272686
  0.3352432460256612  0.3750000001070433  0.4780949565272686
  0.4999999994478088  0.5000000004281731  0.5907577090955008
  0.1676112859743812  0.3750000001070433  0.5898649075187447
  0.8323887140256189  0.3750000001070433  0.5898649075187447
  0.0000000000000000  0.5000000004281731  0.7021977094656348
  0.6705140690081808  0.3750000001070433  0.7041736128836380
  0.3294858724594332  0.3750000001070433  0.7041736128836380
  0.0000000000000000  0.5000000004281731  0.2546527306493420
  0.6670721050053485  0.6249999998929567  0.2638811012134571
  0.3329278364622654  0.6249999998929567  0.2638811012134571
  0.4999999994478088  0.7500000002140865  0.3618372816827621
  0.1650515027339401  0.6249999998929567  0.3684237730628497
  0.8349484972660598  0.6249999998929567  0.3684237730628497
  0.0000000000000000  0.7500000002140865  0.4797209679858925
  0.6647566954419527  0.6249999998929567  0.4780949565272686
  0.3352432460256612  0.6249999998929567  0.4780949565272686
  0.4999999994478088  0.7500000002140865  0.5907577090955008
  0.1676112859743812  0.6249999998929567  0.5898649075187447
  0.8323887140256189  0.6249999998929567  0.5898649075187447
  0.0000000000000000  0.7500000002140865  0.7021977094656348
  0.6705140690081808  0.6249999998929567  0.7041736128836380
  0.3294858724594332  0.6249999998929567  0.7041736128836380
  0.0000000000000000  0.7500000002140865  0.2546527306493420
  0.6670721050053485  0.8750000005352163  0.2638811012134571
  0.3329278364622654  0.8750000005352163  0.2638811012134571
  0.4999999994478088 -0.0000000000000000  0.3618372816827621
  0.1650515027339401  0.8750000005352163  0.3684237730628497
  0.8349484972660598  0.8750000005352163  0.3684237730628497
  0.0000000000000000  0.0000000000000000  0.4797209679858925
  0.6647566954419527  0.8750000005352163  0.4780949565272686
  0.3352432460256612  0.8750000005352163  0.4780949565272686
  0.4999999994478088  0.0000000000000000  0.5907577090955008
  0.1676112859743812  0.8750000005352163  0.5898649075187447
  0.8323887140256189  0.8750000005352163  0.5898649075187447
  0.0000000000000000  0.0000000000000000  0.7021977094656348
  0.6705140690081808  0.8750000005352163  0.7041736128836380
  0.3294858724594332  0.8750000005352163  0.7041736128836380
  0.8140782534915120 -0.0000000000000000  0.3013029444833909
  0.4999999994478088 -0.0000000000000000  0.2564007154259149
  0.1859217465084880  0.0000000000000000  0.3013029444833909
  0.3088093272712075  0.2499999997859135  0.4099672393971334
  0.0000000000000000  0.2499999997859135  0.3931286420693346
  0.6911906727287924  0.2499999997859135  0.4099672393971334
  0.8022823904690811  0.2499999997859135  0.5219814420902660
  0.4999999994478088  0.2499999997859135  0.5028024717846060
  0.1977176095309189  0.2499999997859135  0.5219814420902660
  0.3038199477545303  0.2499999997859135  0.6330951406795827
  0.0000000000000000  0.2499999997859135  0.6135504433216775
  0.6961800522454696  0.2499999997859135  0.6330951406795827
  0.8063280571020949  0.2499999997859135  0.7402927059255899
  0.4999999994478088  0.2499999997859135  0.7238358371715125
  0.1936719428979051  0.2499999997859135  0.7402927059255899
  0.8140782534915120  0.2499999997859135  0.3013029444833909
  0.4999999994478088  0.2499999997859135  0.2564007154259149
  0.1859217465084880  0.2499999997859135  0.3013029444833909
  0.3088093272712075  0.5000000004281731  0.4099672393971334
  0.0000000000000000  0.5000000004281731  0.3931286420693346
  0.6911906727287924  0.5000000004281731  0.4099672393971334
  0.8022823904690811  0.5000000004281731  0.5219814420902660
  0.4999999994478088  0.5000000004281731  0.5028024717846060
  0.1977176095309189  0.5000000004281731  0.5219814420902660
  0.3038199477545303  0.5000000004281731  0.6330951406795827
  0.0000000000000000  0.5000000004281731  0.6135504433216775
  0.6961800522454696  0.5000000004281731  0.6330951406795827
  0.8063280571020949  0.5000000004281731  0.7402927059255899
  0.4999999994478088  0.5000000004281731  0.7238358371715125
  0.1936719428979051  0.5000000004281731  0.7402927059255899
  0.8140782534915120  0.5000000004281731  0.3013029444833909
  0.4999999994478088  0.5000000004281731  0.2564007154259149
  0.1859217465084880  0.5000000004281731  0.3013029444833909
  0.3088093272712075  0.7500000002140865  0.4099672393971334
  0.0000000000000000  0.7500000002140865  0.3931286420693346
  0.6911906727287924  0.7500000002140865  0.4099672393971334
  0.8022823904690811  0.7500000002140865  0.5219814420902660
  0.4999999994478088  0.7500000002140865  0.5028024717846060
  0.1977176095309189  0.7500000002140865  0.5219814420902660
  0.3038199477545303  0.7500000002140865  0.6330951406795827
  0.0000000000000000  0.7500000002140865  0.6135504433216775
  0.6961800522454696  0.7500000002140865  0.6330951406795827
  0.8063280571020949  0.7500000002140865  0.7402927059255899
  0.4999999994478088  0.7500000002140865  0.7238358371715125
  0.1936719428979051  0.7500000002140865  0.7402927059255899
  0.8140782534915120  0.7500000002140865  0.3013029444833909
  0.4999999994478088  0.7500000002140865  0.2564007154259149
  0.1859217465084880  0.7500000002140865  0.3013029444833909
  0.3088093272712075  0.0000000000000000  0.4099672393971334
  0.0000000000000000 -0.0000000000000000  0.3931286420693346
  0.6911906727287924 -0.0000000000000000  0.4099672393971334
  0.8022823904690811 -0.0000000000000000  0.5219814420902660
  0.4999999994478088  0.0000000000000000  0.5028024717846060
  0.1977176095309189 -0.0000000000000000  0.5219814420902660
  0.3038199477545303  0.0000000000000000  0.6330951406795827
  0.0000000000000000 -0.0000000000000000  0.6135504433216775
  0.6961800522454696  0.0000000000000000  0.6330951406795827
  0.8063280571020949 -0.0000000000000000  0.7402927059255899
  0.4999999994478088  0.0000000000000000  0.7238358371715125
  0.1936719428979051 -0.0000000000000000  0.7402927059255899
 
  0.00000000E+00  0.00000000E+00  0.00000000E+00
  0.00000000E+00  0.00000000E+00  0.00000000E+00
  0.00000000E+00  0.00000000E+00  0.00000000E+00
  0.00000000E+00  0.00000000E+00  0.00000000E+00
  0.00000000E+00  0.00000000E+00  0.00000000E+00
  0.00000000E+00  0.00000000E+00  0.00000000E+00
  0.00000000E+00  0.00000000E+00  0.00000000E+00
  0.00000000E+00  0.00000000E+00  0.00000000E+00
  0.00000000E+00  0.00000000E+00  0.00000000E+00
  0.00000000E+00  0.00000000E+00  0.00000000E+00
  0.00000000E+00  0.00000000E+00  0.00000000E+00
  0.00000000E+00  0.00000000E+00  0.00000000E+00
  0.00000000E+00  0.00000000E+00  0.00000000E+00
  0.00000000E+00  0.00000000E+00  0.00000000E+00
  0.00000000E+00  0.00000000E+00  0.00000000E+00
  0.00000000E+00  0.00000000E+00  0.00000000E+00
  0.00000000E+00  0.00000000E+00  0.00000000E+00
  0.00000000E+00  0.00000000E+00  0.00000000E+00
  0.00000000E+00  0.00000000E+00  0.00000000E+00
  0.00000000E+00  0.00000000E+00  0.00000000E+00
  0.00000000E+00  0.00000000E+00  0.00000000E+00
  0.00000000E+00  0.00000000E+00  0.00000000E+00
  0.00000000E+00  0.00000000E+00  0.00000000E+00
  0.00000000E+00  0.00000000E+00  0.00000000E+00
  0.00000000E+00  0.00000000E+00  0.00000000E+00
  0.00000000E+00  0.00000000E+00  0.00000000E+00
  0.00000000E+00  0.00000000E+00  0.00000000E+00
  0.00000000E+00  0.00000000E+00  0.00000000E+00
  0.00000000E+00  0.00000000E+00  0.00000000E+00
  0.00000000E+00  0.00000000E+00  0.00000000E+00
  0.00000000E+00  0.00000000E+00  0.00000000E+00
  0.00000000E+00  0.00000000E+00  0.00000000E+00
  0.00000000E+00  0.00000000E+00  0.00000000E+00
  0.00000000E+00  0.00000000E+00  0.00000000E+00
  0.00000000E+00  0.00000000E+00  0.00000000E+00
  0.00000000E+00  0.00000000E+00  0.00000000E+00
  0.00000000E+00  0.00000000E+00  0.00000000E+00
  0.00000000E+00  0.00000000E+00  0.00000000E+00
  0.00000000E+00  0.00000000E+00  0.00000000E+00
  0.00000000E+00  0.00000000E+00  0.00000000E+00
  0.00000000E+00  0.00000000E+00  0.00000000E+00
  0.00000000E+00  0.00000000E+00  0.00000000E+00
  0.00000000E+00  0.00000000E+00  0.00000000E+00
  0.00000000E+00  0.00000000E+00  0.00000000E+00
  0.00000000E+00  0.00000000E+00  0.00000000E+00
  0.00000000E+00  0.00000000E+00  0.00000000E+00
  0.00000000E+00  0.00000000E+00  0.00000000E+00
  0.00000000E+00  0.00000000E+00  0.00000000E+00
  0.00000000E+00  0.00000000E+00  0.00000000E+00
  0.00000000E+00  0.00000000E+00  0.00000000E+00
  0.00000000E+00  0.00000000E+00  0.00000000E+00
  0.00000000E+00  0.00000000E+00  0.00000000E+00
  0.00000000E+00  0.00000000E+00  0.00000000E+00
  0.00000000E+00  0.00000000E+00  0.00000000E+00
  0.00000000E+00  0.00000000E+00  0.00000000E+00
  0.00000000E+00  0.00000000E+00  0.00000000E+00
  0.00000000E+00  0.00000000E+00  0.00000000E+00
  0.00000000E+00  0.00000000E+00  0.00000000E+00
  0.00000000E+00  0.00000000E+00  0.00000000E+00
  0.00000000E+00  0.00000000E+00  0.00000000E+00
  0.00000000E+00  0.00000000E+00  0.00000000E+00
  0.00000000E+00  0.00000000E+00  0.00000000E+00
  0.00000000E+00  0.00000000E+00  0.00000000E+00
  0.00000000E+00  0.00000000E+00  0.00000000E+00
  0.00000000E+00  0.00000000E+00  0.00000000E+00
  0.00000000E+00  0.00000000E+00  0.00000000E+00
  0.00000000E+00  0.00000000E+00  0.00000000E+00
  0.00000000E+00  0.00000000E+00  0.00000000E+00
  0.00000000E+00  0.00000000E+00  0.00000000E+00
  0.00000000E+00  0.00000000E+00  0.00000000E+00
  0.00000000E+00  0.00000000E+00  0.00000000E+00
  0.00000000E+00  0.00000000E+00  0.00000000E+00
  0.00000000E+00  0.00000000E+00  0.00000000E+00
  0.00000000E+00  0.00000000E+00  0.00000000E+00
  0.00000000E+00  0.00000000E+00  0.00000000E+00
  0.00000000E+00  0.00000000E+00  0.00000000E+00
  0.00000000E+00  0.00000000E+00  0.00000000E+00
  0.00000000E+00  0.00000000E+00  0.00000000E+00
  0.00000000E+00  0.00000000E+00  0.00000000E+00
  0.00000000E+00  0.00000000E+00  0.00000000E+00
  0.00000000E+00  0.00000000E+00  0.00000000E+00
  0.00000000E+00  0.00000000E+00  0.00000000E+00
  0.00000000E+00  0.00000000E+00  0.00000000E+00
  0.00000000E+00  0.00000000E+00  0.00000000E+00
  0.00000000E+00  0.00000000E+00  0.00000000E+00
  0.00000000E+00  0.00000000E+00  0.00000000E+00
  0.00000000E+00  0.00000000E+00  0.00000000E+00
  0.00000000E+00  0.00000000E+00  0.00000000E+00
  0.00000000E+00  0.00000000E+00  0.00000000E+00
  0.00000000E+00  0.00000000E+00  0.00000000E+00
  0.00000000E+00  0.00000000E+00  0.00000000E+00
  0.00000000E+00  0.00000000E+00  0.00000000E+00
  0.00000000E+00  0.00000000E+00  0.00000000E+00
  0.00000000E+00  0.00000000E+00  0.00000000E+00
  0.00000000E+00  0.00000000E+00  0.00000000E+00
  0.00000000E+00  0.00000000E+00  0.00000000E+00
  0.00000000E+00  0.00000000E+00  0.00000000E+00
  0.00000000E+00  0.00000000E+00  0.00000000E+00
  0.00000000E+00  0.00000000E+00  0.00000000E+00
  0.00000000E+00  0.00000000E+00  0.00000000E+00
  0.00000000E+00  0.00000000E+00  0.00000000E+00
  0.00000000E+00  0.00000000E+00  0.00000000E+00
  0.00000000E+00  0.00000000E+00  0.00000000E+00
  0.00000000E+00  0.00000000E+00  0.00000000E+00
  0.00000000E+00  0.00000000E+00  0.00000000E+00
  0.00000000E+00  0.00000000E+00  0.00000000E+00
  0.00000000E+00  0.00000000E+00  0.00000000E+00
  0.00000000E+00  0.00000000E+00  0.00000000E+00
  0.00000000E+00  0.00000000E+00  0.00000000E+00
  0.00000000E+00  0.00000000E+00  0.00000000E+00
  0.00000000E+00  0.00000000E+00  0.00000000E+00
  0.00000000E+00  0.00000000E+00  0.00000000E+00
  0.00000000E+00  0.00000000E+00  0.00000000E+00
  0.00000000E+00  0.00000000E+00  0.00000000E+00
  0.00000000E+00  0.00000000E+00  0.00000000E+00
  0.00000000E+00  0.00000000E+00  0.00000000E+00
  0.00000000E+00  0.00000000E+00  0.00000000E+00
  0.00000000E+00  0.00000000E+00  0.00000000E+00
  0.00000000E+00  0.00000000E+00  0.00000000E+00
  0.00000000E+00  0.00000000E+00  0.00000000E+00
