Ta  N Co Cu                             
   1.00000000000000     
    18.1096308199999996    0.0000000000000000    0.0000000000000000
     0.0000000000000000   23.3551997799999995    0.0000000000000000
     0.0000000000000000    0.0000000000000000   30.4818171199999988
   Ta   N    Co   Cu
   216   240    24     1
Direct
  0.0013070518621561  0.9999867246839642  0.1972435004890301
  0.3353694620814238  0.0627186331551499  0.2025800071163104
  0.1671622164356421  0.0627191893362138  0.2024843439133335
  0.2515904422865987  0.1249723405770737  0.2780054086465071
  0.0843847860451348  0.0625057933860731  0.2837986663570575
  0.4189029594556217  0.0625205780116715  0.2838635637077829
  0.0022499791948007  0.1248071707751066  0.3692634584855909
  0.3345277811504559  0.0624088578233284  0.3684558057240963
  0.1698427495815693  0.0623780816971760  0.3682777843107274
  0.2537979625677593  0.1242693381249254  0.4560143755201409
  0.0858678092919547  0.0620523764843099  0.4538931321676003
  0.4211104993879573  0.0621965598733851  0.4535255519843489
  0.3411804524006854  0.0619657773907676  0.5414683716607982
  0.1673215176843001  0.0645236137513479  0.5419818713108029
  0.0011858807438330  0.1251740231148233  0.1973965176784773
  0.3347701900962221  0.1878106554673664  0.2030774907516744
  0.1674255080641629  0.1878146532346605  0.2029915167187326
  0.2509663088613650  0.2502692872925820  0.2786178360771032
  0.0840566666235318  0.1876265707880052  0.2841847923971628
  0.4184784778088542  0.1876448004682203  0.2843479398865085
  0.0015225837218935  0.2499523800425365  0.3700705615468678
  0.3340314377332660  0.1872823980544851  0.3688831873017833
  0.1693328450301621  0.1872507181241971  0.3685725071737522
  0.2528831089644896  0.2465080530025148  0.4555959091017741
  0.0853453303221698  0.1859194632063108  0.4537054257028572
  0.4202664375107261  0.1865912440836155  0.4538092261824929
  0.3460567749693055  0.1857134851529807  0.5428250969008630
  0.1731164865917663  0.1939320276990131  0.5417996376674665
  0.0007503078641591  0.2508521315394674  0.1980444464116715
  0.3353989232785679  0.3129101459021868  0.2033231046184625
  0.1660836541695332  0.3128413925168374  0.2033151622267226
  0.2501588652841349  0.3751217631416282  0.2795455126024606
  0.0834851052599248  0.3126339310530639  0.2849499408806864
  0.4178218194900367  0.3126551923295438  0.2851435965542706
  0.0003718639207122  0.3745831114803124  0.3707196319740689
  0.3325036594080046  0.3126072167476366  0.3694660313476277
  0.1681721127508382  0.3125789622570139  0.3695384434466149
  0.2462157075451046  0.3743041526379258  0.4628959534230219
  0.0842928855142517  0.3113178094664235  0.4566931902763613
  0.4177696699329800  0.3119360510743547  0.4546460519441879
  0.3385607913496074  0.3092382287081179  0.5437618903944852
  0.0004994655617381  0.3751655482679723  0.1986725981962962
  0.3343505453794506  0.4376729874478187  0.2039479790883973
  0.1665324442755889  0.4377892625600524  0.2040059255564941
  0.2517968670388271  0.9999818453053848  0.2780824224065341
  0.0831723548608423  0.4375394299999371  0.2853923892957440
  0.4170606024654617  0.4375359630500810  0.2856194816331481
  0.0026045719613563  0.9999911089960563  0.3691570281033449
  0.3304771236158714  0.4373670021070879  0.3704193973812622
  0.1679446267677491  0.4373557418034011  0.3704780651757673
  0.2533945887813758  0.9999417374945523  0.4559232355720866
  0.0801578593833128  0.4374926201949023  0.4546724155931940
  0.4165673950305759  0.4370503472257923  0.4539468683230012
  0.3316256811317331  0.4380538129849754  0.5397787602771018
  0.0003051404357493  0.5000822475866471  0.1988922212870676
  0.3344818118705888  0.5623372639955377  0.2038933597442849
  0.1663908274062749  0.5622314850276737  0.2039832620090607
  0.2501386153952225  0.6248758859215684  0.2796251593928787
  0.0831522566015508  0.5624791705401577  0.2854625191338585
  0.4171043036367550  0.5624734089805230  0.2855905384183686
  0.0004444004192763  0.6254421492757345  0.3707872001248305
  0.3304343076268310  0.5626120801256533  0.3704055603890026
  0.1679220549757261  0.5626494770029566  0.3705667183523644
  0.2462382893569099  0.6253728523749729  0.4626766950124264
  0.0802617293489618  0.5626687242498036  0.4547763897776846
  0.4165970793643226  0.5630310955567310  0.4539441572082907
  0.3304588144088925  0.5627089914908439  0.5395368663565208
  0.0005186250797493  0.6247933708975708  0.1986622706131556
  0.3353946767473488  0.6871216678779817  0.2033360949863123
  0.1660617151525869  0.6871807051699079  0.2033463644290521
  0.2509278132790271  0.7496988425275362  0.2786138422397215
  0.0834913164313420  0.6873657670767628  0.2849887364560431
  0.4178353057365243  0.6873436620281339  0.2851525130111696
  0.0015468156497036  0.7500245965356100  0.3701111260052556
  0.3324891663293954  0.6874054566742345  0.3694020140513175
  0.1681922896730867  0.6874279903283593  0.3696011629775597
  0.2529109160249021  0.7534826834744592  0.4555957152062433
  0.0845710411383394  0.6887228711780011  0.4569965960919902
  0.4179451821992686  0.6881048541320496  0.4543832643090226
  0.3387316304132142  0.6901459734504414  0.5431922846490664
  0.0007464177797587  0.7491078727094518  0.1980400220099909
  0.3346779055845204  0.8121868193711919  0.2030852010693280
  0.1674962231269959  0.8121868200654276  0.2030143871867551
  0.2515800345408366  0.8750454740082674  0.2780069853742830
  0.0840245778530786  0.8123657619767499  0.2841938052898954
  0.4184984106143759  0.8123579179413696  0.2843136606762044
  0.0022311673348270  0.8751841602777617  0.3692673165023450
  0.3340305492861688  0.8127268890323620  0.3688720279284183
  0.1692839295861504  0.8127327459832756  0.3686046090940280
  0.2538215964235988  0.8756808486642811  0.4560080442517176
  0.0852465189778115  0.8140829686563151  0.4537098902332346
  0.4203463909826297  0.8134514563707214  0.4537738384358931
  0.3458014911678333  0.8139258738105255  0.5425373838367804
  0.1730729977886938  0.8059695708832493  0.5416176902792458
  0.0011999891520418  0.8748681689798019  0.1974000757304495
  0.3354370296726614  0.9372793134950896  0.2025584398867295
  0.1671162127853449  0.9372820832769690  0.2024622307708697
  0.2499062877451408  0.5000227642522077  0.2797162896460321
  0.0843904187330438  0.9374918292200718  0.2837901351573180
  0.4188858205451069  0.9374871585940596  0.2838662892277029
  0.9995023759959949  0.5000289801612894  0.3705592608960373
  0.3345257294275115  0.9376067553064047  0.3684097884342208
  0.1698692484785340  0.9376014293155066  0.3682147144052266
  0.2437905488793817  0.5002013992087981  0.4629019680124244
  0.0858553136967757  0.9378903574966913  0.4538804563533461
  0.4210512578280898  0.9377994154570786  0.4534610683496680
  0.3410745097415955  0.9377638526494181  0.5415840339998610
  0.1672388700252299  0.9354166129835306  0.5421040062241147
  0.5013343836389694  0.9999839300338706  0.1972920044761821
  0.8352831851164098  0.0627323883290600  0.2025415355256897
  0.6671002058012192  0.0627419874171267  0.2025156681731630
  0.7515307548633885  0.1249682107559664  0.2780069796826652
  0.5844075899949530  0.0625177268873642  0.2838593013255846
  0.9188483885099714  0.0625186370282975  0.2837891825311658
  0.5022450658399364  0.1248618758961086  0.3693410194774884
  0.8345250797187234  0.0624100996967201  0.3684084442319460
  0.6698428842702384  0.0624144422173600  0.3683369351163250
  0.7537915769907997  0.1243121361285873  0.4559968195138850
  0.5858411406015662  0.0621290300970045  0.4539392063204062
  0.9211237760070432  0.0621584443620478  0.4534487429901688
  0.8411123732647781  0.0620175259832010  0.5413664216493146
  0.6672944670723169  0.0646702435093118  0.5420017390551237
  0.5011884294071578  0.1251812512984714  0.1974427646596197
  0.8347255481930276  0.1877889798633845  0.2030492778341397
  0.6673046137085237  0.1878197296463497  0.2030202516284092
  0.7508873246612495  0.2502730880332535  0.2786291234441052
  0.5840716057580195  0.1876513776019522  0.2842609000275900
  0.9184242971062844  0.1876473241820733  0.2842887862032484
  0.5015033557210984  0.2499942668405097  0.3701927659955260
  0.8340472667577501  0.1872860546748640  0.3688483277770729
  0.6692759392132785  0.1873174802175441  0.3686549957562093
  0.7528682576166119  0.2466212323906092  0.4555887422403373
  0.5853680072537557  0.1860508555469238  0.4538252342999840
  0.9202386775708149  0.1865307837510741  0.4536883802188285
  0.8462270836683317  0.1856997365214710  0.5427743700488605
  0.6734325906651861  0.1940561408233847  0.5418988592176319
  0.5007871773824562  0.2508428962293792  0.1980720655346246
  0.8353186521194331  0.3129170912213795  0.2033297545600021
  0.6660337821989160  0.3128352277653832  0.2033485052419479
  0.7501371177556990  0.3751475353007550  0.2795488506882862
  0.5834895452272590  0.3126322677258599  0.2850065786065556
  0.9177890131833024  0.3126632455631366  0.2851067569864867
  0.5002882656443219  0.3745418324275249  0.3707323229635335
  0.8325439056079418  0.3126481380366997  0.3694563665231527
  0.6681772380464324  0.3126310905425882  0.3696533723189575
  0.7461671046136118  0.3743475040569635  0.4633288828803472
  0.5844390132292716  0.3115187548517113  0.4570261834347349
  0.9178929934475448  0.3119322375237203  0.4546152918510344
  0.8392639431537674  0.3093573225603166  0.5437342737379822
  0.5005228947484781  0.3751681774513145  0.1986699031426582
  0.8343023194991090  0.4376749941674944  0.2039421330890860
  0.6664503026292792  0.4377391475629153  0.2040025440991897
  0.7517772224152353  0.9999765444570841  0.2780991760150826
  0.5832865527600433  0.4375471032588010  0.2854482651765693
  0.9170321803643446  0.4375400733184165  0.2856184205098486
  0.5026182303235913  0.0000227013051131  0.3692418404036317
  0.8305783177715327  0.4373706709904965  0.3704758009611524
  0.6680849382073362  0.4373547499975174  0.3705503186169494
  0.7533254216971486  0.9999876085835240  0.4559210447350424
  0.5798572876571839  0.4376735923321746  0.4541619797957850
  0.9167959011684346  0.4369176880736774  0.4539770652661304
  0.8337644474431229  0.4381805190643746  0.5401698755218831
  0.5003745700719335  0.5000529614536546  0.1988833579185894
  0.8344011270717857  0.5623540995883474  0.2039163919181703
  0.6663406818780331  0.5622448394610018  0.2039481450314113
  0.7501570350199955  0.6248744283689973  0.2796162345736946
  0.5832470943787982  0.5624804838354223  0.2854758423999471
  0.9170601613585276  0.5624786969945248  0.2856256777022423
  0.5003903398256355  0.6254390684816897  0.3707104859300898
  0.8305751447160006  0.5626642002657363  0.3705048949203231
  0.6681318210121674  0.5626970747415356  0.3706227201736638
  0.7459630778808446  0.6255026739554665  0.4632556111463444
  0.5799541546352032  0.5625873004305149  0.4546053926881299
  0.9168315947023800  0.5631367659920343  0.4540042286728223
  0.8328157854935228  0.5616905286516527  0.5400504406477609
  0.5005455648668047  0.6247873510668143  0.1986520648754393
  0.8353229731905429  0.6870792808572688  0.2033612459361223
  0.6660297463231686  0.6871787806235403  0.2033512743416281
  0.7509227719554090  0.7497108197910336  0.2786233683001100
  0.5835637634638289  0.6873811136505736  0.2850043884749383
  0.9177982951649426  0.6873383429656954  0.2851490284112757
  0.5016239073843352  0.7500719095761355  0.3701295173523533
  0.8325465130600378  0.6873785172505364  0.3694498263377213
  0.6681963963948974  0.6874133207222002  0.3696791868031539
  0.7527975009545713  0.7534182938650389  0.4556189790017555
  0.5844028904794172  0.6887126366996199  0.4569287708437670
  0.9179203932657316  0.6880490697374810  0.4546283821138459
  0.8389745847868539  0.6904412203664450  0.5437202960649188
  0.5008187785456002  0.7491015554998555  0.1980500163868228
  0.8346336349875685  0.8121815052028296  0.2030748495448904
  0.6674442526667335  0.8122028482889760  0.2030456132273244
  0.7515477314804784  0.8750694930248670  0.2780112856827159
  0.5840686217639970  0.8123599753433908  0.2842592039020175
  0.9184514673381443  0.8123586922179484  0.2842811055027923
  0.5022729086279725  0.8751920097150787  0.3693313234786331
  0.8340389048938803  0.8127145016397321  0.3688912127059680
  0.6692948914670822  0.8127358944978624  0.3686955041503879
  0.7537567421706299  0.8757126687875427  0.4560122405487590
  0.5853764596879500  0.8140942963638125  0.4538701480408491
  0.9202431712721477  0.8134279933503095  0.4537637603300979
  0.8460327048110940  0.8140654073253657  0.5427253236449872
  0.6735516548137852  0.8064668583826133  0.5417829361834947
  0.5012239868688795  0.8748688576051720  0.1974412546151854
  0.8353245722027864  0.9372753699588259  0.2025226678966092
  0.6670648562349157  0.9372680076819648  0.2024946966544547
  0.7499383508897708  0.5000324858142022  0.2797305042059008
  0.5844430087790613  0.9374966777516889  0.2838558948345664
  0.9188304530347651  0.9374793772429442  0.2837911632650503
  0.4993178045074345  0.5001029551850209  0.3705202397841845
  0.8345027450662741  0.9376032657154028  0.3683781596165829
  0.6698747626456338  0.9376271360802804  0.3682718008766983
  0.7442087508445994  0.5000785332746247  0.4630582355051160
  0.5858496462677252  0.9379553341617992  0.4539172237707803
  0.9210452824310025  0.9377761270846534  0.4534202116500268
  0.8409660924300297  0.9378817491486160  0.5414574891224930
  0.6671362819931801  0.9356595902477878  0.5421293505305655
  0.4069551199023778  0.0000012914952663  0.2321374840859320
  0.2512611840440542  0.9999828130534212  0.2001195233584241
  0.0958472681750706  0.0000015208311268  0.2320684188431130
  0.1565410539277465  0.1249808859883501  0.3157131103814592
  0.0015221885640884  0.1250576492481770  0.3026514933260458
  0.3466855514496743  0.1249708405556262  0.3158530860157569
  0.4036079763063185  0.1247227564226847  0.4019747176857251
  0.2520626357688798  0.1245363841969436  0.3878930483368919
  0.1008956287252616  0.1244617206438434  0.4019126017323060
  0.1539046890486091  0.1248964431655395  0.4866836491128765
  0.0032146367122650  0.1241187911660546  0.4750093459145006
  0.3545126412190953  0.1236642830918697  0.4872468590935384
  0.4129222463590168  0.1215831315545159  0.5662988653975631
  0.2554538865156104  0.1219231973820740  0.5558883916436912
  0.1025376306385937  0.1300422969939063  0.5653483170138074
  0.4068519005914055  0.1252695172772960  0.2323150975825925
  0.2511610785678116  0.1251642628662566  0.1986786107146870
  0.0956150147652579  0.1252319201085612  0.2322084231174770
  0.1560838161815354  0.2501412837232380  0.3163964707557696
  0.0010051935114035  0.2500596428028175  0.3034512182223139
  0.3458683510522604  0.2500605499424751  0.3164831847602301
  0.4023205067199243  0.2498839643619419  0.4024319316164338
  0.2511198457812682  0.2499693042001709  0.3883210261214458
  0.1003817037777708  0.2496701284374012  0.4024632791821361
  0.1545027413153122  0.2449152916873700  0.4851567848317231
  0.0019998023566004  0.2484755668627585  0.4747477678738932
  0.3523348542369575  0.2482603323898616  0.4878367404950197
  0.4147125088912276  0.2472532846970381  0.5660980708049834
  0.2623348734434572  0.2397712690868374  0.5614343069036565
  0.0968749188478455  0.2604429822743128  0.5611821528377234
  0.4064436905988842  0.2504579301849219  0.2330225326081532
  0.2509264796918274  0.2507139979494042  0.2002053079436692
  0.0952749217503808  0.2503898878167519  0.2328611314933937
  0.1553054538314527  0.3751538865785236  0.3172845937459101
  0.0004232552937751  0.3750679213782959  0.3040922021364807
  0.3450195302454233  0.3751523842952977  0.3172070832732246
  0.4006638184310418  0.3744916644198355  0.4026194973073203
  0.2495274815850834  0.3746928367993192  0.3912015694386142
  0.0991841325442309  0.3737589572693238  0.4032921946482233
  0.1425499553153387  0.3764099825985170  0.4880565067060445
  0.9980233017404956  0.3740326955004676  0.4747456314979246
  0.3514324803427158  0.3747919360544927  0.4874630532844435
  0.3904993708455677  0.3742132813354431  0.5718530329244587
  0.2432382927685026  0.3566623608527593  0.5360017303132096
  0.0697066333324585  0.3801318602025319  0.5638293687165969
  0.4060308962148369  0.3752147933742762  0.2336313714124998
  0.2505391767108947  0.3750631551239181  0.2013632742503404
  0.0949768670238385  0.3751702753717012  0.2335187120700795
  0.1566772517820709  0.0000005144057553  0.3156410683759603
  0.0017169936037504  0.9999935708502221  0.3025358217906202
  0.3469333432893151  0.0000148995440483  0.3157340013475576
  0.4039714976230968  0.0000035270536500  0.4017841419533923
  0.2522703145109091  0.9999923858391924  0.3878391893051116
  0.1012873563015333  0.9999658230326247  0.4019475790787155
  0.1536679779947150  0.9999022459871014  0.4871853523159828
  0.0034988895874193  0.0000983354623685  0.4752001504116805
  0.3539409988006170  0.9998799341061684  0.4869011125747633
  0.4123566671291172  0.9999268449831007  0.5647915785344182
  0.2545796807442855  0.9997791706532766  0.5562820631300767
  0.0991188057632044  0.9999917660533839  0.5652664524532796
  0.4057629770834907  0.5000023551464565  0.2337357672944549
  0.2505353759895286  0.5000516184543145  0.1996981810457683
  0.0947829596857019  0.5000325259387353  0.2337111477340912
  0.1552517042293502  0.6248385686129367  0.3173628815029517
  0.0004243249321902  0.6249423555349836  0.3041477968671984
  0.3450768065714485  0.6247880927150575  0.3171957846292059
  0.4007372478260933  0.6255397558154954  0.4025149671876989
  0.2495419212100387  0.6253548476675803  0.3912232275955319
  0.0992539071849095  0.6263390663258477  0.4034825186049815
  0.1429939013194854  0.6236485894894628  0.4885901335564000
  0.9980426918138008  0.6260740030164982  0.4748888499077992
  0.3513390265875032  0.6255706987533429  0.4870920658850579
  0.3927354768624056  0.6251956948943587  0.5706485830849815
  0.2453834362978853  0.6390622343655323  0.5380800964853805
  0.0684181561818278  0.6203755301695608  0.5639363203545784
  0.4060347179540003  0.6247876207258400  0.2336253683900935
  0.2505510703510510  0.6249162311515093  0.2017329362598872
  0.0949736610612604  0.6248226359567184  0.2335791474222262
  0.1560510292472017  0.7498654617190468  0.3164145103875029
  0.0010017549811607  0.7499367130086583  0.3034687705732182
  0.3458756433631791  0.7499843656317182  0.3164364623801674
  0.4024212616674276  0.7501350986147060  0.4023428831464315
  0.2511359645203157  0.7500262291662878  0.3882711971445474
  0.1003803571851449  0.7502603671825199  0.4025354263464465
  0.1544791433960029  0.7551482324770191  0.4850670890653745
  0.0020133409184240  0.7515743181829819  0.4747639758991582
  0.3524493005134417  0.7515290463826076  0.4876139669124839
  0.4144585533043283  0.7522947437287044  0.5656576208072366
  0.2622173113847026  0.7591627206506431  0.5605688636787391
  0.0969595797732410  0.7395239972114638  0.5612126737391634
  0.4064765924336697  0.7495361123214366  0.2329912224319415
  0.2509106300444017  0.7492507527113190  0.2000172474930437
  0.0952575182812865  0.7496063486511773  0.2328695995932435
  0.1565358195010731  0.8750001097138096  0.3157179946218207
  0.0015180802260417  0.8749558559427442  0.3026650721061230
  0.3466790750714210  0.8750076150491211  0.3158309591286113
  0.4036024999894892  0.8753363407424217  0.4019394996811769
  0.2520465344968770  0.8754513010393623  0.3878976365968398
  0.1008910250605695  0.8755672306913524  0.4019240882869397
  0.1538897075113184  0.8751442151742879  0.4867204610160769
  0.0031869781275162  0.8758217267916351  0.4751155868309667
  0.3545286296419832  0.8763554278400463  0.4872426542304495
  0.4130605115013637  0.8780223816258541  0.5661693667740693
  0.2554036417730217  0.8776509100095424  0.5559742028405879
  0.1024598255396754  0.8697321807482794  0.5653231896442321
  0.4068717117671454  0.8747422137857228  0.2322954691513672
  0.2511681394482821  0.8748775022844271  0.1986776045430574
  0.0956198319394730  0.8747680840596317  0.2322122683996142
  0.1551357151257022  0.4999999524573582  0.3175758894831944
  0.0000644877052238  0.4999966048985343  0.3040624696372660
  0.3445088425926954  0.5000108173953421  0.3174701018121979
  0.3996696926569996  0.5000114598613692  0.4022709170936452
  0.2488675611538369  0.4999658898267754  0.3916327867293177
  0.0986693113085337  0.5000483279865975  0.4028276246688733
  0.1405946201666879  0.5000732290499954  0.4892208988884192
  0.9965808060777590  0.5000343242795537  0.4731936900105751
  0.3504924073675042  0.5002392474570101  0.4861031401910552
  0.3936253942520906  0.4997552579595066  0.5689613754597715
  0.2509857968990730  0.4988101759139880  0.5427559941317739
  0.0651038322242385  0.5002742458703864  0.5661422123590754
  0.9068916644888532  0.0000003570660567  0.2320613730637504
  0.7511731325846185  0.9999928074370743  0.2001551549755618
  0.5958611508500695  0.0000088609834421  0.2321353110602402
  0.6565400263526229  0.1250116270301334  0.3157820463177856
  0.5015557687175232  0.1250754862703616  0.3027459002804207
  0.8466425443445047  0.1249787648809857  0.3158100543863753
  0.9036247760219496  0.1246806654466255  0.4018803694172703
  0.7520660219939899  0.1245730372878882  0.3879032074627986
  0.6008945354859918  0.1245315835022964  0.4019980285396159
  0.6539319919124651  0.1249773351765384  0.4867246531191896
  0.5032322190567413  0.1241920748727878  0.4750953969601213
  0.8544972325748361  0.1236667645824099  0.4871601627817483
  0.9130888268788979  0.1213936568320833  0.5661275867765312
  0.7555026879811848  0.1218152852888466  0.5558870505790026
  0.6026045773833317  0.1303357824195785  0.5654074319318170
  0.9068134614983236  0.1252654120934977  0.2322457232365807
  0.7510814203670009  0.1251845387912809  0.1986719070010210
  0.5955917556851986  0.1252515526327969  0.2322806750696671
  0.6560844291339123  0.2501909036488854  0.3164827775430510
  0.5010248120892129  0.2500708885936191  0.3035419384329288
  0.8458148915267287  0.2500759996067572  0.3164512929494379
  0.9023392796088316  0.2499079132583901  0.4023471606679436
  0.7511326232281803  0.2500040260624417  0.3883320126465861
  0.6003852979677404  0.2498314960286763  0.4026146554117318
  0.6545684036073638  0.2450004929448113  0.4852755424349127
  0.5021416750195584  0.2486106001816140  0.4748603859268314
  0.8523230532225838  0.2481904665356112  0.4877489059247679
  0.9155576035693684  0.2469007102292764  0.5656795328166453
  0.7628257799218332  0.2393711940500509  0.5618670927955307
  0.5968088812914445  0.2604663273732299  0.5612342994891364
  0.9063925426891259  0.2504593126139127  0.2329774343830664
  0.7508735166126925  0.2506921386753191  0.2002853300867926
  0.5952444793481391  0.2503929382512453  0.2329400925664444
  0.6553492118723767  0.3751516838801123  0.3173467088861912
  0.5004392383746534  0.3750781326169985  0.3041333384688443
  0.8449935038402643  0.3751689191271339  0.3172137031010180
  0.9008167645955822  0.3744340581835459  0.4026273404301648
  0.7495731742296599  0.3746928291762828  0.3913606852826348
  0.5991148603185223  0.3736753232781425  0.4033391717040260
  0.6420938962465641  0.3773911565953512  0.4884490183950305
  0.4977751732186988  0.3739466326905898  0.4745699722014507
  0.8516534327133840  0.3746549428674868  0.4874689122236120
  0.8916566635858274  0.3738533890702769  0.5713909260234118
  0.7431939929338682  0.3551364565530832  0.5357064617209701
  0.5697649434874918  0.3810254220277471  0.5655545609848289
  0.9059660023751235  0.3752241272992975  0.2336075500535770
  0.7504973348791850  0.3750654247161549  0.2012818013379416
  0.5949484478431160  0.3751587300708223  0.2335703750158444
  0.6566980326170793  0.0000222851479137  0.3156933831775390
  0.5017693853793830  0.0000020951666500  0.3026158923383093
  0.8469340679566457  0.0000119177675728  0.3156945625602532
  0.9039954313816310  0.9999817427272006  0.4017323481952673
  0.7522836686083281  0.0000163787158272  0.3878345213637573
  0.6013047909123088  0.0000167427647639  0.4020010485438164
  0.6536025156130520  0.0000026105222659  0.4872065266191612
  0.5034901324760739  0.0001416680420334  0.4752170958797493
  0.8539376229657023  0.9999171204922987  0.4868258267261112
  0.9124100366059906  0.9999336933100693  0.5646766996150987
  0.7545150245894803  0.9999126561499239  0.5561865133501982
  0.5990506916629457  0.0002721457211408  0.5653406690283660
  0.9056997131043190  0.5000178238265818  0.2337466605670500
  0.7504633309775954  0.5000457064689172  0.1997913014114232
  0.5948191504670390  0.5000246593442981  0.2337402628666183
  0.6553228390652421  0.6248571992667991  0.3173838044128061
  0.5004770913784000  0.6249446074594047  0.3041067353292348
  0.8450465314676876  0.6248193124147221  0.3172384157752504
  0.9008518193831492  0.6256048165163506  0.4026458385380991
  0.7496169118832157  0.6253636858753211  0.3913399214814675
  0.5991701275504866  0.6263099367355522  0.4034179269793299
  0.6419622913998566  0.6231643380110299  0.4885725548503714
  0.4977197273636662  0.6258130478153774  0.4747423693179300
  0.8514248292473781  0.6253164964874642  0.4874141697632410
  0.8912812763029407  0.6257442624345799  0.5713389387781334
  0.7431290180529899  0.6439409382617072  0.5359372032289613
  0.5680731912993551  0.6212664881902157  0.5635227452184211
  0.9060142260095105  0.6247831639208457  0.2336370316738368
  0.7504720055092449  0.6249117597389287  0.2015577464931582
  0.5949886902646497  0.6248193105943685  0.2335816212416333
  0.6560977656951366  0.7498612492153711  0.3164833792812871
  0.5010545146267518  0.7499324462393844  0.3034868938327833
  0.8458191483215671  0.7499731644243397  0.3164610543023443
  0.9023915578962942  0.7500766397490253  0.4023752983723270
  0.7511669685069222  0.7500201106608557  0.3883334266483587
  0.6003937866027513  0.7503080181458941  0.4026180936731123
  0.6545763340782784  0.7550459610026294  0.4853742694332936
  0.5020054471854039  0.7515824883418674  0.4749240531896888
  0.8522532172683057  0.7516367369532588  0.4877079523308154
  0.9150270934441593  0.7528271796217183  0.5656600527402489
  0.7624935129496393  0.7603502994174391  0.5615988825464271
  0.5960083889041030  0.7401372935102515  0.5611597418796990
  0.9064194324850945  0.7495302026520463  0.2329872266450081
  0.7508698994565250  0.7492652038055212  0.2000990265521381
  0.5952730762233571  0.7496216172919645  0.2329185864797267
  0.6565606388649812  0.8749913933431586  0.3157851834739844
  0.5015672436217855  0.8749619900948034  0.3027329571888444
  0.8466578067484107  0.8750044284037912  0.3158162464131422
  0.9036126629383645  0.8753215073041858  0.4019115738544485
  0.7520617090754556  0.8754723510220188  0.3879186069349032
  0.6009220603642760  0.8755537141134297  0.4020176853268538
  0.6538818156805135  0.8752360987035530  0.4868009230705965
  0.5032453646795858  0.8758252256839967  0.4751472634497986
  0.8544724747254904  0.8763719306272222  0.4872101144561185
  0.9131778231482528  0.8783501952594790  0.5660780524024176
  0.7552229447940206  0.8781069745589178  0.5559445655617594
  0.6024564000220067  0.8699108890070804  0.5654613465914267
  0.9068152401067380  0.8747375870952396  0.2322358506719269
  0.7511087084673349  0.8748671230235416  0.1986320590015609
  0.5956091255386653  0.8747612995826088  0.2322840817093237
  0.6552593283803887  0.5000332885645875  0.3175923052362748
  0.5001104111754131  0.4999967387641533  0.3040446287592147
  0.8444826699892189  0.5000229311388438  0.3175031649425506
  0.8999233258218169  0.5000220754512981  0.4022841214149082
  0.7490053170652260  0.4999911254734783  0.3917757689010983
  0.5985901464023300  0.5001706704927713  0.4026220481098051
  0.6407148651291976  0.5000975738594065  0.4889865385864596
  0.4963327996018023  0.5001819792904172  0.4732484619825712
  0.8510540996649567  0.5000592034993048  0.4858821494101448
  0.8958134161602729  0.5000417770294519  0.5681980910598980
  0.7525746387034289  0.4993937315549175  0.5433560245928106
  0.5671634203185292  0.5002769856405394  0.5677856685383347
  0.0069038806748267  0.1251848316907385  0.5425984075528518
  0.0063036256387079  0.2489621305719822  0.5399402467770429
  0.9820442613671361  0.3805477934862296  0.5397753181033664
  0.1319427245987370  0.3291667078767730  0.5420391924563646
  0.0051127440121377  0.0021924548048275  0.5423194694711952
  0.1059424493912076  0.4422990338563011  0.5384928525582424
  0.9810738109454888  0.6188675035786844  0.5396640724344905
  0.1053500193047086  0.5584788200750097  0.5384787160602116
  0.0066794317097347  0.7528998348485416  0.5400605833041681
  0.1322474038559847  0.6704461303763765  0.5430340585156728
  0.0066160897688121  0.8715062132485727  0.5429023694379040
  0.9814493856715956  0.5000722779932048  0.5371687042410329
  0.5067867900728729  0.1257090400001104  0.5427455055137997
  0.5057584208128318  0.2488881230070206  0.5402363133418291
  0.4806630913956127  0.3785809005909471  0.5391068847578708
  0.6319179839918831  0.3292207619644643  0.5429961035896937
  0.5051017528765058  0.0025613217274127  0.5423922291565688
  0.6089932845172754  0.4424257840156613  0.5361564802918153
  0.4809051865663605  0.6172409796063434  0.5394665624469113
  0.6044473568127628  0.5593275265113178  0.5386723903521258
  0.5061573800491956  0.7539224557046822  0.5401203619641279
  0.6318232483138999  0.6717900179117535  0.5424185633950316
  0.5065523105648637  0.8709078889322370  0.5430358325118405
  0.4795348225506828  0.5011786728234995  0.5375479789781892
  0.5209979204751320  0.4397152908178441  0.6013695739236056
 
  0.00000000E+00  0.00000000E+00  0.00000000E+00
  0.00000000E+00  0.00000000E+00  0.00000000E+00
  0.00000000E+00  0.00000000E+00  0.00000000E+00
  0.00000000E+00  0.00000000E+00  0.00000000E+00
  0.00000000E+00  0.00000000E+00  0.00000000E+00
  0.00000000E+00  0.00000000E+00  0.00000000E+00