Mo  S Co                                
   1.00000000000000     
    15.9214998300000001    0.0000000000000000    0.0000000000000000
    -7.9622501300000001   13.7910221699999997    0.0000000000000000
     0.0000000000000000    0.0000000000000000   13.5821998300000004
   Mo   S    Co
    25    49     4
Direct
  0.1346069298111751  0.0686669390541799  0.6761880434974963
  0.1366131649459129  0.2688946832055481  0.6714195053964770
  0.1335931528743108  0.4638658226722397  0.6719777728972812
  0.1340385586070822  0.6662003003562933  0.6786344410548438
  0.1337738304896806  0.8669239224830547  0.6786532578179638
  0.3332307639531455  0.0673575756400580  0.6780356029970238
  0.3306725567453583  0.2672869194238601  0.6700668065816010
  0.3296818681699798  0.4602218919031819  0.6715127654297595
  0.3343578067165359  0.6663466620551837  0.6752732818516824
  0.3333434627345723  0.8661093347471928  0.6800144096828672
  0.5332664188829724  0.0668060328016020  0.6799361913286250
  0.5326484431231140  0.2661676136567867  0.6748046528129161
  0.5313367997953508  0.4652225640632976  0.6720401675043027
  0.5322189654955188  0.6662085236521236  0.6756662258738468
  0.5335139088141430  0.8663992697509366  0.6797666202834322
  0.7338206928716930  0.0667315412085454  0.6804557002410909
  0.7334698343537482  0.2669199272574697  0.6801204880685716
  0.7330396031203013  0.4663843782918255  0.6790169991151769
  0.7327658351253994  0.6658656863510986  0.6796605412254936
  0.7333131181072839  0.8659817070606720  0.6813798187475899
  0.9344732981065207  0.0673756007376584  0.6793869678930323
  0.9346998825324485  0.2664384397755105  0.6784497903141370
  0.9342450299926435  0.4664284115718639  0.6793977136308985
  0.9336034306383980  0.6664706092685551  0.6791756039014916
  0.9336173916978638  0.8669036765444378  0.6795677408177195
  0.0657921956263566  0.1333539436003920  0.5608023313556489
  0.0734348173631663  0.1399291838933157  0.7910245788959788
  0.0648898866346759  0.3297218842299787  0.5583374761008274
  0.0732557568691298  0.3344292995103071  0.7904442725646695
  0.0660602440945596  0.5336606366373460  0.5621781487324112
  0.0717245788937768  0.5324478773702114  0.7928946947882702
  0.0667804644991667  0.7332956646626024  0.5638092064666430
  0.0673631530438640  0.7332917485408840  0.7934620600674247
  0.0663229213366449  0.9329540903889866  0.5634618399653909
  0.0683359156809360  0.9355932852218676  0.7927694491753967
  0.2670527769302749  0.1325195935405867  0.5593326892468090
  0.2671872096142981  0.1393304101088723  0.7902247564934163
  0.2654773064469707  0.3318849141770053  0.5546175025382970
  0.2685993283542233  0.5329671381796091  0.5586946377541915
  0.2661586599941432  0.5281127605134127  0.7876520769772752
  0.2668013046509650  0.7340368793946735  0.5632907365637272
  0.2659958095919236  0.7287550178387321  0.7951676043986574
  0.2672885787003534  0.9329491446397910  0.5640928674804512
  0.2666771055543399  0.9342603580965265  0.7938631109802874
  0.4663450876037956  0.1315912546054537  0.5629109065398420
  0.4657839469868579  0.1354004612603355  0.7941359929398522
  0.4650591077632531  0.3309707568385478  0.5578000431926508
  0.4608083775267325  0.3328170722717687  0.7876537035120150
  0.4644455909973305  0.5331133882330231  0.5591298832750961
  0.4616686695085449  0.5279490215916268  0.7881195695456218
  0.4680911014626553  0.7352497100431455  0.5618942782905458
  0.4654290628258296  0.7307750318227434  0.7933247524631946
  0.4668770391317453  0.9333353955387884  0.5651464613317361
  0.4665885505287729  0.9331449202702576  0.7949434803496598
  0.6670743970292475  0.1333658826342588  0.5653040586305645
  0.6668174367458827  0.1336658305649040  0.7949911984955702
  0.6682231126468964  0.3337884336118863  0.5633830258137298
  0.6635943705266611  0.3336045684589664  0.7950818545469207
  0.6686543639150484  0.5342459258680854  0.5620740859140511
  0.6618254805031465  0.5305475418210763  0.7919581639300862
  0.6679227417793843  0.7339242658241018  0.5646253316489162
  0.6629714187204162  0.7287495304257143  0.7962954297222027
  0.6675285510832746  0.9331753429155286  0.5658151815033015
  0.6666251822257672  0.9331429822592608  0.7956301244746448
  0.8664513401812854  0.1325554815552473  0.5647181590253978
  0.8682994117802155  0.1341402592905858  0.7947079031074814
  0.8666989908278191  0.3330365948174841  0.5646792722033345
  0.8682666204170237  0.3333573209644841  0.7941962222213961
  0.8670915058326047  0.5329591182371396  0.5644077769864665
  0.8669275571226136  0.5331179509757936  0.7939391227746857
  0.8666366702062781  0.7333287968335995  0.5646776203708286
  0.8668090159783763  0.7329485400123747  0.7942875421141381
  0.8660666023962754  0.9330956679078138  0.5654915143931013
  0.8681985162143204  0.9341584539142177  0.7953038278975804
  0.1891884618586020  0.2606502977999161  0.0487969818168078
  0.5006069276581453  0.3128318447225514  0.9318574072027719
  0.5085492870152805  0.5794582240286926  0.9344960351016643
  0.2373197420039145  0.5660425388468935  0.9293352698694355
 
  0.00000000E+00  0.00000000E+00  0.00000000E+00
  0.00000000E+00  0.00000000E+00  0.00000000E+00
  0.00000000E+00  0.00000000E+00  0.00000000E+00
  0.00000000E+00  0.00000000E+00  0.00000000E+00
  0.00000000E+00  0.00000000E+00  0.00000000E+00
  0.00000000E+00  0.00000000E+00  0.00000000E+00
  0.00000000E+00  0.00000000E+00  0.00000000E+00
  0.00000000E+00  0.00000000E+00  0.00000000E+00
  0.00000000E+00  0.00000000E+00  0.00000000E+00
  0.00000000E+00  0.00000000E+00  0.00000000E+00
  0.00000000E+00  0.00000000E+00  0.00000000E+00
  0.00000000E+00  0.00000000E+00  0.00000000E+00
  0.00000000E+00  0.00000000E+00  0.00000000E+00
  0.00000000E+00  0.00000000E+00  0.00000000E+00
  0.00000000E+00  0.00000000E+00  0.00000000E+00
  0.00000000E+00  0.00000000E+00  0.00000000E+00
  0.00000000E+00  0.00000000E+00  0.00000000E+00
  0.00000000E+00  0.00000000E+00  0.00000000E+00
  0.00000000E+00  0.00000000E+00  0.00000000E+00
  0.00000000E+00  0.00000000E+00  0.00000000E+00
  0.00000000E+00  0.00000000E+00  0.00000000E+00
  0.00000000E+00  0.00000000E+00  0.00000000E+00
  0.00000000E+00  0.00000000E+00  0.00000000E+00
  0.00000000E+00  0.00000000E+00  0.00000000E+00
  0.00000000E+00  0.00000000E+00  0.00000000E+00
  0.00000000E+00  0.00000000E+00  0.00000000E+00
  0.00000000E+00  0.00000000E+00  0.00000000E+00
  0.00000000E+00  0.00000000E+00  0.00000000E+00
  0.00000000E+00  0.00000000E+00  0.00000000E+00
  0.00000000E+00  0.00000000E+00  0.00000000E+00
  0.00000000E+00  0.00000000E+00  0.00000000E+00
  0.00000000E+00  0.00000000E+00  0.00000000E+00
  0.00000000E+00  0.00000000E+00  0.00000000E+00
  0.00000000E+00  0.00000000E+00  0.00000000E+00
  0.00000000E+00  0.00000000E+00  0.00000000E+00
  0.00000000E+00  0.00000000E+00  0.00000000E+00
  0.00000000E+00  0.00000000E+00  0.00000000E+00
  0.00000000E+00  0.00000000E+00  0.00000000E+00
  0.00000000E+00  0.00000000E+00  0.00000000E+00
  0.00000000E+00  0.00000000E+00  0.00000000E+00
  0.00000000E+00  0.00000000E+00  0.00000000E+00
  0.00000000E+00  0.00000000E+00  0.00000000E+00
  0.00000000E+00  0.00000000E+00  0.00000000E+00
  0.00000000E+00  0.00000000E+00  0.00000000E+00
  0.00000000E+00  0.00000000E+00  0.00000000E+00
  0.00000000E+00  0.00000000E+00  0.00000000E+00
  0.00000000E+00  0.00000000E+00  0.00000000E+00
  0.00000000E+00  0.00000000E+00  0.00000000E+00
  0.00000000E+00  0.00000000E+00  0.00000000E+00
  0.00000000E+00  0.00000000E+00  0.00000000E+00
  0.00000000E+00  0.00000000E+00  0.00000000E+00
  0.00000000E+00  0.00000000E+00  0.00000000E+00
  0.00000000E+00  0.00000000E+00  0.00000000E+00
  0.00000000E+00  0.00000000E+00  0.00000000E+00
  0.00000000E+00  0.00000000E+00  0.00000000E+00
  0.00000000E+00  0.00000000E+00  0.00000000E+00
  0.00000000E+00  0.00000000E+00  0.00000000E+00
  0.00000000E+00  0.00000000E+00  0.00000000E+00
  0.00000000E+00  0.00000000E+00  0.00000000E+00
  0.00000000E+00  0.00000000E+00  0.00000000E+00
  0.00000000E+00  0.00000000E+00  0.00000000E+00
  0.00000000E+00  0.00000000E+00  0.00000000E+00
  0.00000000E+00  0.00000000E+00  0.00000000E+00
  0.00000000E+00  0.00000000E+00  0.00000000E+00
  0.00000000E+00  0.00000000E+00  0.00000000E+00
  0.00000000E+00  0.00000000E+00  0.00000000E+00
  0.00000000E+00  0.00000000E+00  0.00000000E+00
  0.00000000E+00  0.00000000E+00  0.00000000E+00
  0.00000000E+00  0.00000000E+00  0.00000000E+00
  0.00000000E+00  0.00000000E+00  0.00000000E+00
  0.00000000E+00  0.00000000E+00  0.00000000E+00
  0.00000000E+00  0.00000000E+00  0.00000000E+00
  0.00000000E+00  0.00000000E+00  0.00000000E+00
  0.00000000E+00  0.00000000E+00  0.00000000E+00
  0.00000000E+00  0.00000000E+00  0.00000000E+00
  0.00000000E+00  0.00000000E+00  0.00000000E+00
  0.00000000E+00  0.00000000E+00  0.00000000E+00
  0.00000000E+00  0.00000000E+00  0.00000000E+00
