Ta  N Ru                                
   1.00000000000000     
     9.0548154099999998    0.0000000000000000    0.0000000000000000
     0.0000000000000000   11.6775998899999998    0.0000000000000000
     0.0000000000000000    0.0000000000000000   23.4818170799999990
   Ta   N    Ru
    60    60     1
Selective dynamics
Direct
  0.0000000000000000  0.0000000000000000  0.2546926809530987   F   F   F
  0.6670845899906297  0.1250000003211298  0.2638822399803757   F   F   F
  0.3329153514769843  0.1250000003211298  0.2638822399803757   F   F   F
  0.4999999994478088  0.2499999997859135  0.3618861993156202   F   F   F
  0.1650707596845180  0.1250000003211298  0.3684425577811794   F   F   F
  0.8349292403154820  0.1250000003211298  0.3684425577811794   F   F   F
  0.0002834268658261  0.2500012003044303  0.4798150930553298   T   T   T
  0.6648647344697011  0.1249767743258902  0.4782884360835978   T   T   T
  0.3352740860715849  0.1249764524612648  0.4785694465042665   T   T   T
  0.4979507139041430  0.2501069294041776  0.5911843435485185   T   T   T
  0.1669406119813306  0.1249426850003898  0.5906672415665164   T   T   T
  0.8318880916167729  0.1249458262995232  0.5898250017750016   T   T   T
  0.9986796460878801  0.2496819197046592  0.7034718552845325   T   T   T
  0.6731802704363985  0.1249280077886063  0.7033388029645851   T   T   T
  0.3426174202882753  0.1248831117931454  0.7043547192866759   T   T   T
  0.0000000000000000  0.2499999997859135  0.2546926809530987   F   F   F
  0.6670845899906297  0.3750000001070433  0.2638822399803757   F   F   F
  0.3329153514769843  0.3750000001070433  0.2638822399803757   F   F   F
  0.4999999994478088  0.5000000004281731  0.3618861993156202   F   F   F
  0.1650707596845180  0.3750000001070433  0.3684425577811794   F   F   F
  0.8349292403154820  0.3750000001070433  0.3684425577811794   F   F   F
  0.0000979626925311  0.4997511386076277  0.4797345276185135   T   T   T
  0.6647205528675123  0.3749654272271222  0.4780073411226219   T   T   T
  0.3351750193679077  0.3748753401992259  0.4781775311330738   T   T   T
  0.5001098343870625  0.4997679838246440  0.5905656712930267   T   T   T
  0.1663781743429555  0.3748491359242197  0.5904392660350910   T   T   T
  0.8321495162926846  0.3748907225052520  0.5898539244218071   T   T   T
  0.0017286171937375  0.5000504292226920  0.7022710876043783   T   T   T
  0.6717633309678146  0.3759269612220443  0.7030866832682835   T   T   T
  0.3321651443864937  0.3788271311367065  0.7040857729522221   T   T   T
  0.0000000000000000  0.5000000004281731  0.2546926809530987   F   F   F
  0.6670845899906297  0.6249999998929567  0.2638822399803757   F   F   F
  0.3329153514769843  0.6249999998929567  0.2638822399803757   F   F   F
  0.4999999994478088  0.7500000002140865  0.3618861993156202   F   F   F
  0.1650707596845180  0.6249999998929567  0.3684425577811794   F   F   F
  0.8349292403154820  0.6249999998929567  0.3684425577811794   F   F   F
  0.0001174793028327  0.7501862075402970  0.4797321576321566   T   T   T
  0.6648646556429029  0.6249754021987030  0.4780129500116367   T   T   T
  0.3350214536197514  0.6249758026654423  0.4781255676325744   T   T   T
  0.5001413707659225  0.7501173216056067  0.5905564556838666   T   T   T
  0.1677523267436546  0.6249417642916645  0.5897650501461111   T   T   T
  0.8324417336505686  0.6249465202002764  0.5897665458061653   T   T   T
  0.0017217767761884  0.7498143462203548  0.7022514098228951   T   T   T
  0.6725382539008693  0.6249271059773158  0.7039524859335601   T   T   T
  0.3303430763937569  0.6248894380153354  0.7036257285900324   T   T   T
  0.0000000000000000  0.7500000002140865  0.2546926809530987   F   F   F
  0.6670845899906297  0.8750000005352163  0.2638822399803757   F   F   F
  0.3329153514769843  0.8750000005352163  0.2638822399803757   F   F   F
  0.4999999994478088  0.0000000000000000  0.3618861993156202   F   F   F
  0.1650707596845180  0.8750000005352163  0.3684425577811794   F   F   F
  0.8349292403154820  0.8750000005352163  0.3684425577811794   F   F   F
  0.0002935829712169  0.9999585825234023  0.4798136091835482   T   T   T
  0.6647361670070570  0.8749850449815834  0.4780054660473639   T   T   T
  0.3351941911633727  0.8750824340005795  0.4781734187277896   T   T   T
  0.4979901531617795  0.9997781932421699  0.5911752798734700   T   T   T
  0.1664148216993364  0.8750419866210122  0.5904217460769184   T   T   T
  0.8321715272516570  0.8750107603890417  0.5898487349122055   T   T   T
  0.9987095317112364  0.0001779353715749  0.7034497203618265   T   T   T
  0.6718165331290614  0.8739054871702839  0.7030835511330820   T   T   T
  0.3322301274031145  0.8709898779288712  0.7040490710000140   T   T   T
  0.8141011533980276  0.0000000000000000  0.3013105672926031   F   F   F
  0.4999999994478088  0.0000000000000000  0.2564174481620327   F   F   F
  0.1858988466019724  0.0000000000000000  0.3013105672926031   F   F   F
  0.3088456122590841  0.2499999997859135  0.4099867722441957   F   F   F
  0.0000000000000000  0.2499999997859135  0.3930971035158137   F   F   F
  0.6911543877409159  0.2499999997859135  0.4099867722441957   F   F   F
  0.8026075540650808  0.2500688177876658  0.5219521366534174   T   T   T
  0.4998782036958059  0.2501402938632386  0.5031341265378697   T   T   T
  0.1975464556555952  0.2497967471084319  0.5225968069801201   T   T   T
  0.3014369702004234  0.2507076227239816  0.6351609055463419   T   T   T
  0.9992915129951798  0.2495545328287264  0.6142994994155364   T   T   T
  0.6951309354245873  0.2499751007731227  0.6328561402369696   T   T   T
  0.8054578255029721  0.2505931405132231  0.7398669127728887   T   T   T
  0.4998768060568582  0.2479828757283579  0.7236311702040632   T   T   T
  0.1897436137872418  0.2749085866357918  0.7498783814254147   T   T   T
  0.8141011533980276  0.2499999997859135  0.3013105672926031   F   F   F
  0.4999999994478088  0.2499999997859135  0.2564174481620327   F   F   F
  0.1858988466019724  0.2499999997859135  0.3013105672926031   F   F   F
  0.3088456122590841  0.5000000004281731  0.4099867722441957   F   F   F
  0.0000000000000000  0.5000000004281731  0.3930971035158137   F   F   F
  0.6911543877409159  0.5000000004281731  0.4099867722441957   F   F   F
  0.8023618623725894  0.4998696547052287  0.5219255014346753   T   T   T
  0.4999290854355343  0.4998873208161311  0.5026928216351453   T   T   T
  0.1977533659868044  0.4995676527228801  0.5221181869436304   T   T   T
  0.3040951837226867  0.5004998244991540  0.6328748571354327   T   T   T
  0.9998334231434493  0.5002416056533252  0.6136447647797558   T   T   T
  0.6961467309950818  0.5003349624860249  0.6328429637554190   T   T   T
  0.8070436330788596  0.5000537354981895  0.7399750739064452   T   T   T
  0.5014926637805809  0.4992901945534862  0.7237742011962496   T   T   T
  0.1953748128414260  0.5033230948524593  0.7402104584753439   T   T   T
  0.8141011533980276  0.5000000004281731  0.3013105672926031   F   F   F
  0.4999999994478088  0.5000000004281731  0.2564174481620327   F   F   F
  0.1858988466019724  0.5000000004281731  0.3013105672926031   F   F   F
  0.3088456122590841  0.7500000002140865  0.4099867722441957   F   F   F
  0.0000000000000000  0.7500000002140865  0.3930971035158137   F   F   F
  0.6911543877409159  0.7500000002140865  0.4099867722441957   F   F   F
  0.8023813605873584  0.7500505812806143  0.5219205658895079   T   T   T
  0.4999433664831857  0.7500590153910581  0.5026929687370669   T   T   T
  0.1977682741493023  0.7503566357281645  0.5221150214109824   T   T   T
  0.3041168326346121  0.7493514286975379  0.6328585809363115   T   T   T
  0.9998500555474648  0.7496404901465591  0.6136340694063167   T   T   T
  0.6961724649941053  0.7495349746191582  0.6328419016480319   T   T   T
  0.8070640316433811  0.7497716309335647  0.7399789532208358   T   T   T
  0.5015219552268145  0.7505305068467626  0.7237602868040179   T   T   T
  0.1954075140275928  0.7465520046182506  0.7401682148648208   T   T   T
  0.8141011533980276  0.7500000002140865  0.3013105672926031   F   F   F
  0.4999999994478088  0.7500000002140865  0.2564174481620327   F   F   F
  0.1858988466019724  0.7500000002140865  0.3013105672926031   F   F   F
  0.3088456122590841  0.0000000000000000  0.4099867722441957   F   F   F
  0.0000000000000000  0.0000000000000000  0.3930971035158137   F   F   F
  0.6911543877409159  0.0000000000000000  0.4099867722441957   F   F   F
  0.8026112595100046  0.9998601398302022  0.5219486989415908   T   T   T
  0.4998951601549775  0.9998006560680512  0.5031271351395624   T   T   T
  0.1975536708173266  0.0001345233363568  0.5225888004647150   T   T   T
  0.3014992227438115  0.9991483405368401  0.6351304661472457   T   T   T
  0.9993100264183551  0.0003326513342815  0.6142779658689344   T   T   T
  0.6951817870315595  0.9998952498902668  0.6328588583053065   T   T   T
  0.8054588506905178  0.9992680512903599  0.7398827813024137   T   T   T
  0.4999145479883598  0.0018372869365499  0.7236210594273594   T   T   T
  0.1897813397062760  0.9749975534247952  0.7498126681359690   T   T   T
  0.1493242300264577  0.1248917529355548  0.7794958866335689   T   T   T
 
  0.00000000E+00  0.00000000E+00  0.00000000E+00
  0.00000000E+00  0.00000000E+00  0.00000000E+00
  0.00000000E+00  0.00000000E+00  0.00000000E+00
  0.00000000E+00  0.00000000E+00  0.00000000E+00
  0.00000000E+00  0.00000000E+00  0.00000000E+00
  0.00000000E+00  0.00000000E+00  0.00000000E+00
  0.00000000E+00  0.00000000E+00  0.00000000E+00
  0.00000000E+00  0.00000000E+00  0.00000000E+00
  0.00000000E+00  0.00000000E+00  0.00000000E+00
  0.00000000E+00  0.00000000E+00  0.00000000E+00
  0.00000000E+00  0.00000000E+00  0.00000000E+00
  0.00000000E+00  0.00000000E+00  0.00000000E+00
  0.00000000E+00  0.00000000E+00  0.00000000E+00
  0.00000000E+00  0.00000000E+00  0.00000000E+00
  0.00000000E+00  0.00000000E+00  0.00000000E+00
  0.00000000E+00  0.00000000E+00  0.00000000E+00
  0.00000000E+00  0.00000000E+00  0.00000000E+00
  0.00000000E+00  0.00000000E+00  0.00000000E+00
  0.00000000E+00  0.00000000E+00  0.00000000E+00
  0.00000000E+00  0.00000000E+00  0.00000000E+00
  0.00000000E+00  0.00000000E+00  0.00000000E+00
  0.00000000E+00  0.00000000E+00  0.00000000E+00
  0.00000000E+00  0.00000000E+00  0.00000000E+00
  0.00000000E+00  0.00000000E+00  0.00000000E+00
  0.00000000E+00  0.00000000E+00  0.00000000E+00
  0.00000000E+00  0.00000000E+00  0.00000000E+00
  0.00000000E+00  0.00000000E+00  0.00000000E+00
  0.00000000E+00  0.00000000E+00  0.00000000E+00
  0.00000000E+00  0.00000000E+00  0.00000000E+00
  0.00000000E+00  0.00000000E+00  0.00000000E+00
  0.00000000E+00  0.00000000E+00  0.00000000E+00
  0.00000000E+00  0.00000000E+00  0.00000000E+00
  0.00000000E+00  0.00000000E+00  0.00000000E+00
  0.00000000E+00  0.00000000E+00  0.00000000E+00
  0.00000000E+00  0.00000000E+00  0.00000000E+00
  0.00000000E+00  0.00000000E+00  0.00000000E+00
  0.00000000E+00  0.00000000E+00  0.00000000E+00
  0.00000000E+00  0.00000000E+00  0.00000000E+00
  0.00000000E+00  0.00000000E+00  0.00000000E+00
  0.00000000E+00  0.00000000E+00  0.00000000E+00
  0.00000000E+00  0.00000000E+00  0.00000000E+00
  0.00000000E+00  0.00000000E+00  0.00000000E+00
  0.00000000E+00  0.00000000E+00  0.00000000E+00
  0.00000000E+00  0.00000000E+00  0.00000000E+00
  0.00000000E+00  0.00000000E+00  0.00000000E+00
  0.00000000E+00  0.00000000E+00  0.00000000E+00
  0.00000000E+00  0.00000000E+00  0.00000000E+00
  0.00000000E+00  0.00000000E+00  0.00000000E+00
  0.00000000E+00  0.00000000E+00  0.00000000E+00
  0.00000000E+00  0.00000000E+00  0.00000000E+00
  0.00000000E+00  0.00000000E+00  0.00000000E+00
  0.00000000E+00  0.00000000E+00  0.00000000E+00
  0.00000000E+00  0.00000000E+00  0.00000000E+00
  0.00000000E+00  0.00000000E+00  0.00000000E+00
  0.00000000E+00  0.00000000E+00  0.00000000E+00
  0.00000000E+00  0.00000000E+00  0.00000000E+00
  0.00000000E+00  0.00000000E+00  0.00000000E+00
  0.00000000E+00  0.00000000E+00  0.00000000E+00
  0.00000000E+00  0.00000000E+00  0.00000000E+00
  0.00000000E+00  0.00000000E+00  0.00000000E+00
  0.00000000E+00  0.00000000E+00  0.00000000E+00
  0.00000000E+00  0.00000000E+00  0.00000000E+00
  0.00000000E+00  0.00000000E+00  0.00000000E+00
  0.00000000E+00  0.00000000E+00  0.00000000E+00
  0.00000000E+00  0.00000000E+00  0.00000000E+00
  0.00000000E+00  0.00000000E+00  0.00000000E+00
  0.00000000E+00  0.00000000E+00  0.00000000E+00
  0.00000000E+00  0.00000000E+00  0.00000000E+00
  0.00000000E+00  0.00000000E+00  0.00000000E+00
  0.00000000E+00  0.00000000E+00  0.00000000E+00
  0.00000000E+00  0.00000000E+00  0.00000000E+00
  0.00000000E+00  0.00000000E+00  0.00000000E+00
  0.00000000E+00  0.00000000E+00  0.00000000E+00
  0.00000000E+00  0.00000000E+00  0.00000000E+00
  0.00000000E+00  0.00000000E+00  0.00000000E+00
  0.00000000E+00  0.00000000E+00  0.00000000E+00
  0.00000000E+00  0.00000000E+00  0.00000000E+00
  0.00000000E+00  0.00000000E+00  0.00000000E+00
  0.00000000E+00  0.00000000E+00  0.00000000E+00
  0.00000000E+00  0.00000000E+00  0.00000000E+00
  0.00000000E+00  0.00000000E+00  0.00000000E+00
  0.00000000E+00  0.00000000E+00  0.00000000E+00
  0.00000000E+00  0.00000000E+00  0.00000000E+00
  0.00000000E+00  0.00000000E+00  0.00000000E+00
  0.00000000E+00  0.00000000E+00  0.00000000E+00
  0.00000000E+00  0.00000000E+00  0.00000000E+00
  0.00000000E+00  0.00000000E+00  0.00000000E+00
  0.00000000E+00  0.00000000E+00  0.00000000E+00
  0.00000000E+00  0.00000000E+00  0.00000000E+00
  0.00000000E+00  0.00000000E+00  0.00000000E+00
  0.00000000E+00  0.00000000E+00  0.00000000E+00
  0.00000000E+00  0.00000000E+00  0.00000000E+00
  0.00000000E+00  0.00000000E+00  0.00000000E+00
  0.00000000E+00  0.00000000E+00  0.00000000E+00
  0.00000000E+00  0.00000000E+00  0.00000000E+00
  0.00000000E+00  0.00000000E+00  0.00000000E+00
  0.00000000E+00  0.00000000E+00  0.00000000E+00
  0.00000000E+00  0.00000000E+00  0.00000000E+00
  0.00000000E+00  0.00000000E+00  0.00000000E+00
  0.00000000E+00  0.00000000E+00  0.00000000E+00
  0.00000000E+00  0.00000000E+00  0.00000000E+00
  0.00000000E+00  0.00000000E+00  0.00000000E+00
  0.00000000E+00  0.00000000E+00  0.00000000E+00
  0.00000000E+00  0.00000000E+00  0.00000000E+00
  0.00000000E+00  0.00000000E+00  0.00000000E+00
  0.00000000E+00  0.00000000E+00  0.00000000E+00
  0.00000000E+00  0.00000000E+00  0.00000000E+00
  0.00000000E+00  0.00000000E+00  0.00000000E+00
  0.00000000E+00  0.00000000E+00  0.00000000E+00
  0.00000000E+00  0.00000000E+00  0.00000000E+00
  0.00000000E+00  0.00000000E+00  0.00000000E+00
  0.00000000E+00  0.00000000E+00  0.00000000E+00
  0.00000000E+00  0.00000000E+00  0.00000000E+00
  0.00000000E+00  0.00000000E+00  0.00000000E+00
  0.00000000E+00  0.00000000E+00  0.00000000E+00
  0.00000000E+00  0.00000000E+00  0.00000000E+00
  0.00000000E+00  0.00000000E+00  0.00000000E+00
  0.00000000E+00  0.00000000E+00  0.00000000E+00
  0.00000000E+00  0.00000000E+00  0.00000000E+00
  0.00000000E+00  0.00000000E+00  0.00000000E+00
  0.00000000E+00  0.00000000E+00  0.00000000E+00
