Ta  N Ru Cu                             
   1.00000000000000     
    18.1096308199999996    0.0000000000000000    0.0000000000000000
     0.0000000000000000   23.3551997799999995    0.0000000000000000
     0.0000000000000000    0.0000000000000000   30.4818171199999988
   Ta   N    Ru   Cu
   192   240    48    29
Selective dynamics
Direct
  0.0000000000000000  0.0000000000000000  0.1972002480802644   F   F   F
  0.3342894068167936  0.0625000001605613  0.2025710526885689   F   F   F
  0.1657105639170098  0.0625000001605613  0.2025710526885689   F   F   F
  0.2499999997239044  0.1249999998929567  0.2777865629601095   F   F   F
  0.0825346300841332  0.0625000001605613  0.2838671249264877   F   F   F
  0.4174653699158668  0.0625000001605613  0.2838671249264877   F   F   F
  0.0005408282148251  0.1244110540146135  0.3697176539986202   T   T   T
  0.3322299305951654  0.0623444320278045  0.3685860448273657   T   T   T
  0.1675619100693228  0.0622261445019061  0.3684824386239947   T   T   T
  0.2484120606737071  0.1237529635054494  0.4567904194796261   T   T   T
  0.0840346672651992  0.0618850635193262  0.4553671497570957   T   T   T
  0.4153975218849998  0.0629628149318073  0.4555219866884505   T   T   T
  0.0000000000000000  0.1249999998929567  0.1972002480802644   F   F   F
  0.3342894068167936  0.1875000000535181  0.2025710526885689   F   F   F
  0.1657105639170098  0.1875000000535181  0.2025710526885689   F   F   F
  0.2499999997239044  0.2500000002140865  0.2777865629601095   F   F   F
  0.0825346300841332  0.1875000000535181  0.2838671249264877   F   F   F
  0.4174653699158668  0.1875000000535181  0.2838671249264877   F   F   F
  0.0011453496734066  0.2501129866220508  0.3697440990507771   T   T   T
  0.3320786010134108  0.1873224619355862  0.3683578130693652   T   T   T
  0.1679105510065058  0.1870906655391958  0.3683824863831004   T   T   T
  0.2457543408989579  0.2497105058781688  0.4547194517331536   T   T   T
  0.0844962518358022  0.1865432965552414  0.4543990362496514   T   T   T
  0.4146022597972256  0.1879766304797846  0.4547345905538128   T   T   T
  0.0000000000000000  0.2500000002140865  0.1972002480802644   F   F   F
  0.3342894068167936  0.3124999999464819  0.2025710526885689   F   F   F
  0.1657105639170098  0.3124999999464819  0.2025710526885689   F   F   F
  0.2499999997239044  0.3750000001070433  0.2777865629601095   F   F   F
  0.0825346300841332  0.3124999999464819  0.2838671249264877   F   F   F
  0.4174653699158668  0.3124999999464819  0.2838671249264877   F   F   F
  0.0008902256540671  0.3747096704336256  0.3700230110200972   T   T   T
  0.3322573100708345  0.3125564797827814  0.3680018440593885   T   T   T
  0.1679751088730371  0.3123917243635255  0.3682215127170095   T   T   T
  0.2511367054129652  0.3746468103651303  0.4561708943445993   T   T   T
  0.0848987172200804  0.3122766161969731  0.4551973752520681   T   T   T
  0.4158713531357425  0.3124043691718626  0.4541391050985378   T   T   T
  0.0000000000000000  0.3750000001070433  0.1972002480802644   F   F   F
  0.3342894068167936  0.4375000002676046  0.2025710526885689   F   F   F
  0.1657105639170098  0.4375000002676046  0.2025710526885689   F   F   F
  0.2499999997239044  0.0000000000000000  0.2777865629601095   F   F   F
  0.0825346300841332  0.4375000002676046  0.2838671249264877   F   F   F
  0.4174653699158668  0.4375000002676046  0.2838671249264877   F   F   F
 -0.0000941599813932  0.0000765510822575  0.3698641242124719   T   T   T
  0.3325929824578451  0.4373513016489948  0.3681985759243308   T   T   T
  0.1682400948938269  0.4372252879232193  0.3685439463828730   T   T   T
  0.2476571906898800  0.0000032963441373  0.4567964686809851   T   T   T
  0.0852745110717242  0.4365437624920208  0.4552942540452689   T   T   T
  0.4178913297380492  0.4372730629294341  0.4541708688258081   T   T   T
  0.0000000000000000  0.5000000000000000  0.1972002480802644   F   F   F
  0.3342894068167936  0.5625000001605613  0.2025710526885689   F   F   F
  0.1657105639170098  0.5625000001605613  0.2025710526885689   F   F   F
  0.2499999997239044  0.6249999998929567  0.2777865629601095   F   F   F
  0.0825346300841332  0.5625000001605613  0.2838671249264877   F   F   F
  0.4174653699158668  0.5625000001605613  0.2838671249264877   F   F   F
 -0.0004021114103428  0.6247124412466315  0.3696922532294759   T   T   T
  0.3326689902800204  0.5625251293902342  0.3679207288596403   T   T   T
  0.1680411690606934  0.5623034652010396  0.3682161118544001   T   T   T
  0.2470978177020213  0.6262524845076304  0.4553355907230380   T   T   T
  0.0861002303690271  0.5618223194584204  0.4553730980021544   T   T   T
  0.4153076740797777  0.5630112088985725  0.4529098206492812   T   T   T
  0.0000000000000000  0.6249999998929567  0.1972002480802644   F   F   F
  0.3342894068167936  0.6875000000535181  0.2025710526885689   F   F   F
  0.1657105639170098  0.6875000000535181  0.2025710526885689   F   F   F
  0.2499999997239044  0.7500000002140865  0.2777865629601095   F   F   F
  0.0825346300841332  0.6875000000535181  0.2838671249264877   F   F   F
  0.4174653699158668  0.6875000000535181  0.2838671249264877   F   F   F
 -0.0014820402359593  0.7501011880189223  0.3696990777134178   T   T   T
  0.3324279895174240  0.6875344619194986  0.3686763976104975   T   T   T
  0.1673146258643045  0.6872616368350533  0.3678084866624690   T   T   T
  0.2482260767303889  0.7504184485102405  0.4547690635762460   T   T   T
  0.0813302826003895  0.6860971617339640  0.4526492793638339   T   T   T
  0.4124202914220716  0.6872557404821984  0.4572185469317021   T   T   T
  0.0000000000000000  0.7500000002140865  0.1972002480802644   F   F   F
  0.3342894068167936  0.8124999999464819  0.2025710526885689   F   F   F
  0.1657105639170098  0.8124999999464819  0.2025710526885689   F   F   F
  0.2499999997239044  0.8750000001070433  0.2777865629601095   F   F   F
  0.0825346300841332  0.8124999999464819  0.2838671249264877   F   F   F
  0.4174653699158668  0.8124999999464819  0.2838671249264877   F   F   F
 -0.0011230760832034  0.8748381672019773  0.3699233760051804   T   T   T
  0.3322978463300129  0.8124870356630003  0.3685000096416911   T   T   T
  0.1673465129524843  0.8124171549379535  0.3677915627093380   T   T   T
  0.2494538189918357  0.8749088649512961  0.4550909591811110   T   T   T
  0.0822259645986402  0.8110151023842226  0.4528301411403949   T   T   T
  0.4134783677446089  0.8120618002142599  0.4554293368002293   T   T   T
  0.0000000000000000  0.8750000001070433  0.1972002480802644   F   F   F
  0.3342894068167936  0.9375000002676046  0.2025710526885689   F   F   F
  0.1657105639170098  0.9375000002676046  0.2025710526885689   F   F   F
  0.2499999997239044  0.5000000000000000  0.2777865629601095   F   F   F
  0.0825346300841332  0.9375000002676046  0.2838671249264877   F   F   F
  0.4174653699158668  0.9375000002676046  0.2838671249264877   F   F   F
  0.0012262362887260  0.4996098583672766  0.3700470570788036   T   T   T
  0.3323882265682655  0.9375803037168384  0.3683377295259123   T   T   T
  0.1676446531169074  0.9375177943592414  0.3683058208624089   T   T   T
  0.2483980155321812  0.5002409298041161  0.4551236838120156   T   T   T
  0.0839900406839699  0.9366313504188197  0.4545779614850344   T   T   T
  0.4159570401698695  0.9376346836988517  0.4546912444759034   T   T   T
  0.5000000000000000  0.0000000000000000  0.1972002480802644   F   F   F
  0.8342894062646025  0.0625000001605613  0.2025710526885689   F   F   F
  0.6657105639170098  0.0625000001605613  0.2025710526885689   F   F   F
  0.7499999997239044  0.1249999998929567  0.2777865629601095   F   F   F
  0.5825346300841332  0.0625000001605613  0.2838671249264877   F   F   F
  0.9174653699158668  0.0625000001605613  0.2838671249264877   F   F   F
  0.4996364903576471  0.1250375234794678  0.3700123536723136   T   T   T
  0.8319931183481057  0.0623925197970988  0.3678769221613947   T   T   T
  0.6669988413360288  0.0625302764922278  0.3686227404211189   T   T   T
  0.7488391782358790  0.1265842117448053  0.4545319774042317   T   T   T
  0.5823711011555082  0.0629701900373385  0.4554404109450388   T   T   T
  0.9156880142251703  0.0633233880570264  0.4544647780778476   T   T   T
  0.5000000000000000  0.1249999998929567  0.1972002480802644   F   F   F
  0.8342894062646025  0.1875000000535181  0.2025710526885689   F   F   F
  0.6657105639170098  0.1875000000535181  0.2025710526885689   F   F   F
  0.7499999997239044  0.2500000002140865  0.2777865629601095   F   F   F
  0.5825346300841332  0.1875000000535181  0.2838671249264877   F   F   F
  0.9174653699158668  0.1875000000535181  0.2838671249264877   F   F   F
  0.5000047273762580  0.2500468096829896  0.3698249527565016   T   T   T
  0.8324602824815429  0.1875793100995387  0.3675205752963268   T   T   T
  0.6674684966808335  0.1876612539453142  0.3683600563426737   T   T   T
  0.7501049683960477  0.2498835513758291  0.4539765320236955   T   T   T
  0.5831403224511400  0.1878968847121877  0.4547296797206283   T   T   T
  0.9170053122313686  0.1876865422523965  0.4524385319299753   T   T   T
  0.5000000000000000  0.2500000002140865  0.1972002480802644   F   F   F
  0.8342894062646025  0.3124999999464819  0.2025710526885689   F   F   F
  0.6657105639170098  0.3124999999464819  0.2025710526885689   F   F   F
  0.7499999997239044  0.3750000001070433  0.2777865629601095   F   F   F
  0.5825346300841332  0.3124999999464819  0.2838671249264877   F   F   F
  0.9174653699158668  0.3124999999464819  0.2838671249264877   F   F   F
  0.5006750663432213  0.3749786595202579  0.3698555877405050   T   T   T
  0.8328350153768223  0.3127419266948014  0.3680370842634400   T   T   T
  0.6678691510115109  0.3127545659907497  0.3684047163086216   T   T   T
  0.7501028734838678  0.3764088067077009  0.4566550334536198   T   T   T
  0.5841676621490126  0.3130200974692202  0.4547383352812867   T   T   T
  0.9165743760036189  0.3120795610847492  0.4548998958809252   T   T   T
  0.5000000000000000  0.3750000001070433  0.1972002480802644   F   F   F
  0.8342894062646025  0.4375000002676046  0.2025710526885689   F   F   F
  0.6657105639170098  0.4375000002676046  0.2025710526885689   F   F   F
  0.7499999997239044  0.0000000000000000  0.2777865629601095   F   F   F
  0.5825346300841332  0.4375000002676046  0.2838671249264877   F   F   F
  0.9174653699158668  0.4375000002676046  0.2838671249264877   F   F   F
  0.4999838568186872  0.0001617095536426  0.3701225293593589   T   T   T
  0.8329791610071345  0.4374066977761366  0.3685111987591006   T   T   T
  0.6682850722207148  0.4375817406089900  0.3686815115373563   T   T   T
  0.7487190208966410  0.0004902911242868  0.4554536783746749   T   T   T
  0.5854174010104564  0.4375382940008660  0.4555433960942716   T   T   T
  0.9182416676944187  0.4372214730315575  0.4553005164453564   T   T   T
  0.5000000000000000  0.5000000000000000  0.1972002480802644   F   F   F
  0.8342894062646025  0.5625000001605613  0.2025710526885689   F   F   F
  0.6657105639170098  0.5625000001605613  0.2025710526885689   F   F   F
  0.7499999997239044  0.6249999998929567  0.2777865629601095   F   F   F
  0.5825346300841332  0.5625000001605613  0.2838671249264877   F   F   F
  0.9174653699158668  0.5625000001605613  0.2838671249264877   F   F   F
  0.4990212466351757  0.6251115511686151  0.3698463148396535   T   T   T
  0.8324104319059339  0.5623372677926164  0.3679929550245748   T   T   T
  0.6676941692379205  0.5626526643578681  0.3684133903414064   T   T   T
  0.7483845520010662  0.6261565212837439  0.4545232445084157   T   T   T
  0.5840085982941289  0.5631619882390310  0.4543132472475955   T   T   T
  0.9169857416611661  0.5624416735681415  0.4536114410630700   T   T   T
  0.5000000000000000  0.6249999998929567  0.1972002480802644   F   F   F
  0.8342894062646025  0.6875000000535181  0.2025710526885689   F   F   F
  0.6657105639170098  0.6875000000535181  0.2025710526885689   F   F   F
  0.7499999997239044  0.7500000002140865  0.2777865629601095   F   F   F
  0.5825346300841332  0.6875000000535181  0.2838671249264877   F   F   F
  0.9174653699158668  0.6875000000535181  0.2838671249264877   F   F   F
  0.4984607766984549  0.7502478907846013  0.3700647735075874   T   T   T
  0.8318158969135807  0.6876502584511484  0.3680330330832156   T   T   T
  0.6666558303545448  0.6876622634082343  0.3683454309174511   T   T   T
  0.7484410139748263  0.7512990217760823  0.4563903064354939   T   T   T
  0.5808721470175940  0.6875546942810171  0.4540071155259957   T   T   T
  0.9145001324878246  0.6872092423432862  0.4536997475695267   T   T   T
  0.5000000000000000  0.7500000002140865  0.1972002480802644   F   F   F
  0.8342894062646025  0.8124999999464819  0.2025710526885689   F   F   F
  0.6657105639170098  0.8124999999464819  0.2025710526885689   F   F   F
  0.7499999997239044  0.8750000001070433  0.2777865629601095   F   F   F
  0.5825346300841332  0.8124999999464819  0.2838671249264877   F   F   F
  0.9174653699158668  0.8124999999464819  0.2838671249264877   F   F   F
  0.4997772437494866  0.8752756084998237  0.3701298390773232   T   T   T
  0.8319810503957370  0.8125124114676922  0.3686722418818725   T   T   T
  0.6668189403324848  0.8125394872841081  0.3687783729890354   T   T   T
  0.7512244180913487  0.8750863196810532  0.4563702909206734   T   T   T
  0.5833677445733914  0.8117351734385543  0.4556486702662537   T   T   T
  0.9148129804136326  0.8122872631195266  0.4573804740357519   T   T   T
  0.5000000000000000  0.8750000001070433  0.1972002480802644   F   F   F
  0.8342894062646025  0.9375000002676046  0.2025710526885689   F   F   F
  0.6657105639170098  0.9375000002676046  0.2025710526885689   F   F   F
  0.7499999997239044  0.5000000000000000  0.2777865629601095   F   F   F
  0.5825346300841332  0.9375000002676046  0.2838671249264877   F   F   F
  0.9174653699158668  0.9375000002676046  0.2838671249264877   F   F   F
  0.5010801972973463  0.4999700056684386  0.3696919159989845   T   T   T
  0.8319021282398753  0.9374137059887219  0.3684806563492337   T   T   T
  0.6669213581616340  0.9373885955350183  0.3689879164895781   T   T   T
  0.7541011588010440  0.5015995580205572  0.4561909920804260   T   T   T
  0.5847532639494823  0.9378925229344014  0.4561886583543200   T   T   T
  0.9163388627908221  0.9379614161909179  0.4541292014686500   T   T   T
  0.4058866008042799  0.0000000000000000  0.2322132027086568   F   F   F
  0.2499999997239044  0.0000000000000000  0.1996562655205665   F   F   F
  0.0941133991957201  0.0000000000000000  0.2322132027086568   F   F   F
  0.1545990962481767  0.1249999998929567  0.3156671842807413   F   F   F
  0.0000000000000000  0.1249999998929567  0.3032267790298775   F   F   F
  0.3454009037518233  0.1249999998929567  0.3156671842807413   F   F   F
  0.4007419412547328  0.1248080711397663  0.4026856834744160   T   T   T
  0.2499517419210042  0.1242926706235892  0.3882639718281550   T   T   T
  0.0997607870928881  0.1240499196463791  0.4023462154369739   T   T   T
  0.1506992735947583  0.1243998634255883  0.4886012950247304   T   T   T
 -0.0008375002071643  0.1243528259588790  0.4726184205820804   T   T   T
  0.3486458128341741  0.1255724777864338  0.4870410796567115   T   T   T
  0.4346233014563216  0.1529833843860624  0.5861545832216651   T   T   T
  0.2874375070657025  0.1289890269146813  0.5657200893421587   T   T   T
  0.0759302235531588  0.1185595309999426  0.5708921644353043   T   T   T
  0.4058866008042799  0.1249999998929567  0.2322132027086568   F   F   F
  0.2499999997239044  0.1249999998929567  0.1996562655205665   F   F   F
  0.0941133991957201  0.1249999998929567  0.2322132027086568   F   F   F
  0.1545990962481767  0.2500000002140865  0.3156671842807413   F   F   F
  0.0000000000000000  0.2500000002140865  0.3032267790298775   F   F   F
  0.3454009037518233  0.2500000002140865  0.3156671842807413   F   F   F
  0.4004911867399726  0.2502230989437900  0.4017416506313597   T   T   T
  0.2497345547354328  0.2498753289297134  0.3867920611836460   T   T   T
  0.1002831987508799  0.2499833694574793  0.4022691521982137   T   T   T
  0.1493745765764183  0.2478789059131560  0.4882680985389135   T   T   T
 -0.0000999241641304  0.2500022763099489  0.4722597164990284   T   T   T
  0.3426676969687713  0.2498662873191966  0.4842565978188835   T   T   T
  0.3946200674925557  0.2635546464426090  0.5591766797484805   T   T   T
  0.2205038325470145  0.2709270025307783  0.5735195936087977   T   T   T
  0.0707982285757959  0.2513083707021884  0.5721140638601908   T   T   T
  0.4058866008042799  0.2500000002140865  0.2322132027086568   F   F   F
  0.2499999997239044  0.2500000002140865  0.1996562655205665   F   F   F
  0.0941133991957201  0.2500000002140865  0.2322132027086568   F   F   F
  0.1545990962481767  0.3750000001070433  0.3156671842807413   F   F   F
  0.0000000000000000  0.3750000001070433  0.3032267790298775   F   F   F
  0.3454009037518233  0.3750000001070433  0.3156671842807413   F   F   F
  0.4014616019558264  0.3746787811631566  0.4017968272036588   T   T   T
  0.2504453673605346  0.3748144183431311  0.3876707137585529   T   T   T
  0.1001154485212361  0.3743482356491172  0.4026549159921500   T   T   T
  0.1536151886700230  0.3746040814959187  0.4890709759280678   T   T   T
  0.0014291132186866  0.3752565535540385  0.4743503190163855   T   T   T
  0.3521176294875565  0.3736946556593981  0.4861106534731515   T   T   T
  0.4342536910652354  0.3741911034562492  0.5823346215543415   T   T   T
  0.2765205958126669  0.3819587715027099  0.5584706508155614   T   T   T
  0.0852456115568077  0.3665536963516149  0.5753815720341194   T   T   T
  0.4058866008042799  0.3750000001070433  0.2322132027086568   F   F   F
  0.2499999997239044  0.3750000001070433  0.1996562655205665   F   F   F
  0.0941133991957201  0.3750000001070433  0.2322132027086568   F   F   F
  0.1545990962481767  0.0000000000000000  0.3156671842807413   F   F   F
  0.0000000000000000  0.0000000000000000  0.3032267790298775   F   F   F
  0.3454009037518233  0.0000000000000000  0.3156671842807413   F   F   F
  0.4007714487331588  0.0005889542136515  0.4024144791726526   T   T   T
  0.2499262111755201 -0.0000314340328231  0.3882525133268718   T   T   T
  0.0992455654518013 -0.0003764329453111  0.4023521745338076   T   T   T
  0.1478584393701448 -0.0022192055885542  0.4877443039186054   T   T   T
 -0.0015693897937231 -0.0004647775407163  0.4723200396931311   T   T   T
  0.3471776596891690 -0.0001602204164900  0.4860892712026492   T   T   T
  0.3970988964537595  0.0224528809714857  0.5637673599291995   T   T   T
  0.2238716005531925  0.0139265625381396  0.5592452660290154   T   T   T
  0.0642501582652932  0.0037534024555999  0.5764326955168878   T   T   T
  0.4058866008042799  0.5000000000000000  0.2322132027086568   F   F   F
  0.2499999997239044  0.5000000000000000  0.1996562655205665   F   F   F
  0.0941133991957201  0.5000000000000000  0.2322132027086568   F   F   F
  0.1545990962481767  0.6249999998929567  0.3156671842807413   F   F   F
  0.0000000000000000  0.6249999998929567  0.3032267790298775   F   F   F
  0.3454009037518233  0.6249999998929567  0.3156671842807413   F   F   F
  0.4001446299888853  0.6260323205912904  0.4025878833383003   T   T   T
  0.2498293196495638  0.6252051777097556  0.3872696864590637   T   T   T
  0.0991013035220662  0.6240136969967635  0.4012400141058367   T   T   T
  0.1489421760142510  0.6264918280527573  0.4855756016358490   T   T   T
 -0.0023357738058466  0.6226036613182615  0.4736448017907940   T   T   T
  0.3431088308091359  0.6250739829219562  0.4883573586340211   T   T   T
  0.3960731255244747  0.6128413211176428  0.5740475982722126   T   T   T
  0.2238927284567789  0.6409557785980843  0.5729570294715319   T   T   T
  0.0610621540887382  0.6368719057743005  0.5807628767559856   T   T   T
  0.4058866008042799  0.6249999998929567  0.2322132027086568   F   F   F
  0.2499999997239044  0.6249999998929567  0.1996562655205665   F   F   F
  0.0941133991957201  0.6249999998929567  0.2322132027086568   F   F   F
  0.1545990962481767  0.7500000002140865  0.3156671842807413   F   F   F
  0.0000000000000000  0.7500000002140865  0.3032267790298775   F   F   F
  0.3454009037518233  0.7500000002140865  0.3156671842807413   F   F   F
  0.3998742453590906  0.7496060313504036  0.4032150145875623   T   T   T
  0.2494274341990310  0.7498721708212391  0.3868876269228855   T   T   T
  0.0982825367691613  0.7497457900123229  0.4006231292928766   T   T   T
  0.1489108423464454  0.7462118682167848  0.4843963384501281   T   T   T
 -0.0013436694983683  0.7500203685153491  0.4718326650572124   T   T   T
  0.3446418882562556  0.7494404648792676  0.4880435369570153   T   T   T
  0.4019497751341625  0.7773333548973518  0.5741361696724846   T   T   T
  0.2457200631820899  0.7682874160106917  0.5572508682316256   T   T   T
  0.0956213430112428  0.7558899100331629  0.5658355658390044   T   T   T
  0.4058866008042799  0.7500000002140865  0.2322132027086568   F   F   F
  0.2499999997239044  0.7500000002140865  0.1996562655205665   F   F   F
  0.0941133991957201  0.7500000002140865  0.2322132027086568   F   F   F
  0.1545990962481767  0.8750000001070433  0.3156671842807413   F   F   F
  0.0000000000000000  0.8750000001070433  0.3032267790298775   F   F   F
  0.3454009037518233  0.8750000001070433  0.3156671842807413   F   F   F
  0.4008139737029643  0.8748254347595533  0.4023333054137437   T   T   T
  0.2499922366170614  0.8751228210361529  0.3872748752702080   T   T   T
  0.0986043513195227  0.8748895159995741  0.4010145503219848   T   T   T
  0.1499361169270812  0.8723444337357638  0.4833107061311998   T   T   T
  0.0015339654016104  0.8757263204937751  0.4729662548087981   T   T   T
  0.3491622199095749  0.8741944377787424  0.4855002885695769   T   T   T
  0.4472411277666313  0.9071088069806829  0.5779254203951060   T   T   T
  0.2959170534299682  0.8936964979750505  0.5649358819802164   T   T   T
  0.1277888345769060  0.8842961596295842  0.5664170712944178   T   T   T
  0.4058866008042799  0.8750000001070433  0.2322132027086568   F   F   F
  0.2499999997239044  0.8750000001070433  0.1996562655205665   F   F   F
  0.0941133991957201  0.8750000001070433  0.2322132027086568   F   F   F
  0.1545990962481767  0.5000000000000000  0.3156671842807413   F   F   F
  0.0000000000000000  0.5000000000000000  0.3032267790298775   F   F   F
  0.3454009037518233  0.5000000000000000  0.3156671842807413   F   F   F
  0.4020066104156658  0.4996608945272517  0.4008618719021375   T   T   T
  0.2505552253304750  0.4998061978088180  0.3871936123431192   T   T   T
  0.1009040666108784  0.4995649762820012  0.4020817678272295   T   T   T
  0.1492435486631126  0.4976769787757956  0.4885241418520681   T   T   T
  0.0046272120030041  0.5001162759751151  0.4716139547052947   T   T   T
  0.3494822349575296  0.4995505452536372  0.4811463909989188   T   T   T
  0.4076614033498999  0.4919399038584680  0.5627756547171493   T   T   T
  0.2599091678534487  0.5098500986462950  0.5499110126910904   T   T   T
  0.1161592474514236  0.5142651545544167  0.5948139897868786   T   T   T
  0.9058866008042799  0.0000000000000000  0.2322132027086568   F   F   F
  0.7499999997239044  0.0000000000000000  0.1996562655205665   F   F   F
  0.5941133991957201  0.0000000000000000  0.2322132027086568   F   F   F
  0.6545990962481767  0.1249999998929567  0.3156671842807413   F   F   F
  0.5000000000000000  0.1249999998929567  0.3032267790298775   F   F   F
  0.8454009037518233  0.1249999998929567  0.3156671842807413   F   F   F
  0.9010228753323539  0.1246140876137509  0.4009749948870796   T   T   T
  0.7498183634208051  0.1249234928716050  0.3868948768208147   T   T   T
  0.5985023305505422  0.1250283368000363  0.4026844025543671   T   T   T
  0.6500185932483734  0.1254782403078798  0.4872676813106758   T   T   T
  0.4996433440112029  0.1258811310272961  0.4748054167905912   T   T   T
  0.8475871811236181  0.1284124812653800  0.4832336878257412   T   T   T
  0.8914172708020581  0.1243998199871971  0.5660039966774163   T   T   T
  0.7426493761178594  0.1407940196495047  0.5544183011555087   T   T   T
  0.5881298156373511  0.1452629296999501  0.5782045127105371   T   T   T
  0.9058866008042799  0.1249999998929567  0.2322132027086568   F   F   F
  0.7499999997239044  0.1249999998929567  0.1996562655205665   F   F   F
  0.5941133991957201  0.1249999998929567  0.2322132027086568   F   F   F
  0.6545990962481767  0.2500000002140865  0.3156671842807413   F   F   F
  0.5000000000000000  0.2500000002140865  0.3032267790298775   F   F   F
  0.8454009037518233  0.2500000002140865  0.3156671842807413   F   F   F
  0.9015927567624462  0.2503202019041559  0.4009254362185464   T   T   T
  0.7503341711613734  0.2504342708845377  0.3864286263913691   T   T   T
  0.5992024228949053  0.2503509423341247  0.4020877050819829   T   T   T
  0.6521106864143624  0.2504290548804937  0.4855262319108135   T   T   T
  0.4990262301399534  0.2504111138930603  0.4714905413005790   T   T   T
  0.8484928349574742  0.2477745986174361  0.4830642198786815   T   T   T
  0.8900404021500307  0.2605207151479619  0.5662914180587275   T   T   T
  0.7452587133257240  0.2430338521862377  0.5605927269098372   T   T   T
  0.5922366314606159  0.2594488352220706  0.5659265499914056   T   T   T
  0.9058866008042799  0.2500000002140865  0.2322132027086568   F   F   F
  0.7499999997239044  0.2500000002140865  0.1996562655205665   F   F   F
  0.5941133991957201  0.2500000002140865  0.2322132027086568   F   F   F
  0.6545990962481767  0.3750000001070433  0.3156671842807413   F   F   F
  0.5000000000000000  0.3750000001070433  0.3032267790298775   F   F   F
  0.8454009037518233  0.3750000001070433  0.3156671842807413   F   F   F
  0.9017160076164032  0.3747279466278355  0.4020571507759276   T   T   T
  0.7505713976546975  0.3751219274872407  0.3881121325622893   T   T   T
  0.5997155676124336  0.3752570981365856  0.4023129214279376   T   T   T
  0.6503879854073153  0.3749968804288162  0.4872131516351764   T   T   T
  0.5012144948435676  0.3747326860437774  0.4725802430109203   T   T   T
  0.8519716761613070  0.3738473739477421  0.4847799374655805   T   T   T
  0.9133312994522199  0.4008116340923713  0.5742828229661489   T   T   T
  0.7556092310911307  0.3798171466113825  0.5487629407223386   T   T   T
  0.5861331300800787  0.3731602029331148  0.5813129837687808   T   T   T
  0.9058866008042799  0.3750000001070433  0.2322132027086568   F   F   F
  0.7499999997239044  0.3750000001070433  0.1996562655205665   F   F   F
  0.5941133991957201  0.3750000001070433  0.2322132027086568   F   F   F
  0.6545990962481767  0.0000000000000000  0.3156671842807413   F   F   F
  0.5000000000000000  0.0000000000000000  0.3032267790298775   F   F   F
  0.8454009037518233  0.0000000000000000  0.3156671842807413   F   F   F
  0.9004634926869245  0.0001125837007047  0.4017241775925838   T   T   T
  0.7494437458482344  0.0000956156959238  0.3874107021692242   T   T   T
  0.5989115423826841  0.0003626105038568  0.4030883185049466   T   T   T
  0.6517204377262591  0.0029229478288437  0.4884774665598725   T   T   T
  0.4989128184487526  0.0012917070427744  0.4735968038258787   T   T   T
  0.8479375417644093  0.0006784837614655  0.4845825022479194   T   T   T
  0.8956051625644661 -0.0169927028080121  0.5659581736259505   T   T   T
  0.7624133143719624  0.0097213220503309  0.5578695571620894   T   T   T
  0.5781246990891989  0.0154550992723368  0.5769529971930011   T   T   T
  0.9058866008042799  0.5000000000000000  0.2322132027086568   F   F   F
  0.7499999997239044  0.5000000000000000  0.1996562655205665   F   F   F
  0.5941133991957201  0.5000000000000000  0.2322132027086568   F   F   F
  0.6545990962481767  0.6249999998929567  0.3156671842807413   F   F   F
  0.5000000000000000  0.6249999998929567  0.3032267790298775   F   F   F
  0.8454009037518233  0.6249999998929567  0.3156671842807413   F   F   F
  0.9002186744431117  0.6245461019458164  0.4014310793970480   T   T   T
  0.7494946531250964  0.6254273696287210  0.3868328533875393   T   T   T
  0.5979374490151778  0.6252514159794118  0.4018807007289071   T   T   T
  0.6489862863131993  0.6277825224534016  0.4854726108038564   T   T   T
  0.4970471844089536  0.6251105947337461  0.4743927283100053   T   T   T
  0.8469071681638071  0.6243978559793973  0.4847503692736022   T   T   T
  0.8842788839002346  0.6235304857614786  0.5668298860739017   T   T   T
  0.7148730315353562  0.6214835605194116  0.5682602257821767   T   T   T
  0.5703102716885875  0.6096775639364743  0.5789571812902113   T   T   T
  0.9058866008042799  0.6249999998929567  0.2322132027086568   F   F   F
  0.7499999997239044  0.6249999998929567  0.1996562655205665   F   F   F
  0.5941133991957201  0.6249999998929567  0.2322132027086568   F   F   F
  0.6545990962481767  0.7500000002140865  0.3156671842807413   F   F   F
  0.5000000000000000  0.7500000002140865  0.3032267790298775   F   F   F
  0.8454009037518233  0.7500000002140865  0.3156671842807413   F   F   F
  0.8996203749935751  0.7507263166776690  0.4022520422359598   T   T   T
  0.7493463523008775  0.7501417950820801  0.3880668978135584   T   T   T
  0.5970953423169146  0.7501746319369437  0.4019432254957462   T   T   T
  0.6475121253879315  0.7468368097903236  0.4844236644326406   T   T   T
  0.4970155376250875  0.7511922654288025  0.4759937257915159   T   T   T
  0.8478642616704514  0.7479672385418948  0.4862445504311199   T   T   T
  0.9140431772745495  0.7596611385317587  0.5715344955164399   T   T   T
  0.7231506843942750  0.7604524951937438  0.5531133153908849   T   T   T
  0.5733732463789470  0.7697310493926804  0.5792615898064616   T   T   T
  0.9058866008042799  0.7500000002140865  0.2322132027086568   F   F   F
  0.7499999997239044  0.7500000002140865  0.1996562655205665   F   F   F
  0.5941133991957201  0.7500000002140865  0.2322132027086568   F   F   F
  0.6545990962481767  0.8750000001070433  0.3156671842807413   F   F   F