Ta  N Cu                                
   1.00000000000000     
     9.0548154099999998    0.0000000000000000    0.0000000000000000
     0.0000000000000000   11.6775998899999998    0.0000000000000000
     0.0000000000000000    0.0000000000000000   23.4818170799999990
   Ta   N    Cu
    60    60     1
Selective dynamics
Direct
  0.0000000000000000  0.0000000000000000  0.2546926809530987   F   F   F
  0.6670845899906297  0.1250000003211298  0.2638822399803757   F   F   F
  0.3329153514769843  0.1250000003211298  0.2638822399803757   F   F   F
  0.4999999994478088  0.2499999997859135  0.3618861993156202   F   F   F
  0.1650707596845180  0.1250000003211298  0.3684425577811794   F   F   F
  0.8349292403154820  0.1250000003211298  0.3684425577811794   F   F   F
  0.0000439328767028  0.2499740269286138  0.4798025551567716   T   T   T
  0.6649889781607414  0.1249825585723265  0.4780585490205381   T   T   T
  0.3350252059845006  0.1249858838600976  0.4780640172154397   T   T   T
  0.5000221343146261  0.2500274187914104  0.5904070670808171   T   T   T
  0.1682768669358975  0.1248763656190756  0.5900764118131289   T   T   T
  0.8318284277923779  0.1248544280916957  0.5900503004647628   T   T   T
  0.0001084258489361  0.2499426345839486  0.7017907721797102   T   T   T
  0.6724223484153878  0.1235542301438108  0.7047102686346108   T   T   T
  0.3276538834812782  0.1235242623634931  0.7047312976376294   T   T   T
  0.0000000000000000  0.2499999997859135  0.2546926809530987   F   F   F
  0.6670845899906297  0.3750000001070433  0.2638822399803757   F   F   F
  0.3329153514769843  0.3750000001070433  0.2638822399803757   F   F   F
  0.4999999994478088  0.5000000004281731  0.3618861993156202   F   F   F
  0.1650707596845180  0.3750000001070433  0.3684425577811794   F   F   F
  0.8349292403154820  0.3750000001070433  0.3684425577811794   F   F   F
  0.0000438945221928  0.5000281865053471  0.4798041895838198   T   T   T
  0.6650649557694004  0.3750019002465678  0.4780348932861651   T   T   T
  0.3349710613672209  0.3750016694477447  0.4780405845114172   T   T   T
  0.5000222389672194  0.4999774423751518  0.5904104708353202   T   T   T
  0.1680933834259566  0.3750021377025530  0.5899901526239568   T   T   T
  0.8320332621725398  0.3750020127696007  0.5899444598763878   T   T   T
  0.0001625797029580  0.5000505636823771  0.7017685399575786   T   T   T
  0.6768488692308900  0.3749962705867423  0.7026297262363109   T   T   T
  0.3235275589260759  0.3750029082752350  0.7028098623556167   T   T   T
  0.0000000000000000  0.5000000004281731  0.2546926809530987   F   F   F
  0.6670845899906297  0.6249999998929567  0.2638822399803757   F   F   F
  0.3329153514769843  0.6249999998929567  0.2638822399803757   F   F   F
  0.4999999994478088  0.7500000002140865  0.3618861993156202   F   F   F
  0.1650707596845180  0.6249999998929567  0.3684425577811794   F   F   F
  0.8349292403154820  0.6249999998929567  0.3684425577811794   F   F   F
  0.0000197555588263  0.7499493781646550  0.4797779246828029   T   T   T
  0.6649891156010953  0.6250189158848469  0.4780591325435210   T   T   T
  0.3350252557692968  0.6250152918196122  0.4780645109294603   T   T   T
  0.5000094102141049  0.7498077144726208  0.5907393058673899   T   T   T
  0.1682822068464208  0.6251268636459841  0.5900797882341574   T   T   T
  0.8318231998512506  0.6251488417510136  0.5900526218167260   T   T   T
  0.0000085923850986  0.7500111011232308  0.7018346942871451   T   T   T
  0.6723985706553083  0.6264171686079988  0.7047173577426300   T   T   T
  0.3276937170229869  0.6264287059660910  0.7047447809372850   T   T   T
  0.0000000000000000  0.7500000002140865  0.2546926809530987   F   F   F
  0.6670845899906297  0.8750000005352163  0.2638822399803757   F   F   F
  0.3329153514769843  0.8750000005352163  0.2638822399803757   F   F   F
  0.4999999994478088  0.0000000000000000  0.3618861993156202   F   F   F
  0.1650707596845180  0.8750000005352163  0.3684425577811794   F   F   F
  0.8349292403154820  0.8750000005352163  0.3684425577811794   F   F   F
  0.0000195267851224  0.0000526735833759  0.4797778878673465   T   T   T
  0.6649297738440941  0.8750012089498453  0.4780805484485524   T   T   T
  0.3350736375618634  0.8750013323665341  0.4780823511828790   T   T   T
  0.5000106570463404  0.0001919280295919  0.5907375641392135   T   T   T
  0.1678944481726135  0.8749986665138558  0.5899727989484922   T   T   T
  0.8321432305876454  0.8749992600022394  0.5899694048700319   T   T   T
  0.0000067647027951  0.9999809612790176  0.7018298308224468   T   T   T
  0.6700736488983723  0.8749802660269401  0.7041217668954272   T   T   T
  0.3299521132836865  0.8749795068832561  0.7041190772037397   T   T   T
  0.8141011533980276  0.0000000000000000  0.3013105672926031   F   F   F
  0.4999999994478088  0.0000000000000000  0.2564174481620327   F   F   F
  0.1858988466019724  0.0000000000000000  0.3013105672926031   F   F   F
  0.3088456122590841  0.2499999997859135  0.4099867722441957   F   F   F
  0.0000000000000000  0.2499999997859135  0.3930971035158137   F   F   F
  0.6911543877409159  0.2499999997859135  0.4099867722441957   F   F   F
  0.8021716082428491  0.2499306590025313  0.5220813427131478   T   T   T
  0.5000145094016027  0.2499855857493989  0.5025192126491612   T   T   T
  0.1979020034660793  0.2499469848954840  0.5221085347901158   T   T   T
  0.3049029734163178  0.2490583552895405  0.6335474847423912   T   T   T
  0.0000572901837795  0.2498640118967673  0.6133528021466497   T   T   T
  0.6952348790618029  0.2489959055067448  0.6334747931077475   T   T   T
  0.8075019112394046  0.2495414804496821  0.7407971215460946   T   T   T
  0.5001919944718533  0.2525028814887194  0.7287220361841499   T   T   T
  0.1927620956300750  0.2495393921620274  0.7408710014216151   T   T   T
  0.8141011533980276  0.2499999997859135  0.3013105672926031   F   F   F
  0.4999999994478088  0.2499999997859135  0.2564174481620327   F   F   F
  0.1858988466019724  0.2499999997859135  0.3013105672926031   F   F   F
  0.3088456122590841  0.5000000004281731  0.4099867722441957   F   F   F
  0.0000000000000000  0.5000000004281731  0.3930971035158137   F   F   F
  0.6911543877409159  0.5000000004281731  0.4099867722441957   F   F   F
  0.8021720054334543  0.5000736050396790  0.5220826634328810   T   T   T
  0.5000142785649414  0.5000176857483708  0.5025207790590671   T   T   T
  0.1979019607402047  0.5000562766504003  0.5221096442472969   T   T   T
  0.3049089485016576  0.5009511146584729  0.6335533972133776   T   T   T
  0.0000582869322554  0.5001418779397574  0.6133473243425300   T   T   T
  0.6952277058270349  0.5010153754888227  0.6334793205978134   T   T   T
  0.8075239135367267  0.5004611647934134  0.7407938481063002   T   T   T
  0.5001967617835513  0.4972429708734722  0.7287714579992299   T   T   T
  0.1927497130159875  0.5004602843708011  0.7408709890566603   T   T   T
  0.8141011533980276  0.5000000004281731  0.3013105672926031   F   F   F
  0.4999999994478088  0.5000000004281731  0.2564174481620327   F   F   F
  0.1858988466019724  0.5000000004281731  0.3013105672926031   F   F   F
  0.3088456122590841  0.7500000002140865  0.4099867722441957   F   F   F
  0.0000000000000000  0.7500000002140865  0.3930971035158137   F   F   F
  0.6911543877409159  0.7500000002140865  0.4099867722441957   F   F   F
  0.8022646177484413  0.7499938987675889  0.5221106922260753   T   T   T
  0.5000044012298113  0.7500494704850220  0.5027603615397731   T   T   T
  0.1977660671796944  0.7499839119507525  0.5221211558607414   T   T   T
  0.3043299616031201  0.7500638321180064  0.6333696717253805   T   T   T
  0.0000271384995516  0.7499829656877547  0.6134478680324970   T   T   T
  0.6957121923335146  0.7500570565193073  0.6333575253033560   T   T   T
  0.8064458246208432  0.7501975331012580  0.7405166616505791   T   T   T
  0.5000246233497263  0.7494111957293675  0.7244690719230822   T   T   T
  0.1935720408864100  0.7502028387303831  0.7405157219692597   T   T   T
  0.8141011533980276  0.7500000002140865  0.3013105672926031   F   F   F
  0.4999999994478088  0.7500000002140865  0.2564174481620327   F   F   F
  0.1858988466019724  0.7500000002140865  0.3013105672926031   F   F   F
  0.3088456122590841  0.0000000000000000  0.4099867722441957   F   F   F
  0.0000000000000000  0.0000000000000000  0.3930971035158137   F   F   F
  0.6911543877409159  0.0000000000000000  0.4099867722441957   F   F   F
  0.8022658353716458  0.0000073420148020  0.5221096524122176   T   T   T
  0.5000042525235826  0.9999525772251170  0.5027597869604261   T   T   T
  0.1977652555682173  0.0000176848508826  0.5221202352449171   T   T   T
  0.3043251901975350  0.9999266616690411  0.6333658554244107   T   T   T
  0.0000276648179977  0.0000200295458059  0.6134477803211311   T   T   T
  0.6957174138700367  0.9999338887677184  0.6333536967067225   T   T   T
  0.8064513252809975  0.9997792826237351  0.7405183866236137   T   T   T
  0.5000249740706363  0.0005426688112808  0.7244609995888937   T   T   T
  0.1935698165121173  0.9997752590133404  0.7405165851349506   T   T   T
  0.5016726027307423  0.3742477974832000  0.7921340627337504   T   T   T
 
  0.00000000E+00  0.00000000E+00  0.00000000E+00
  0.00000000E+00  0.00000000E+00  0.00000000E+00
  0.00000000E+00  0.00000000E+00  0.00000000E+00
  0.00000000E+00  0.00000000E+00  0.00000000E+00
  0.00000000E+00  0.00000000E+00  0.00000000E+00
  0.00000000E+00  0.00000000E+00  0.00000000E+00
  0.00000000E+00  0.00000000E+00  0.00000000E+00
  0.00000000E+00  0.00000000E+00  0.00000000E+00
  0.00000000E+00  0.00000000E+00  0.00000000E+00
  0.00000000E+00  0.00000000E+00  0.00000000E+00
  0.00000000E+00  0.00000000E+00  0.00000000E+00
  0.00000000E+00  0.00000000E+00  0.00000000E+00
  0.00000000E+00  0.00000000E+00  0.00000000E+00
  0.00000000E+00  0.00000000E+00  0.00000000E+00
  0.00000000E+00  0.00000000E+00  0.00000000E+00
  0.00000000E+00  0.00000000E+00  0.00000000E+00
  0.00000000E+00  0.00000000E+00  0.00000000E+00
  0.00000000E+00  0.00000000E+00  0.00000000E+00
  0.00000000E+00  0.00000000E+00  0.00000000E+00
  0.00000000E+00  0.00000000E+00  0.00000000E+00
  0.00000000E+00  0.00000000E+00  0.00000000E+00
  0.00000000E+00  0.00000000E+00  0.00000000E+00
  0.00000000E+00  0.00000000E+00  0.00000000E+00
  0.00000000E+00  0.00000000E+00  0.00000000E+00
  0.00000000E+00  0.00000000E+00  0.00000000E+00
  0.00000000E+00  0.00000000E+00  0.00000000E+00
  0.00000000E+00  0.00000000E+00  0.00000000E+00
  0.00000000E+00  0.00000000E+00  0.00000000E+00
  0.00000000E+00  0.00000000E+00  0.00000000E+00
  0.00000000E+00  0.00000000E+00  0.00000000E+00
  0.00000000E+00  0.00000000E+00  0.00000000E+00
  0.00000000E+00  0.00000000E+00  0.00000000E+00
  0.00000000E+00  0.00000000E+00  0.00000000E+00
  0.00000000E+00  0.00000000E+00  0.00000000E+00
  0.00000000E+00  0.00000000E+00  0.00000000E+00
  0.00000000E+00  0.00000000E+00  0.00000000E+00
  0.00000000E+00  0.00000000E+00  0.00000000E+00
  0.00000000E+00  0.00000000E+00  0.00000000E+00
  0.00000000E+00  0.00000000E+00  0.00000000E+00
  0.00000000E+00  0.00000000E+00  0.00000000E+00
  0.00000000E+00  0.00000000E+00  0.00000000E+00
  0.00000000E+00  0.00000000E+00  0.00000000E+00
  0.00000000E+00  0.00000000E+00  0.00000000E+00
  0.00000000E+00  0.00000000E+00  0.00000000E+00
  0.00000000E+00  0.00000000E+00  0.00000000E+00
  0.00000000E+00  0.00000000E+00  0.00000000E+00
  0.00000000E+00  0.00000000E+00  0.00000000E+00
  0.00000000E+00  0.00000000E+00  0.00000000E+00
  0.00000000E+00  0.00000000E+00  0.00000000E+00
  0.00000000E+00  0.00000000E+00  0.00000000E+00
  0.00000000E+00  0.00000000E+00  0.00000000E+00
  0.00000000E+00  0.00000000E+00  0.00000000E+00
  0.00000000E+00  0.00000000E+00  0.00000000E+00
  0.00000000E+00  0.00000000E+00  0.00000000E+00
  0.00000000E+00  0.00000000E+00  0.00000000E+00
  0.00000000E+00  0.00000000E+00  0.00000000E+00
  0.00000000E+00  0.00000000E+00  0.00000000E+00
  0.00000000E+00  0.00000000E+00  0.00000000E+00
  0.00000000E+00  0.00000000E+00  0.00000000E+00
  0.00000000E+00  0.00000000E+00  0.00000000E+00
  0.00000000E+00  0.00000000E+00  0.00000000E+00
  0.00000000E+00  0.00000000E+00  0.00000000E+00
  0.00000000E+00  0.00000000E+00  0.00000000E+00
  0.00000000E+00  0.00000000E+00  0.00000000E+00
  0.00000000E+00  0.00000000E+00  0.00000000E+00
  0.00000000E+00  0.00000000E+00  0.00000000E+00
  0.00000000E+00  0.00000000E+00  0.00000000E+00
  0.00000000E+00  0.00000000E+00  0.00000000E+00
  0.00000000E+00  0.00000000E+00  0.00000000E+00
  0.00000000E+00  0.00000000E+00  0.00000000E+00
  0.00000000E+00  0.00000000E+00  0.00000000E+00
  0.00000000E+00  0.00000000E+00  0.00000000E+00
  0.00000000E+00  0.00000000E+00  0.00000000E+00
  0.00000000E+00  0.00000000E+00  0.00000000E+00
  0.00000000E+00  0.00000000E+00  0.00000000E+00
  0.00000000E+00  0.00000000E+00  0.00000000E+00
  0.00000000E+00  0.00000000E+00  0.00000000E+00
  0.00000000E+00  0.00000000E+00  0.00000000E+00
  0.00000000E+00  0.00000000E+00  0.00000000E+00
  0.00000000E+00  0.00000000E+00  0.00000000E+00
  0.00000000E+00  0.00000000E+00  0.00000000E+00
  0.00000000E+00  0.00000000E+00  0.00000000E+00
  0.00000000E+00  0.00000000E+00  0.00000000E+00
  0.00000000E+00  0.00000000E+00  0.00000000E+00
  0.00000000E+00  0.00000000E+00  0.00000000E+00
  0.00000000E+00  0.00000000E+00  0.00000000E+00
  0.00000000E+00  0.00000000E+00  0.00000000E+00
  0.00000000E+00  0.00000000E+00  0.00000000E+00
  0.00000000E+00  0.00000000E+00  0.00000000E+00
  0.00000000E+00  0.00000000E+00  0.00000000E+00
  0.00000000E+00  0.00000000E+00  0.00000000E+00
  0.00000000E+00  0.00000000E+00  0.00000000E+00
  0.00000000E+00  0.00000000E+00  0.00000000E+00
  0.00000000E+00  0.00000000E+00  0.00000000E+00
  0.00000000E+00  0.00000000E+00  0.00000000E+00
  0.00000000E+00  0.00000000E+00  0.00000000E+00
  0.00000000E+00  0.00000000E+00  0.00000000E+00
  0.00000000E+00  0.00000000E+00  0.00000000E+00
  0.00000000E+00  0.00000000E+00  0.00000000E+00
  0.00000000E+00  0.00000000E+00  0.00000000E+00
  0.00000000E+00  0.00000000E+00  0.00000000E+00
  0.00000000E+00  0.00000000E+00  0.00000000E+00
  0.00000000E+00  0.00000000E+00  0.00000000E+00
  0.00000000E+00  0.00000000E+00  0.00000000E+00
  0.00000000E+00  0.00000000E+00  0.00000000E+00
  0.00000000E+00  0.00000000E+00  0.00000000E+00
  0.00000000E+00  0.00000000E+00  0.00000000E+00
  0.00000000E+00  0.00000000E+00  0.00000000E+00
  0.00000000E+00  0.00000000E+00  0.00000000E+00
  0.00000000E+00  0.00000000E+00  0.00000000E+00
  0.00000000E+00  0.00000000E+00  0.00000000E+00
  0.00000000E+00  0.00000000E+00  0.00000000E+00
  0.00000000E+00  0.00000000E+00  0.00000000E+00
  0.00000000E+00  0.00000000E+00  0.00000000E+00
  0.00000000E+00  0.00000000E+00  0.00000000E+00
  0.00000000E+00  0.00000000E+00  0.00000000E+00
  0.00000000E+00  0.00000000E+00  0.00000000E+00
  0.00000000E+00  0.00000000E+00  0.00000000E+00
  0.00000000E+00  0.00000000E+00  0.00000000E+00
  0.00000000E+00  0.00000000E+00  0.00000000E+00
  0.00000000E+00  0.00000000E+00  0.00000000E+00
