Ta  N Cu                                
   1.00000000000000     
     9.0548154099999998    0.0000000000000000    0.0000000000000000
     0.0000000000000000   11.6775998899999998    0.0000000000000000
     0.0000000000000000    0.0000000000000000   23.4818170799999990
   Ta   N    Cu
    60    60     1
Selective dynamics
Direct
  0.0000000000000000  0.0000000000000000  0.2546926809530987   F   F   F
  0.6670845899906297  0.1250000003211298  0.2638822399803757   F   F   F
  0.3329153514769843  0.1250000003211298  0.2638822399803757   F   F   F
  0.4999999994478088  0.2499999997859135  0.3618861993156202   F   F   F
  0.1650707596845180  0.1250000003211298  0.3684425577811794   F   F   F
  0.8349292403154820  0.1250000003211298  0.3684425577811794   F   F   F
  0.0001025497756275  0.2499981024007434  0.4798148022317819   T   T   T
  0.6648050825446390  0.1249646188906285  0.4780698378940330   T   T   T
  0.3347078302659740  0.1249720900563622  0.4782224481915386   T   T   T
  0.4994597262816206  0.2500566195647903  0.5910541814601952   T   T   T
  0.1675941409190088  0.1249216117846623  0.5903992704138145   T   T   T
  0.8319454657234068  0.1249265454972713  0.5899402320234143   T   T   T
  0.9998301787057519  0.2493201336829857  0.7017650754761898   T   T   T
  0.6723841586352517  0.1248967399746048  0.7036068766866991   T   T   T
  0.3369268578990987  0.1249193723665231  0.7023565182979141   T   T   T
  0.0000000000000000  0.2499999997859135  0.2546926809530987   F   F   F
  0.6670845899906297  0.3750000001070433  0.2638822399803757   F   F   F
  0.3329153514769843  0.3750000001070433  0.2638822399803757   F   F   F
  0.4999999994478088  0.5000000004281731  0.3618861993156202   F   F   F
  0.1650707596845180  0.3750000001070433  0.3684425577811794   F   F   F
  0.8349292403154820  0.3750000001070433  0.3684425577811794   F   F   F
  0.0000756018225401  0.4999542620182226  0.4797654307153721   T   T   T
  0.6648729655578252  0.3749329412547399  0.4781391648881029   T   T   T
  0.3348698784023836  0.3749157019720986  0.4782625021126699   T   T   T
  0.4998387350448487  0.5000933509994964  0.5908293077812843   T   T   T
  0.1677166379852566  0.3750104528775231  0.5903119136412834   T   T   T
  0.8319198870679677  0.3749774343099219  0.5898781088078734   T   T   T
  0.0010152309940860  0.4998056820182010  0.7020969163581231   T   T   T
  0.6723721742248961  0.3748546773306365  0.7039352911523997   T   T   T
  0.3307915985093817  0.3765966928035278  0.7048958858831919   T   T   T
  0.0000000000000000  0.5000000004281731  0.2546926809530987   F   F   F
  0.6670845899906297  0.6249999998929567  0.2638822399803757   F   F   F
  0.3329153514769843  0.6249999998929567  0.2638822399803757   F   F   F
  0.4999999994478088  0.7500000002140865  0.3618861993156202   F   F   F
  0.1650707596845180  0.6249999998929567  0.3684425577811794   F   F   F
  0.8349292403154820  0.6249999998929567  0.3684425577811794   F   F   F
  0.0000784616952050  0.7499794605950242  0.4797657341011118   T   T   T
  0.6647395472586006  0.6249751354842401  0.4781085439026290   T   T   T
  0.3349480030739392  0.6249776449615176  0.4781722350007342   T   T   T
  0.4998299920473355  0.7497548747044607  0.5908324820720939   T   T   T
  0.1676762511261053  0.6249182302794882  0.5901513660508440   T   T   T
  0.8322535157022150  0.6249201007300864  0.5899263658259989   T   T   T
  0.0010141918240729  0.7500034800297980  0.7020937819716210   T   T   T
  0.6715556390041595  0.6248974451703266  0.7041579624719251   T   T   T
  0.3290563230593948  0.6249022123802083  0.7043397033728725   T   T   T
  0.0000000000000000  0.7500000002140865  0.2546926809530987   F   F   F
  0.6670845899906297  0.8750000005352163  0.2638822399803757   F   F   F
  0.3329153514769843  0.8750000005352163  0.2638822399803757   F   F   F
  0.4999999994478088  0.0000000000000000  0.3618861993156202   F   F   F
  0.1650707596845180  0.8750000005352163  0.3684425577811794   F   F   F
  0.8349292403154820  0.8750000005352163  0.3684425577811794   F   F   F
  0.0001028434806943  0.9999330446583918  0.4798160634280745   T   T   T
  0.6648722175779578  0.8750123957624021  0.4781422823686080   T   T   T
  0.3348735618399679  0.8750252679823599  0.4782636493296207   T   T   T
  0.4994565268141775  0.9997917875684139  0.5910607366115810   T   T   T
  0.1677012820996545  0.8748354552543955  0.5903147519977500   T   T   T
  0.8319327301801105  0.8748872106011099  0.5898766616091392   T   T   T
  0.9998068323734982  0.0004936142051220  0.7017771705974055   T   T   T
  0.6723954581190958  0.8749318547825300  0.7039374661415866   T   T   T
  0.3308008120853452  0.8732115808156768  0.7049063082731565   T   T   T
  0.8141011533980276  0.0000000000000000  0.3013105672926031   F   F   F
  0.4999999994478088  0.0000000000000000  0.2564174481620327   F   F   F
  0.1858988466019724  0.0000000000000000  0.3013105672926031   F   F   F
  0.3088456122590841  0.2499999997859135  0.4099867722441957   F   F   F
  0.0000000000000000  0.2499999997859135  0.3930971035158137   F   F   F
  0.6911543877409159  0.2499999997859135  0.4099867722441957   F   F   F
  0.8022841904773835  0.2499609042559485  0.5220029125905680   T   T   T
  0.4997726222257176  0.2497972569591924  0.5029859201119646   T   T   T
  0.1976261571138582  0.2499794157571263  0.5223218129375171   T   T   T
  0.3030497672870000  0.2507104546412275  0.6341415015426133   T   T   T
  0.9995864341206114  0.2499903658933975  0.6135144445916770   T   T   T
  0.6960614577547325  0.2502978749205828  0.6331275420753223   T   T   T
  0.8076587888801051  0.2495293125017197  0.7403491331695620   T   T   T
  0.5017282982839101  0.2495053569865665  0.7241850165376912   T   T   T
  0.1955051392091481  0.2516342966251386  0.7435895949092322   T   T   T
  0.8141011533980276  0.2499999997859135  0.3013105672926031   F   F   F
  0.4999999994478088  0.2499999997859135  0.2564174481620327   F   F   F
  0.1858988466019724  0.2499999997859135  0.3013105672926031   F   F   F
  0.3088456122590841  0.5000000004281731  0.4099867722441957   F   F   F
  0.0000000000000000  0.5000000004281731  0.3930971035158137   F   F   F
  0.6911543877409159  0.5000000004281731  0.4099867722441957   F   F   F
  0.8023120726061345  0.4999958858635448  0.5220415882893489   T   T   T
  0.4998892947577488  0.4999616964948345  0.5028320402710466   T   T   T
  0.1976493601550497  0.4998915869607785  0.5222485253838220   T   T   T
  0.3039159233495851  0.4999940980294317  0.6334536905133267   T   T   T
  0.9998610307991530  0.4999803956215281  0.6136524770996019   T   T   T
  0.6958966602890226  0.5001281826537675  0.6331605194187063   T   T   T
  0.8071010292833097  0.4999711891306222  0.7403042171959863   T   T   T
  0.5001993371116409  0.4990938237407236  0.7239758429974490   T   T   T
  0.1946438574411223  0.4999207144333058  0.7409549416610703   T   T   T
  0.8141011533980276  0.5000000004281731  0.3013105672926031   F   F   F
  0.4999999994478088  0.5000000004281731  0.2564174481620327   F   F   F
  0.1858988466019724  0.5000000004281731  0.3013105672926031   F   F   F
  0.3088456122590841  0.7500000002140865  0.4099867722441957   F   F   F
  0.0000000000000000  0.7500000002140865  0.3930971035158137   F   F   F
  0.6911543877409159  0.7500000002140865  0.4099867722441957   F   F   F
  0.8023127201296867  0.7499065158365739  0.5220425641470164   T   T   T
  0.4998885954849611  0.7499654954456574  0.5028342899096746   T   T   T
  0.1976490724891288  0.7500141629096144  0.5222510586896183   T   T   T
  0.3039137996693176  0.7498393110430601  0.6334585433911956   T   T   T
  0.9998617770413656  0.7498502704133327  0.6136501817512596   T   T   T
  0.6958997466645247  0.7496957333450431  0.6331596444128283   T   T   T
  0.8071137489802066  0.7498002099419082  0.7403036242274381   T   T   T
  0.5002018802589502  0.7506973108701430  0.7239811667584316   T   T   T
  0.1946395126419909  0.7498709189727940  0.7409588031035540   T   T   T
  0.8141011533980276  0.7500000002140865  0.3013105672926031   F   F   F
  0.4999999994478088  0.7500000002140865  0.2564174481620327   F   F   F
  0.1858988466019724  0.7500000002140865  0.3013105672926031   F   F   F
  0.3088456122590841  0.0000000000000000  0.4099867722441957   F   F   F
  0.0000000000000000  0.0000000000000000  0.3930971035158137   F   F   F
  0.6911543877409159  0.0000000000000000  0.4099867722441957   F   F   F
  0.8022855958009227  0.9999416812465749  0.5220039063615000   T   T   T
  0.4997695646218497  0.0001264146734013  0.5029900270447955   T   T   T
  0.1976234813252181  0.9999184815226536  0.5223243545842265   T   T   T
  0.3030437200466767  0.9991183649453856  0.6341460178198833   T   T   T
  0.9995844675256634  0.9998507585997756  0.6135232424999714   T   T   T
  0.6960636249622906  0.9995220040170358  0.6331279498989816   T   T   T
  0.8076384720023733  0.0002468202115619  0.7403580124215329   T   T   T
  0.5017278842066856  0.0002927688043256  0.7241891468115415   T   T   T
  0.1954922785642732  0.9981755830084350  0.7435938862311099   T   T   T
  0.1415729212684544  0.1249066888288897  0.7917614358037059   T   T   T
 
  0.00000000E+00  0.00000000E+00  0.00000000E+00
  0.00000000E+00  0.00000000E+00  0.00000000E+00
  0.00000000E+00  0.00000000E+00  0.00000000E+00
  0.00000000E+00  0.00000000E+00  0.00000000E+00
  0.00000000E+00  0.00000000E+00  0.00000000E+00
  0.00000000E+00  0.00000000E+00  0.00000000E+00
  0.00000000E+00  0.00000000E+00  0.00000000E+00
  0.00000000E+00  0.00000000E+00  0.00000000E+00
  0.00000000E+00  0.00000000E+00  0.00000000E+00
  0.00000000E+00  0.00000000E+00  0.00000000E+00
  0.00000000E+00  0.00000000E+00  0.00000000E+00
  0.00000000E+00  0.00000000E+00  0.00000000E+00
  0.00000000E+00  0.00000000E+00  0.00000000E+00
  0.00000000E+00  0.00000000E+00  0.00000000E+00
  0.00000000E+00  0.00000000E+00  0.00000000E+00
  0.00000000E+00  0.00000000E+00  0.00000000E+00
  0.00000000E+00  0.00000000E+00  0.00000000E+00
  0.00000000E+00  0.00000000E+00  0.00000000E+00
  0.00000000E+00  0.00000000E+00  0.00000000E+00
  0.00000000E+00  0.00000000E+00  0.00000000E+00
  0.00000000E+00  0.00000000E+00  0.00000000E+00
  0.00000000E+00  0.00000000E+00  0.00000000E+00
  0.00000000E+00  0.00000000E+00  0.00000000E+00
  0.00000000E+00  0.00000000E+00  0.00000000E+00
  0.00000000E+00  0.00000000E+00  0.00000000E+00
  0.00000000E+00  0.00000000E+00  0.00000000E+00
  0.00000000E+00  0.00000000E+00  0.00000000E+00
  0.00000000E+00  0.00000000E+00  0.00000000E+00
  0.00000000E+00  0.00000000E+00  0.00000000E+00
  0.00000000E+00  0.00000000E+00  0.00000000E+00
  0.00000000E+00  0.00000000E+00  0.00000000E+00
  0.00000000E+00  0.00000000E+00  0.00000000E+00
  0.00000000E+00  0.00000000E+00  0.00000000E+00
  0.00000000E+00  0.00000000E+00  0.00000000E+00
  0.00000000E+00  0.00000000E+00  0.00000000E+00
  0.00000000E+00  0.00000000E+00  0.00000000E+00
  0.00000000E+00  0.00000000E+00  0.00000000E+00
  0.00000000E+00  0.00000000E+00  0.00000000E+00
  0.00000000E+00  0.00000000E+00  0.00000000E+00
  0.00000000E+00  0.00000000E+00  0.00000000E+00
  0.00000000E+00  0.00000000E+00  0.00000000E+00
  0.00000000E+00  0.00000000E+00  0.00000000E+00
  0.00000000E+00  0.00000000E+00  0.00000000E+00
  0.00000000E+00  0.00000000E+00  0.00000000E+00
  0.00000000E+00  0.00000000E+00  0.00000000E+00
  0.00000000E+00  0.00000000E+00  0.00000000E+00
  0.00000000E+00  0.00000000E+00  0.00000000E+00
  0.00000000E+00  0.00000000E+00  0.00000000E+00
  0.00000000E+00  0.00000000E+00  0.00000000E+00
  0.00000000E+00  0.00000000E+00  0.00000000E+00
  0.00000000E+00  0.00000000E+00  0.00000000E+00
  0.00000000E+00  0.00000000E+00  0.00000000E+00
  0.00000000E+00  0.00000000E+00  0.00000000E+00
  0.00000000E+00  0.00000000E+00  0.00000000E+00
  0.00000000E+00  0.00000000E+00  0.00000000E+00
  0.00000000E+00  0.00000000E+00  0.00000000E+00
  0.00000000E+00  0.00000000E+00  0.00000000E+00
  0.00000000E+00  0.00000000E+00  0.00000000E+00
  0.00000000E+00  0.00000000E+00  0.00000000E+00
  0.00000000E+00  0.00000000E+00  0.00000000E+00
  0.00000000E+00  0.00000000E+00  0.00000000E+00
  0.00000000E+00  0.00000000E+00  0.00000000E+00
  0.00000000E+00  0.00000000E+00  0.00000000E+00
  0.00000000E+00  0.00000000E+00  0.00000000E+00
  0.00000000E+00  0.00000000E+00  0.00000000E+00
  0.00000000E+00  0.00000000E+00  0.00000000E+00
  0.00000000E+00  0.00000000E+00  0.00000000E+00
  0.00000000E+00  0.00000000E+00  0.00000000E+00
  0.00000000E+00  0.00000000E+00  0.00000000E+00
  0.00000000E+00  0.00000000E+00  0.00000000E+00
  0.00000000E+00  0.00000000E+00  0.00000000E+00
  0.00000000E+00  0.00000000E+00  0.00000000E+00
  0.00000000E+00  0.00000000E+00  0.00000000E+00
  0.00000000E+00  0.00000000E+00  0.00000000E+00
  0.00000000E+00  0.00000000E+00  0.00000000E+00
  0.00000000E+00  0.00000000E+00  0.00000000E+00
  0.00000000E+00  0.00000000E+00  0.00000000E+00
  0.00000000E+00  0.00000000E+00  0.00000000E+00
  0.00000000E+00  0.00000000E+00  0.00000000E+00
  0.00000000E+00  0.00000000E+00  0.00000000E+00
  0.00000000E+00  0.00000000E+00  0.00000000E+00
  0.00000000E+00  0.00000000E+00  0.00000000E+00
  0.00000000E+00  0.00000000E+00  0.00000000E+00
  0.00000000E+00  0.00000000E+00  0.00000000E+00
  0.00000000E+00  0.00000000E+00  0.00000000E+00
  0.00000000E+00  0.00000000E+00  0.00000000E+00
  0.00000000E+00  0.00000000E+00  0.00000000E+00
  0.00000000E+00  0.00000000E+00  0.00000000E+00
  0.00000000E+00  0.00000000E+00  0.00000000E+00
  0.00000000E+00  0.00000000E+00  0.00000000E+00
  0.00000000E+00  0.00000000E+00  0.00000000E+00
  0.00000000E+00  0.00000000E+00  0.00000000E+00
  0.00000000E+00  0.00000000E+00  0.00000000E+00
  0.00000000E+00  0.00000000E+00  0.00000000E+00
  0.00000000E+00  0.00000000E+00  0.00000000E+00
  0.00000000E+00  0.00000000E+00  0.00000000E+00
  0.00000000E+00  0.00000000E+00  0.00000000E+00
  0.00000000E+00  0.00000000E+00  0.00000000E+00
  0.00000000E+00  0.00000000E+00  0.00000000E+00
  0.00000000E+00  0.00000000E+00  0.00000000E+00
  0.00000000E+00  0.00000000E+00  0.00000000E+00
  0.00000000E+00  0.00000000E+00  0.00000000E+00
  0.00000000E+00  0.00000000E+00  0.00000000E+00
  0.00000000E+00  0.00000000E+00  0.00000000E+00
  0.00000000E+00  0.00000000E+00  0.00000000E+00
  0.00000000E+00  0.00000000E+00  0.00000000E+00
  0.00000000E+00  0.00000000E+00  0.00000000E+00
  0.00000000E+00  0.00000000E+00  0.00000000E+00
  0.00000000E+00  0.00000000E+00  0.00000000E+00
  0.00000000E+00  0.00000000E+00  0.00000000E+00
  0.00000000E+00  0.00000000E+00  0.00000000E+00
  0.00000000E+00  0.00000000E+00  0.00000000E+00
  0.00000000E+00  0.00000000E+00  0.00000000E+00
  0.00000000E+00  0.00000000E+00  0.00000000E+00
  0.00000000E+00  0.00000000E+00  0.00000000E+00
  0.00000000E+00  0.00000000E+00  0.00000000E+00
  0.00000000E+00  0.00000000E+00  0.00000000E+00
  0.00000000E+00  0.00000000E+00  0.00000000E+00
  0.00000000E+00  0.00000000E+00  0.00000000E+00
  0.00000000E+00  0.00000000E+00  0.00000000E+00
  0.00000000E+00  0.00000000E+00  0.00000000E+00
