SYSTEM = TaN
ISMEAR = 1
SIGMA = 0.1
LREAL = Auto
ALGO = Fast
IBRION = 2
ISIF = 2
ENCUT = 400
ISPIN = 2
NSW = 500
LPLANE = .TRUE.
NPAR = 4
NSIM = 4
PREC = normal
LASPH = .TRUE.
LORBIT = 11
EDIFFG = -0.002
