Ta  N  W Cu                             
   1.00000000000000     
    18.1096308199999996    0.0000000000000000    0.0000000000000000
     0.0000000000000000   23.3551997799999995    0.0000000000000000
     0.0000000000000000    0.0000000000000000   30.4818171199999988
   Ta   N    W    Cu
   228   240    12    29
Selective dynamics
Direct
  0.0000000000000000  0.0001390252325137  0.1975199438067534   F   F   F
  0.3342412838736450  0.0625524882606214  0.2026450207669512   F   F   F
  0.1657755719445788  0.0626168899759634  0.2027497173308248   F   F   F
  0.2499165818584288  0.1251061201090806  0.2779072422399906   F   F   F
  0.0827778928833993  0.0626426568524678  0.2840939572964913   F   F   F
  0.4170590403062633  0.0625437578226453  0.2839983621417943   F   F   F
  0.9998887645921148  0.1251881657757562  0.3698967958350683   T   T   T
  0.3326469048833668  0.0625311719999667  0.3684295853872906   T   T   T
  0.1674538123214329  0.0626177772422618  0.3682780704134981   T   T   T
  0.2502256213985053  0.1252287799445891  0.4549864379619156   T   T   T
  0.0838271254601886  0.0625834804840306  0.4544757213759494   T   T   T
  0.4162744138251264  0.0623869119987152  0.4544599827677203   T   T   T
  0.9998189446686090  0.1251514567091245  0.5408139226781541   T   T   T
  0.3357179645840502  0.0621405993795365  0.5418581500815585   T   T   T
  0.0000000000000000  0.1251616767818149  0.1975133183198139   F   F   F
  0.3342042940452501  0.1875506058985437  0.2026586193513822   F   F   F
  0.1657719127534278  0.1875901411506646  0.2027378157854329   F   F   F
  0.2499857255904558  0.2501082502878589  0.2779215705672229   F   F   F
  0.0827393898285891  0.1876578347282205  0.2840736935104928   F   F   F
  0.4171118422193203  0.1875393312970601  0.2840150000381243   F   F   F
  0.9998174003284624  0.2501166842887625  0.3699832761815291   T   T   T
  0.3325571285001588  0.1874264923882204  0.3684822600353952   T   T   T
  0.1674310224240470  0.1875252115576806  0.3684108198422144   T   T   T
  0.2499413556610744  0.2494602846444601  0.4547341220452437   T   T   T
  0.0835905217525297  0.1873931851488575  0.4548355148481952   T   T   T
  0.4163146289920656  0.1873028685647088  0.4546606750622649   T   T   T
  0.9993318432865770  0.2498187653208027  0.5414438526672667   T   T   T
  0.3342898579460581  0.1849841471367555  0.5415888993619301   T   T   T
  0.1643394961553533  0.1861014810850619  0.5424308668833783   T   T   T
  0.0000000000000000  0.2501390254466003  0.1975199438067534   F   F   F
  0.3342412838736450  0.3125524880465420  0.2026450207669512   F   F   F
  0.1657755719445788  0.3126168897618840  0.2027497173308248   F   F   F
  0.2499165818584288  0.3751061203231671  0.2779072422399906   F   F   F
  0.0827778928833993  0.3126426566383884  0.2840939572964913   F   F   F
  0.4170590403062633  0.3125437576085659  0.2839983621417943   F   F   F
  0.9998929619214451  0.3749593668680447  0.3698871347200081   T   T   T
  0.3324523357002352  0.3124342608551150  0.3682948644721425   T   T   T
  0.1672736498922606  0.3124863645270962  0.3683107950375716   T   T   T
  0.2495111461527817  0.3750123293697575  0.4542752567293597   T   T   T
  0.0839575283908738  0.3122003175259862  0.4547559135073153   T   T   T
  0.4160151412482234  0.3122003000490375  0.4542110768646253   T   T   T
  0.9997681684391009  0.3755208308688341  0.5411654536893322   T   T   T
  0.3336765516120745  0.3119379146192875  0.5400024738853565   T   T   T
  0.0000000000000000  0.3751616769959014  0.1975133183198139   F   F   F
  0.3342042940452501  0.4375506061126302  0.2026586193513822   F   F   F
  0.1657719127534278  0.4375901413647512  0.2027378157854329   F   F   F
  0.2499857255904558  0.0001082500737724  0.2779215705672229   F   F   F
  0.0827393898285891  0.4376578349423070  0.2840736935104928   F   F   F
  0.4171118422193203  0.4375393315111467  0.2840150000381243   F   F   F
  0.0000075690280975  0.0002643710055027  0.3698391863429011   T   T   T
  0.3323858991365969  0.4375468028289983  0.3683091145393581   T   T   T
  0.1673134130160722  0.4375720146206199  0.3683897110836080   T   T   T
  0.2504393846543580  0.9996749048522839  0.4550172828399670   T   T   T
  0.0832356462480295  0.4375028030796674  0.4546742878475115   T   T   T
  0.4165151758937086  0.4374987801602407  0.4537915632297493   T   T   T
  0.0000401233965916  0.9999947890141822  0.5408977672725385   T   T   T
  0.3333417190521402  0.4370931588867348  0.5389136297671177   T   T   T
  0.1637086045365776  0.4365112119741728  0.5407639946993569   T   T   T
  0.0000000000000000  0.5001390252325137  0.1975199438067534   F   F   F
  0.3342412838736450  0.5625524882606214  0.2026450207669512   F   F   F
  0.1657755719445788  0.5626168899759634  0.2027497173308248   F   F   F
  0.2499165818584288  0.6251061201090806  0.2779072422399906   F   F   F
  0.0827778928833993  0.5626426568524678  0.2840939572964913   F   F   F
  0.4170590403062633  0.5625437578226453  0.2839983621417943   F   F   F
  0.0002415008909782  0.6250736075361867  0.3697969805500945   T   T   T
  0.3325530791555290  0.5626452790597354  0.3683423525499369   T   T   T
  0.1676148557612871  0.5626211745409324  0.3683023418006365   T   T   T
  0.2499859996361339  0.6253896381804093  0.4545377354347521   T   T   T
  0.0841185256640419  0.5627535595221117  0.4547040640769195   T   T   T
  0.4165944183014716  0.5626853471051901  0.4540672271590256   T   T   T
  0.0010144005860562  0.6253825488317415  0.5408611203106203   T   T   T
  0.3343033120400550  0.5623903184474373  0.5394235939432822   T   T   T
  0.0000000000000000  0.6251616767818149  0.1975133183198139   F   F   F
  0.3342042940452501  0.6875506058985437  0.2026586193513822   F   F   F
  0.1657719127534278  0.6875901411506646  0.2027378157854329   F   F   F
  0.2499857255904558  0.7501082502878589  0.2779215705672229   F   F   F
  0.0827393898285891  0.6876578347282205  0.2840736935104928   F   F   F
  0.4171118422193203  0.6875393312970601  0.2840150000381243   F   F   F
  0.0001895538904208  0.7501925927351227  0.3697682019366832   T   T   T
  0.3326201664938959  0.6877110197022239  0.3684013154341099   T   T   T
  0.1677286666046868  0.6876967416693091  0.3682914466338036   T   T   T
  0.2498639280753155  0.7500755458224719  0.4547059694744341   T   T   T
  0.0838650747637386  0.6877804158937889  0.4544803657790578   T   T   T
  0.4167792190678393  0.6879318819101222  0.4544105854232414   T   T   T
  0.0004685978342545  0.7503650375900645  0.5402955560129745   T   T   T
  0.3311992601314719  0.6879681237280668  0.5399222854025748   T   T   T
  0.1631609424704977  0.6890348023012554  0.5418861542592590   T   T   T
  0.0000000000000000  0.7501390254466003  0.1975199438067534   F   F   F
  0.3342412838736450  0.8125524880465420  0.2026450207669512   F   F   F
  0.1657755719445788  0.8126168897618840  0.2027497173308248   F   F   F
  0.2499165818584288  0.8751061203231671  0.2779072422399906   F   F   F
  0.0827778928833993  0.8126426566383884  0.2840939572964913   F   F   F
  0.4170590403062633  0.8125437576085659  0.2839983621417943   F   F   F
  0.0001008991017592  0.8751972100959491  0.3697628341050838   T   T   T
  0.3327409883758620  0.8127300728404320  0.3684967778893202   T   T   T
  0.1676737058929005  0.8127331357983028  0.3682009856346840   T   T   T
  0.2503797735339682  0.8755520167435635  0.4549768789576112   T   T   T
  0.0838089562934345  0.8129155032328286  0.4541823227252544   T   T   T
  0.4165118812976124  0.8127290519398075  0.4547081468702215   T   T   T
  0.0001545040784207  0.8753996188846678  0.5405648947772320   T   T   T
  0.3309813269908752  0.8137132629016148  0.5405543861663243   T   T   T
  0.0000000000000000  0.8751616769959014  0.1975133183198139   F   F   F
  0.3342042940452501  0.9375506061126302  0.2026586193513822   F   F   F
  0.1657719127534278  0.9375901413647512  0.2027378157854329   F   F   F
  0.2499857255904558  0.5001082500737724  0.2779215705672229   F   F   F
  0.0827393898285891  0.9376578349423070  0.2840736935104928   F   F   F
  0.4171118422193203  0.9375393315111467  0.2840150000381243   F   F   F
  0.0001548968388884  0.5002407277435259  0.3698035341618807   T   T   T
  0.3326571844184271  0.9376300095393573  0.3685173004854549   T   T   T
  0.1676309275505527  0.9377143690750716  0.3683265930191097   T   T   T
  0.2493428772778896  0.4998291465657211  0.4545492556277003   T   T   T
  0.0835383956302247  0.9377901268964828  0.4543616617003753   T   T   T
  0.4167597745433360  0.9376340324961885  0.4547709671689704   T   T   T
  0.0009245421842555  0.4998434238820680  0.5414773190338640   T   T   T
  0.3346035577352940  0.9383079100771188  0.5419213503001307   T   T   T
  0.1648931275218376  0.9376863481951611  0.5416956276097910   T   T   T
  0.5000000000000000  0.0000124504501144  0.1975155099604819   F   F   F
  0.8342243982370334  0.0626168899759634  0.2027497173308248   F   F   F
  0.6657586868601584  0.0625524882606214  0.2026450207669512   F   F   F
  0.7500834175893800  0.1251061201090806  0.2779072422399906   F   F   F
  0.5829409596937367  0.0625437578226453  0.2839983621417943   F   F   F
  0.9172221071166007  0.0626426568524678  0.2840939572964913   F   F   F
  0.5000049227160394  0.1250491030065074  0.3697559692859959   T   T   T
  0.8324979445913363  0.0626519299549397  0.3682834306035555   T   T   T
  0.6673662681921890  0.0625724594047551  0.3684196108814836   T   T   T
  0.7496804458940359  0.1253559100982827  0.4550332511116487   T   T   T
  0.5836946556384970  0.0624430732383095  0.4544463663119386   T   T   T
  0.9161351023842977  0.0626270147876273  0.4544958322715977   T   T   T
  0.4998726076028616  0.1265344806820297  0.5418012922165985   T   T   T
  0.6642359014803469  0.0622346571320539  0.5418456417628547   T   T   T
  0.5000000000000000  0.1250361037535583  0.1975007818881664   F   F   F
  0.8342280574281844  0.1875901411506646  0.2027378157854329   F   F   F
  0.6657956766885533  0.1875506058985437  0.2026586193513822   F   F   F
  0.7500142738573530  0.2501082502878589  0.2779215705672229   F   F   F
  0.5828881577806797  0.1875393312970601  0.2840150000381243   F   F   F
  0.9172606101714109  0.1876578347282205  0.2840736935104928   F   F   F
  0.5000593826643178  0.2499407085493305  0.3696680724426543   T   T   T
  0.8324727482689830  0.1875952236189618  0.3684416656205403   T   T   T
  0.6674776461242112  0.1874813583676185  0.3684803207683431   T   T   T
  0.7498052403871056  0.2496300587348297  0.4549674148383524   T   T   T
  0.5835615248947372  0.1873065000759416  0.4546932264170036   T   T   T
  0.9161643438119703  0.1875154209719849  0.4549256309107484   T   T   T
  0.8352024204141972  0.1861659358529253  0.5425657526012105   T   T   T
  0.6652090758193930  0.1851095290951610  0.5417022709650702   T   T   T
  0.5000000000000000  0.2500124506642010  0.1975155099604819   F   F   F
  0.8342243982370334  0.3126168897618840  0.2027497173308248   F   F   F
  0.6657586868601584  0.3125524880465420  0.2026450207669512   F   F   F
  0.7500834175893800  0.3751061203231671  0.2779072422399906   F   F   F
  0.5829409596937367  0.3125437576085659  0.2839983621417943   F   F   F
  0.9172221071166007  0.3126426566383884  0.2840939572964913   F   F   F
  0.5001304694446815  0.3749821164180825  0.3695911578219505   T   T   T
  0.8326577625910347  0.3125467184235379  0.3684419867631982   T   T   T
  0.6675389149072831  0.3124778403188699  0.3684482897439728   T   T   T
  0.7506021465299372  0.3751501105920542  0.4547534049313210   T   T   T
  0.5838397528533477  0.3122268792348824  0.4543915925004878   T   T   T
  0.9158338657099356  0.3123334691251337  0.4550842618451202   T   T   T
  0.4995322853054160  0.3761481732616375  0.5408454873434357   T   T   T
  0.6660662779824039  0.3121072475906338  0.5404233713267854   T   T   T
  0.5000000000000000  0.3750361039676449  0.1975007818881664   F   F   F
  0.8342280574281844  0.4375901413647512  0.2027378157854329   F   F   F
  0.6657956766885533  0.4375506061126302  0.2026586193513822   F   F   F
  0.7500142738573530  0.0001082500737724  0.2779215705672229   F   F   F
  0.5828881577806797  0.4375393315111467  0.2840150000381243   F   F   F
  0.9172606101714109  0.4376578349423070  0.2840736935104928   F   F   F
  0.5000219619023216  0.0000467418106824  0.3697088864320404   T   T   T
  0.8327664813030897  0.4375929574065436  0.3683996597346409   T   T   T
  0.6677210634886890  0.4375564768637721  0.3684370006877158   T   T   T
  0.7496306867167259  0.9997608552088407  0.4550118305400727   T   T   T
  0.5838024735091125  0.4376753674138352  0.4541151146172001   T   T   T
  0.9169982399005565  0.4375827186526593  0.4547422436039177   T   T   T
  0.8358917170570326  0.4385268456806500  0.5404020765321335   T   T   T
  0.6672468383638895  0.4373515731248543  0.5392513256271837   T   T   T
  0.5000000000000000  0.5000124504501144  0.1975155099604819   F   F   F
  0.8342243982370334  0.5626168899759634  0.2027497173308248   F   F   F
  0.6657586868601584  0.5625524882606214  0.2026450207669512   F   F   F
  0.7500834175893800  0.6251061201090806  0.2779072422399906   F   F   F
  0.5829409596937367  0.5625437578226453  0.2839983621417943   F   F   F
  0.9172221071166007  0.5626426568524678  0.2840939572964913   F   F   F
  0.5001988018393414  0.6250788608052589  0.3696016587166066   T   T   T
  0.8326860074434197  0.5626578958788839  0.3682479162152917   T   T   T
  0.6677132709603063  0.5626644029860046  0.3683228954577831   T   T   T
  0.7505147033296415  0.6255837557693413  0.4544561905248475   T   T   T
  0.5841172464131175  0.5627621337888273  0.4542951465399234   T   T   T
  0.9164682920662894  0.5629392415570742  0.4544301275751783   T   T   T
  0.5002979042426868  0.6279982620106819  0.5411557612880515   T   T   T
  0.6673555322409837  0.5628886910943189  0.5402178386420448   T   T   T
  0.5000000000000000  0.6250361037535583  0.1975007818881664   F   F   F
  0.8342280574281844  0.6875901411506646  0.2027378157854329   F   F   F
  0.6657956766885533  0.6875506058985437  0.2026586193513822   F   F   F
  0.7500142738573530  0.7501082502878589  0.2779215705672229   F   F   F
  0.5828881577806797  0.6875393312970601  0.2840150000381243   F   F   F
  0.9172606101714109  0.6876578347282205  0.2840736935104928   F   F   F
  0.5000971498619819  0.7501394982317291  0.3696612354374394   T   T   T
  0.8325752617905801  0.6877370684530498  0.3682592866029236   T   T   T
  0.6676484691984406  0.6877070102066875  0.3683979724157024   T   T   T
  0.7506453007704095  0.7502035123712869  0.4546048042740457   T   T   T
  0.5838181752009070  0.6878810205497834  0.4543981464066650   T   T   T
  0.9168498209006074  0.6879045232608709  0.4544062386307929   T   T   T
  0.8379626112355855  0.6892131965946243  0.5416800206742245   T   T   T
  0.6695787127811392  0.6882678143045773  0.5396932800015056   T   T   T
  0.5000000000000000  0.7500124506642010  0.1975155099604819   F   F   F
  0.8342243982370334  0.8126168897618840  0.2027497173308248   F   F   F
  0.6657586868601584  0.8125524880465420  0.2026450207669512   F   F   F
  0.7500834175893800  0.8751061203231671  0.2779072422399906   F   F   F
  0.5829409596937367  0.8125437576085659  0.2839983621417943   F   F   F
  0.9172221071166007  0.8126426566383884  0.2840939572964913   F   F   F
  0.5000518101101316  0.8751431618444876  0.3697473244977475   T   T   T
  0.8325403137393280  0.8127681426177837  0.3681899700863848   T   T   T
  0.6673935752089314  0.8127610786792945  0.3684900147147994   T   T   T
  0.7499722255196475  0.8756827401466731  0.4549385868304776   T   T   T
  0.5838316280521985  0.8127880752132043  0.4546529328098018   T   T   T
  0.9166020058355558  0.8129791216368384  0.4541548213251372   T   T   T
  0.5001482936065126  0.8756690119454315  0.5424368787121313   T   T   T
  0.6696221934211515  0.8139478521508147  0.5403825242988568   T   T   T
  0.5000000000000000  0.8750361039676449  0.1975007818881664   F   F   F
  0.8342280574281844  0.9375901413647512  0.2027378157854329   F   F   F
  0.6657956766885533  0.9375506061126302  0.2026586193513822   F   F   F
  0.7500142738573530  0.5001082500737724  0.2779215705672229   F   F   F
  0.5828881577806797  0.9375393315111467  0.2840150000381243   F   F   F
  0.9172606101714109  0.9376578349423070  0.2840736935104928   F   F   F
  0.5002208293175122  0.5001426695850696  0.3694846029843131   T   T   T
  0.8324467595612615  0.9377475535580320  0.3683268370058884   T   T   T
  0.6674230222390720  0.9376500105156734  0.3685035574849925   T   T   T
  0.7505142701012997  0.5000531975961742  0.4544651912031039   T   T   T
  0.5833475280382175  0.9376694040066973  0.4547487693389977   T   T   T
  0.9166355441657207  0.9378211102099984  0.4543506004613134   T   T   T
  0.8353168106025841  0.9378419868058256  0.5416718814438979   T   T   T
  0.6656411076380240  0.9383949907486058  0.5418598455265882   T   T   T
  0.4055527152454417  0.0000176674112637  0.2322994819279884   F   F   F
  0.2499760956490888  0.0000817538887148  0.1993901219557443   F   F   F
  0.0943479461553451  0.0001388777208149  0.2323544094806351   F   F   F
  0.1550166267014248  0.1251879667799756  0.3158142618956461   F   F   F
  0.0000000000000000  0.1251347497416049  0.3031759986669655   F   F   F
  0.3449847924735749  0.1250905587319195  0.3157902015480474   F   F   F
  0.4010384766143041  0.1250305169407292  0.4023514696619212   T   T   T
  0.2499366381310952  0.1249550658891323  0.3873513944587136   T   T   T
  0.0990221022719855  0.1251284146312263  0.4023839466772774   T   T   T
  0.1522682607399919  0.1246791257078331  0.4877754656506809   T   T   T
  0.9999107605681484  0.1249029265562827  0.4730341354968543   T   T   T
  0.3482602275563863  0.1246203838332293  0.4879236244332175   T   T   T
  0.4018756848922715  0.1246510082604853  0.5707877460396096   T   T   T
  0.2487024579072651  0.1234066929281198  0.5578773507094325   T   T   T
  0.0983142568170682  0.1225016677545096  0.5697505317075893   T   T   T
  0.4055647762755896  0.1250478559876669  0.2322778593924184   F   F   F
  0.2499963880817617  0.1250700397237736  0.1993201636444866   F   F   F
  0.0943339326816997  0.1251306899681524  0.2323645273634227   F   F   F
  0.1549875417840596  0.2501089897489877  0.3157839739822066   F   F   F
  0.0000000000000000  0.2501634985380079  0.3031695767220768   F   F   F
  0.3449474258956187  0.2500679480230517  0.3158140033420480   F   F   F
  0.4009726348024247  0.2498297028275928  0.4022204932383804   T   T   T
  0.2498706506954484  0.2499301376934603  0.3871799382277842   T   T   T
  0.0990395638937378  0.2499404735547562  0.4025119550304349   T   T   T
  0.1527239303892827  0.2494667620169515  0.4884457418128408   T   T   T
  0.9998175998113780  0.2501362430627476  0.4735539544036269   T   T   T
  0.3474431017563640  0.2493095595756865  0.4881076556596385   T   T   T
  0.4040242966183269  0.2471675869033398  0.5699548477317918   T   T   T
  0.2491039506201304  0.2515240577730907  0.5625527835586364   T   T   T
  0.0977959986315656  0.2509269537538594  0.5704555560192611   T   T   T
  0.4055527152454417  0.2500176676253503  0.2322994819279884   F   F   F
  0.2499760956490888  0.2500817541028013  0.1993901219557443   F   F   F
  0.0943479461553451  0.2501388779349014  0.2323544094806351   F   F   F
  0.1550166267014248  0.3751879669940621  0.3158142618956461   F   F   F
  0.0000000000000000  0.3751347499556914  0.3031759986669655   F   F   F
  0.3449847924735749  0.3750905589460061  0.3157902015480474   F   F   F
  0.4010297551238266  0.3749416064671075  0.4019618972482505   T   T   T
  0.2497516118987694  0.3749772606035159  0.3869830713737049   T   T   T
  0.0989291868933380  0.3749028028335906  0.4024154120343518   T   T   T
  0.1519060327269166  0.3742633319804232  0.4876358863093270   T   T   T
  0.9999164838588833  0.3746174779151794  0.4733307635143805   T   T   T
  0.3477352511522912  0.3746551120518388  0.4868886751638547   T   T   T
  0.3997177178835112  0.3761205138039817  0.5695201474979400   T   T   T
  0.2474123300554950  0.3741716407147702  0.5578175363892196   T   T   T
  0.0976112665070264  0.3720930337727057  0.5701561768713064   T   T   T
  0.4055647762755896  0.3750478562017534  0.2322778593924184   F   F   F
  0.2499963880817617  0.3750700399378601  0.1993201636444866   F   F   F
  0.0943339326816997  0.3751306901822389  0.2323645273634227   F   F   F
  0.1549875417840596  0.0001089895349011  0.3157839739822066   F   F   F
  0.0000000000000000  0.0001634983239214  0.3031695767220768   F   F   F
  0.3449474258956187  0.0000679478089651  0.3158140033420480   F   F   F
  0.4011001200581381  0.9999205808241997  0.4023187252674699   T   T   T
  0.2500304759656502  0.0001603428078749  0.3873213355698227   T   T   T
  0.0991482282210707  0.0002321213042530  0.4022655273140798   T   T   T
  0.1523777644807461  0.0002978028660214  0.4876348970670809   T   T   T
  0.0000422654148710  0.0004420286812375  0.4730158522423079   T   T   T
  0.3483260306694114  0.9998075597065024  0.4879711653377802   T   T   T
  0.4065174428238181  0.9989620122504070  0.5698741180754173   T   T   T
  0.2497698545020526  0.0006140967945000  0.5579846548902833   T   T   T
  0.0987154581003470  0.0021063664807369  0.5696840219125733   T   T   T
  0.4055527152454417  0.5000176674112637  0.2322994819279884   F   F   F
  0.2499760956490888  0.5000817538887148  0.1993901219557443   F   F   F
  0.0943479461553451  0.5001388777208149  0.2323544094806351   F   F   F
  0.1550166267014248  0.6251879667799756  0.3158142618956461   F   F   F
  0.0000000000000000  0.6251347497416049  0.3031759986669655   F   F   F
  0.3449847924735749  0.6250905587319195  0.3157902015480474   F   F   F
  0.4012356981967706  0.6252814661626407  0.4021503267049415   T   T   T
  0.2500783028231188  0.6251787997863859  0.3870981257790051   T   T   T
  0.0994117369146059  0.6250951692035522  0.4023814010026354   T   T   T
  0.1525580763268112  0.6252590486061108  0.4881763051708723   T   T   T
  0.0003969041952409  0.6250606892419435  0.4730164931805089   T   T   T
  0.3482586757067079  0.6252122580525583  0.4873352096023372   T   T   T
  0.4008138805176675  0.6244878168178111  0.5698541176786639   T   T   T
  0.2488525303701850  0.6247760868878421  0.5603121542185959   T   T   T
  0.0990564309173813  0.6237691856311797  0.5707784282669667   T   T   T
  0.4055647762755896  0.6250478559876669  0.2322778593924184   F   F   F
  0.2499963880817617  0.6250700397237736  0.1993201636444866   F   F   F
  0.0943339326816997  0.6251306899681524  0.2323645273634227   F   F   F
  0.1549875417840596  0.7501089897489877  0.3157839739822066   F   F   F
  0.0000000000000000  0.7501634985380079  0.3031695767220768   F   F   F
  0.3449474258956187  0.7500679480230517  0.3158140033420480   F   F   F
  0.4013147179019627  0.7502487536219881  0.4023306065208115   T   T   T
  0.2500640754815414  0.7502538327617645  0.3871953998778088   T   T   T
  0.0993265137865227  0.7501959131347335  0.4021742324649141   T   T   T
  0.1518194963944394  0.7507743968873541  0.4875096491592116   T   T   T
  0.0002968617822220  0.7504965741216248  0.4724748156752608   T   T   T
  0.3478859250974596  0.7504252732943070  0.4874970376347479   T   T   T
  0.3999106213197219  0.7497461757101623  0.5699383893120399   T   T   T
  0.2474738787906233  0.7515911442350843  0.5578706528121766   T   T   T
  0.0981958428165828  0.7528788178805527  0.5699538668676969   T   T   T
  0.4055527152454417  0.7500176676253503  0.2322994819279884   F   F   F
  0.2499760956490888  0.7500817541028013  0.1993901219557443   F   F   F
  0.0943479461553451  0.7501388779349014  0.2323544094806351   F   F   F
  0.1550166267014248  0.8751879669940621  0.3158142618956461   F   F   F
  0.0000000000000000  0.8751347499556914  0.3031759986669655   F   F   F
  0.3449847924735749  0.8750905589460061  0.3157902015480474   F   F   F
  0.4012097100478318  0.8751400457408192  0.4024626219016043   T   T   T
  0.2500780477124697  0.8752060542404516  0.3873600472431564   T   T   T
  0.0992565909693943  0.8753035879348796  0.4021322892164207   T   T   T
  0.1519633924272261  0.8752420852145290  0.4874379450771346   T   T   T
  0.0001548085977878  0.8752570755912671  0.4726765216672621   T   T   T
  0.3485750343342874  0.8754321100913418  0.4882865142864876   T   T   T
  0.4005169463242890  0.8740967312683691  0.5724449181369277   T   T   T
  0.2477686677633811  0.8739676875978781  0.5577071468712419   T   T   T
  0.0983176330354540  0.8737647803728023  0.5697643996851751   T   T   T
  0.4055647762755896  0.8750478562017534  0.2322778593924184   F   F   F
  0.2499963880817617  0.8750700399378601  0.1993201636444866   F   F   F
  0.0943339326816997  0.8751306901822389  0.2323645273634227   F   F   F
  0.1549875417840596  0.5001089895349011  0.3157839739822066   F   F   F
  0.0000000000000000  0.5001634983239214  0.3031695767220768   F   F   F
  0.3449474258956187  0.5000679478089651  0.3158140033420480   F   F   F
  0.4013406744564477  0.5000814086099330  0.4019286274793070   T   T   T
  0.2498032833672572  0.5000357705194778  0.3871536683802284   T   T   T
  0.0991092847288597  0.5001894169057227  0.4025028187040922   T   T   T
  0.1515139733791935  0.5005233150884904  0.4884875505101910   T   T   T
  0.0002626143852207  0.5004581538236373  0.4735169110449711   T   T   T
  0.3480215670065407  0.5000630143662307  0.4864835460954223   T   T   T
  0.4033250225209160  0.4982508287708363  0.5687131626960206   T   T   T
  0.2491713455932787  0.5018382700929498  0.5563737074121770   T   T   T
  0.0991461218095250  0.5010775745503311  0.5735768246312836   T   T   T
  0.9056520538446549  0.0001388777208149  0.2323544094806351   F   F   F
  0.7500239037987200  0.0000817538887148  0.1993901219557443   F   F   F
  0.5944472847545583  0.0000176674112637  0.2322994819279884   F   F   F
  0.6550152075264251  0.1250905587319195  0.3157902015480474   F   F   F
  0.5000000000000000  0.1250205524399277  0.3029941087348220   F   F   F
  0.8449833732985752  0.1251879667799756  0.3158142618956461   F   F   F
  0.9008022962741081  0.1251976647761794  0.4024392796877811   T   T   T
  0.7500387604004578  0.1250079240339951  0.3873812996682454   T   T   T
  0.5989902618100744  0.1251000009386972  0.4023639895732027   T   T   T
  0.6516658530938884  0.1246391739639832  0.4879595182154992   T   T   T
  0.4999793296304308  0.1247921554109926  0.4735602174586760   T   T   T
  0.8476221449443160  0.1247206885781368  0.4878430087091861   T   T   T
  0.9013836752206427  0.1226251830014616  0.5698483171687279   T   T   T
  0.7510335898522671  0.1234470866383257  0.5579363420117577   T   T   T
  0.5977229551255534  0.1244949886168106  0.5708246205893436   T   T   T
  0.9056660673183003  0.1251306899681524  0.2323645273634227   F   F   F
  0.7500036113660471  0.1250700397237736  0.1993201636444866   F   F   F
  0.5944352237244104  0.1250478559876669  0.2322778593924184   F   F   F
  0.6550525741043813  0.2500679480230517  0.3158140033420480   F   F   F
  0.5000000000000000  0.2500500500412031  0.3029755829171918   F   F   F
  0.8450124582159404  0.2501089897489877  0.3157839739822066   F   F   F
  0.9007080372233475  0.2500959610913553  0.4026874070787269   T   T   T
  0.7500709882228644  0.2500236097847996  0.3873410682818355   T   T   T
  0.5990669149169162  0.2498279455770710  0.4023389620631406   T   T   T
  0.6521037838945812  0.2495070938187624  0.4883899747593255   T   T   T
  0.4999257738389418  0.2502296514997929  0.4731102147372202   T   T   T
  0.8469103682935765  0.2498159847961204  0.4888128875519612   T   T   T
  0.9008490808810927  0.2512512289719817  0.5710325443222521   T   T   T
  0.7497313212904558  0.2509992266339550  0.5626848905893883   T   T   T
  0.5951133254457304  0.2470035881958547  0.5706616789833492   T   T   T
  0.9056520538446549  0.2501388779349014  0.2323544094806351   F   F   F
  0.7500239037987200  0.2500817541028013  0.1993901219557443   F   F   F
  0.5944472847545583  0.2500176676253503  0.2322994819279884   F   F   F
  0.6550152075264251  0.3750905589460061  0.3157902015480474   F   F   F
  0.5000000000000000  0.3750205526540142  0.3029941087348220   F   F   F
  0.8449833732985752  0.3751879669940621  0.3158142618956461   F   F   F
  0.9009474307285339  0.3749329300662808  0.4026043595673896   T   T   T
  0.7503230274885347  0.3750482091564735  0.3872789028981380   T   T   T
  0.5990769388827744  0.3749942609976895  0.4021636267937174   T   T   T
  0.6522176056526489  0.3748426131974963  0.4872068153959409   T   T   T
  0.4999854359488342  0.3750127562958753  0.4729771926061645   T   T   T
  0.8483604580451543  0.3745020269248414  0.4885146677345779   T   T   T
  0.9020268465860697  0.3737248644725897  0.5730820589067395   T   T   T
  0.7514473225126047  0.3738480592830154  0.5581365230515207   T   T   T
  0.5994935233434414  0.3765517743675754  0.5696561038606736   T   T   T
  0.9056660673183003  0.3751306901822389  0.2323645273634227   F   F   F
  0.7500036113660471  0.3750700399378601  0.1993201636444866   F   F   F
  0.5944352237244104  0.3750478562017534  0.2322778593924184   F   F   F
  0.6550525741043813  0.0000679478089651  0.3158140033420480   F   F   F
  0.5000000000000000  0.0000500498271165  0.3029755829171918   F   F   F
  0.8450124582159404  0.0001089895349011  0.3157839739822066   F   F   F
  0.9008502058155154  0.0002697769467228  0.4022775798566198   T   T   T
  0.7499896890837511  0.0001969903702529  0.3873208523453695   T   T   T
  0.5989593209011551  0.9999589330544780  0.4023120389515887   T   T   T
  0.6517376527546721  0.9998921914168517  0.4879384159736915   T   T   T
  0.5000192175796876  0.0001287482617918  0.4730702922481995   T   T   T
  0.8477066010144982  0.0003676536607091  0.4876483459540242   T   T   T
  0.9014032693389838  0.0022497806011140  0.5697150696443954   T   T   T