Mo  S Cu                                
   1.00000000000000     
    15.9214998300000001    0.0000000000000000    0.0000000000000000
    -7.9622501300000001   13.7910221699999997    0.0000000000000000
     0.0000000000000000    0.0000000000000000   13.5821998300000004
   Mo   S    Ru
    25    50     4
Direct
  0.1308879668400635  0.0646756654500393  0.6739891333620562
  0.1308413986210795  0.2647969118469220  0.6781469450465565
  0.1296786449073153  0.4651580748707858  0.6770593951482553
  0.1321819481408752  0.6654120392013141  0.6776540347758129
  0.1328201568207135  0.8655825639775898  0.6747656813544509
  0.3317123857067656  0.0649906571506520  0.6764726040303088
  0.3297881066840347  0.2626293339297305  0.6798689778647997
  0.3280734412327959  0.4641636353984495  0.6826075344522025
  0.3335229413207941  0.6648318372519242  0.6855106498774788
  0.3329608037874010  0.8662089914997821  0.6777435998279131
  0.5329714289030676  0.0663024947652531  0.6762362615335604
  0.5355194623453841  0.2691729293514911  0.6795907480807273
  0.5379877103297872  0.4606556455620137  0.6699703750042119
  0.5340832927081252  0.6701710189082135  0.6826988043690321
  0.5331667975379943  0.8686470128412509  0.6771949848162890
  0.7329186087764441  0.0668142476103242  0.6755485415678066
  0.7324048175176685  0.2659722374844620  0.6767619228455928
  0.7292603936591036  0.4629203698064472  0.6794370987340770
  0.7358781054674139  0.6686625368607793  0.6796264788236286
  0.7335464985722595  0.8674820546947615  0.6782908880071545
  0.9321913138782563  0.0661476370994762  0.6748213175754074
  0.9315100827520695  0.2654098671430845  0.6754539608105219
  0.9320750697785058  0.4653789279752587  0.6760761716676029
  0.9334394020515049  0.6666828335221808  0.6763054342627797
  0.9337361052084461  0.8675060397999488  0.6739529383290517
  0.0657599069642387  0.1339090343516105  0.5600233849435199
  0.0642088832346701  0.1305069623558737  0.7906136645614481
  0.0660322848925929  0.3325398353385509  0.5617818830991439
  0.0624010869769762  0.3307103073543516  0.7918078797989025
  0.0655818730411397  0.5328791816336818  0.5612457812831622
  0.0634054670510480  0.5322396389973747  0.7923234680297924
  0.0664673064813641  0.7314564897842644  0.5607044617252015
  0.0663439975820737  0.7333694931274835  0.7913765944295790
  0.0662888689573222  0.9321695556006944  0.5584087705151646
  0.0659696016258735  0.9324217031715776  0.7892491984537386
  0.2659710469037577  0.1322181909528553  0.5609585267702357
  0.2600446220522556  0.1258663359887038  0.7910369250525946
  0.2661348464478763  0.3332650874844063  0.5658092827860273
  0.2642982054266483  0.3306149669845411  0.7979672501269874
  0.2667868544848488  0.5336175521927871  0.5675875124890410
  0.2535297720713530  0.5255209642469651  0.8043999316565618
  0.2681244647524892  0.7303424197261208  0.5662212633065522
  0.2650058145517349  0.7333097694544222  0.7946015679355085
  0.2670151919129538  0.9320234438082196  0.5607989466006487
  0.2649676847253133  0.9320192983279227  0.7914671180870627
  0.4672203011780809  0.1352887810927044  0.5633018966452497
  0.4663305248193694  0.1328860918880679  0.7911011006209989
  0.4630994744602361  0.3286660402068335  0.5636256147054723
  0.4348345162468661  0.3043244741965268  0.8228577934963752
  0.4643995897787505  0.5339798276607155  0.5687184147544286
  0.4781122338747110  0.5195242892787988  0.7912813498066882
  0.4648093612021782  0.7315814517230024  0.5676805931456173
  0.4728373223205651  0.7447890404438553  0.8045331926626957
  0.4655177435108797  0.9328164504092697  0.5613895640474666
  0.4660994778710830  0.9349450767355947  0.7924666149739608
  0.6657543190474655  0.1334001769666102  0.5608837577187700
  0.6661095872042395  0.1325342072978515  0.7912662728999678
  0.6653822255719604  0.3329104164516892  0.5640561293570059
  0.6671182349395863  0.3313014595712644  0.8049237737454646
  0.6698325381852825  0.5353828948519563  0.5633834758193856
  0.6939841699821159  0.5632537500291264  0.8219667074123791
  0.6650217631743587  0.7322683993488113  0.5658721697438480
  0.6677505089117588  0.7338498495699284  0.7980313604768341
  0.6657963874236117  0.9322775081172807  0.5619326033922576
  0.6676414920826801  0.9359425022143455  0.7919389637610905
  0.8654069341062112  0.1328536074795892  0.5595170617872327
  0.8657855800854293  0.1326103336131865  0.7903479528622910
  0.8649027753338316  0.3325500852955727  0.5607835607761515
  0.8658915347433975  0.3323072916836551  0.7911801207629168
  0.8631249194495467  0.5311547420755076  0.5631323290157226
  0.8655430923071492  0.5320545292861141  0.7909240241011730
  0.8662948582210959  0.7325315414543425  0.5607860992104534
  0.8725545882845651  0.7383062016407962  0.7909191411809999
  0.8643714155905684  0.9325646300134736  0.5600767310881523
  0.8679242407754657  0.9341664826773410  0.7906457832651910
  0.4215786112703839  0.4161399525792362  0.9119196560027873
  0.5861388654493567  0.4121276000372305  0.8507417508719044
  0.5828488773546923  0.5776440901894091  0.9109240172060282
  0.4077512575208218  0.5905576586681107  0.8541173881435640
 
  0.00000000E+00  0.00000000E+00  0.00000000E+00
  0.00000000E+00  0.00000000E+00  0.00000000E+00
  0.00000000E+00  0.00000000E+00  0.00000000E+00
  0.00000000E+00  0.00000000E+00  0.00000000E+00
  0.00000000E+00  0.00000000E+00  0.00000000E+00
  0.00000000E+00  0.00000000E+00  0.00000000E+00
  0.00000000E+00  0.00000000E+00  0.00000000E+00
  0.00000000E+00  0.00000000E+00  0.00000000E+00
  0.00000000E+00  0.00000000E+00  0.00000000E+00
  0.00000000E+00  0.00000000E+00  0.00000000E+00
  0.00000000E+00  0.00000000E+00  0.00000000E+00
  0.00000000E+00  0.00000000E+00  0.00000000E+00
  0.00000000E+00  0.00000000E+00  0.00000000E+00
  0.00000000E+00  0.00000000E+00  0.00000000E+00
  0.00000000E+00  0.00000000E+00  0.00000000E+00
  0.00000000E+00  0.00000000E+00  0.00000000E+00
  0.00000000E+00  0.00000000E+00  0.00000000E+00
  0.00000000E+00  0.00000000E+00  0.00000000E+00
  0.00000000E+00  0.00000000E+00  0.00000000E+00
  0.00000000E+00  0.00000000E+00  0.00000000E+00
  0.00000000E+00  0.00000000E+00  0.00000000E+00
  0.00000000E+00  0.00000000E+00  0.00000000E+00
  0.00000000E+00  0.00000000E+00  0.00000000E+00
  0.00000000E+00  0.00000000E+00  0.00000000E+00
  0.00000000E+00  0.00000000E+00  0.00000000E+00
  0.00000000E+00  0.00000000E+00  0.00000000E+00
  0.00000000E+00  0.00000000E+00  0.00000000E+00
  0.00000000E+00  0.00000000E+00  0.00000000E+00
  0.00000000E+00  0.00000000E+00  0.00000000E+00
  0.00000000E+00  0.00000000E+00  0.00000000E+00
  0.00000000E+00  0.00000000E+00  0.00000000E+00
  0.00000000E+00  0.00000000E+00  0.00000000E+00
  0.00000000E+00  0.00000000E+00  0.00000000E+00
  0.00000000E+00  0.00000000E+00  0.00000000E+00
  0.00000000E+00  0.00000000E+00  0.00000000E+00
  0.00000000E+00  0.00000000E+00  0.00000000E+00
  0.00000000E+00  0.00000000E+00  0.00000000E+00
  0.00000000E+00  0.00000000E+00  0.00000000E+00
  0.00000000E+00  0.00000000E+00  0.00000000E+00
  0.00000000E+00  0.00000000E+00  0.00000000E+00
  0.00000000E+00  0.00000000E+00  0.00000000E+00
  0.00000000E+00  0.00000000E+00  0.00000000E+00
  0.00000000E+00  0.00000000E+00  0.00000000E+00
  0.00000000E+00  0.00000000E+00  0.00000000E+00
  0.00000000E+00  0.00000000E+00  0.00000000E+00
  0.00000000E+00  0.00000000E+00  0.00000000E+00
  0.00000000E+00  0.00000000E+00  0.00000000E+00
  0.00000000E+00  0.00000000E+00  0.00000000E+00
  0.00000000E+00  0.00000000E+00  0.00000000E+00
  0.00000000E+00  0.00000000E+00  0.00000000E+00
  0.00000000E+00  0.00000000E+00  0.00000000E+00
  0.00000000E+00  0.00000000E+00  0.00000000E+00
  0.00000000E+00  0.00000000E+00  0.00000000E+00
  0.00000000E+00  0.00000000E+00  0.00000000E+00
  0.00000000E+00  0.00000000E+00  0.00000000E+00
  0.00000000E+00  0.00000000E+00  0.00000000E+00
  0.00000000E+00  0.00000000E+00  0.00000000E+00
  0.00000000E+00  0.00000000E+00  0.00000000E+00
  0.00000000E+00  0.00000000E+00  0.00000000E+00
  0.00000000E+00  0.00000000E+00  0.00000000E+00
  0.00000000E+00  0.00000000E+00  0.00000000E+00
  0.00000000E+00  0.00000000E+00  0.00000000E+00
  0.00000000E+00  0.00000000E+00  0.00000000E+00
  0.00000000E+00  0.00000000E+00  0.00000000E+00
  0.00000000E+00  0.00000000E+00  0.00000000E+00
  0.00000000E+00  0.00000000E+00  0.00000000E+00
  0.00000000E+00  0.00000000E+00  0.00000000E+00
  0.00000000E+00  0.00000000E+00  0.00000000E+00
  0.00000000E+00  0.00000000E+00  0.00000000E+00
  0.00000000E+00  0.00000000E+00  0.00000000E+00
  0.00000000E+00  0.00000000E+00  0.00000000E+00
  0.00000000E+00  0.00000000E+00  0.00000000E+00
  0.00000000E+00  0.00000000E+00  0.00000000E+00
  0.00000000E+00  0.00000000E+00  0.00000000E+00
  0.00000000E+00  0.00000000E+00  0.00000000E+00
  0.00000000E+00  0.00000000E+00  0.00000000E+00
  0.00000000E+00  0.00000000E+00  0.00000000E+00
  0.00000000E+00  0.00000000E+00  0.00000000E+00
  0.00000000E+00  0.00000000E+00  0.00000000E+00
