Ta  N Cu Ru                             
   1.00000000000000     
    18.1096308199999996    0.0000000000000000    0.0000000000000000
     0.0000000000000000   11.6775998899999998    0.0000000000000000
     0.0000000000000000    0.0000000000000000   23.4818170799999990
   Ta   N    Cu   Ru
   119   120     2     1
Direct
  0.0007933285478035 -0.0003291662856180  0.2552932936660989
  0.3343106713852774  0.1250498918352239  0.2643352157818040
  0.1676719479243601  0.1249067933783504  0.2641305064116408
  0.2513296936601022  0.2499623926811757  0.3615782392446665
  0.0834354111059304  0.1249162451998647  0.3685468524997516
  0.4185300774402972  0.1250001497734902  0.3690030152529433
  0.0007670479889838  0.2500398345698547  0.4795442956794876
  0.3330616136021880  0.1249245368824315  0.4786203395964345
  0.1686500738900984  0.1247529601675082  0.4781275042800153
  0.2504500769699674  0.2498003158644675  0.5912482937114653
  0.0846566654927699  0.1253316347068876  0.5887455788308446
  0.4169759797179178  0.1246610250826029  0.5907886033294385
  0.3343641996971081  0.1231667109433981  0.7046487800213205
  0.0007513071783102  0.2500935722111914  0.2552535165075911
  0.3342286688301933  0.3749995306927803  0.2643641707831365
  0.1676656601189464  0.3750365824350070  0.2641185507379361
  0.2512272968651534  0.5000489488977189  0.3616393473386366
  0.0834071229948096  0.3750070691528213  0.3685146062495790
  0.4185745390200534  0.3749962174126627  0.3690697461068222
  0.0007922116854534  0.5001570414211813  0.4799121767700073
  0.3333520409630458  0.3749538117087383  0.4787553608078403
  0.1687768401884033  0.3751048204551346  0.4780728342674890
  0.2501507002862590  0.4995749362508649  0.5915675997000451
  0.0846022705186361  0.3745340666696628  0.5885956158915732
  0.4169950269157247  0.3748450984004456  0.5911290553882310
  0.0006167107201172  0.4932979573028922  0.7029054059375588
  0.3317051187694938  0.3748202638793862  0.7025359423922833
  0.1637439592407147  0.3745019591253989  0.7035106973692469
  0.0008032118679148  0.5001560468645829  0.2553210213597176
  0.3347221911110606  0.6251008089686991  0.2643451277121829
  0.1672684358292779  0.6250546478852114  0.2640646259384722
  0.2509882989559697  0.7499093764469961  0.3617404114925397
  0.0834227622113133  0.6250255886539836  0.3687237906904294
  0.4184256274000299  0.6250194550849071  0.3691952235301643
  0.0007892127891104  0.7500244202146565  0.4802059309216591
  0.3332286272924798  0.6248756908668396  0.4788813049817689
  0.1684276360832082  0.6250384789119973  0.4784087677989821
  0.2500928449309631  0.7499084709531656  0.5915158954277117
  0.0841802745584738  0.6248330804284311  0.5902748655184000
  0.4168790197613156  0.6249295206894921  0.5907302897757710
  0.0005424236449597  0.7499817401877487  0.7029136404478364
  0.3341365536284611  0.6259458106230081  0.7046642457272930
  0.1637279561601202  0.6245630603731300  0.7045709337104549
  0.0007441802132647  0.7500635112471240  0.2553680764282714
  0.3346701813154813  0.8749509172649745  0.2643486821973417
  0.1672287315730702  0.8748867492670689  0.2640219043369839
  0.2511466479081676 -0.0000059340025146  0.3616181921734473
  0.0833940534400816  0.8749448009105443  0.3686907639255991
  0.4184461715820428  0.8749853313380047  0.3691420667599538
  0.0007865063414439  0.9997272968823560  0.4798658717269337
  0.3331762935212834  0.8749244858606537  0.4787228053270957
  0.1684207801157826  0.8748385902336734  0.4783944208057231
  0.2501707136498501  0.0001648640802278  0.5914017543175611
  0.0841154676489386  0.8751453644716731  0.5902647451455267
  0.4168951001048459  0.8748508336103958  0.5904944387444931
  0.0005713855093772  0.0070838316862567  0.7032622736157496
  0.3351682321110729  0.8745811567829306  0.7046349242006489
  0.1643631378374593  0.8749710379312009  0.7045886759631678
  0.5009466267016993  0.9998055798344110  0.2555560610250074
  0.8339878035919174  0.1248284100895063  0.2641949497786608
  0.6672531121522474  0.1249503973410467  0.2643516654161921
  0.7504369790473862  0.2499796725049143  0.3616773538855811
  0.5832868971295386  0.1250076944269963  0.3691034141862458
  0.9181846370775913  0.1249371924308929  0.3686330484835368
  0.5007820623696410  0.2499135445765681  0.4808698959083559
  0.8328994798505454  0.1247770098856707  0.4782961436506016
  0.6685016031533769  0.1249571099419772  0.4787796177486092
  0.7507861851581955  0.2498928061852339  0.5914463604226572
  0.5843985784765506  0.1246927205442675  0.5908643118763096
  0.9167818731699360  0.1254047721598763  0.5889082423226989
  0.5006115311015047  0.2513408664651161  0.7038449744997956
  0.8368808457029325  0.1256339898284876  0.7036352152675684
  0.6667748623651697  0.1233888803079074  0.7048080965142623
  0.5010013683120254  0.2499681351856746  0.2555739003034059
  0.8339945695498279  0.3751258002446658  0.2641812828348377
  0.6673176659408366  0.3750578857950714  0.2643903077991724
  0.7505221690248676  0.5000533288894496  0.3617151255563196
  0.5832521539824348  0.3749998432453239  0.3691954458994188
  0.9182008781602152  0.3750173609378225  0.3686120956548271
  0.5007839372237709  0.5000357067974559  0.4807925591984226
  0.8327773802480782  0.3751538233846555  0.4782565031376866
  0.6682074829415100  0.3750005445802811  0.4789111286640781
  0.7510883202671508  0.4996272312054962  0.5917718241642075
  0.5843318914938941  0.3749080587244140  0.5912069478611472
  0.9168467797868438  0.3745500742164221  0.5887526822527135
  0.5005642857075274  0.4980111088236392  0.7038006502837240
  0.8374577045803927  0.3747223926981038  0.7036455638158811
  0.6694919325578127  0.3749801589686969  0.7027530059498186
  0.5009421922575565  0.5002367942909174  0.2556432689839470
  0.8343222254942707  0.6250034331837762  0.2641706327800407
  0.6667440995995974  0.6249949386596340  0.2643296836656301
  0.7507299454984099  0.7499382337464527  0.3618560444344580
  0.5834102573030392  0.6250126989431071  0.3692820196402890
  0.9182043623762688  0.6250296935738293  0.3688211062443541
  0.5007757429617136  0.7498338274097087  0.4806904793063994
  0.8331370187837910  0.6250742058984933  0.4785913421447637
  0.6683292071837159  0.6249163638983605  0.4790328702202853
  0.7511726733904486  0.7499553309731571  0.5917218869691501
  0.5844649714152940  0.6249484225925462  0.5908040223802926
  0.9172595463219138  0.6248998341370066  0.5904025500788236
  0.5005471473281985  0.7498775695534733  0.7028574907174090
  0.8374450962416778  0.6247116150759188  0.7046959093721639
  0.6669287275290500  0.6261761257214369  0.7048437109874008
  0.5009918370068166  0.7499534893563203  0.2555569872894262
  0.8343294643151326  0.8749506383383668  0.2641399546301003
  0.6667702681538122  0.8750339791050926  0.2643236536178812
  0.7505704316239021  0.0000053789966656  0.3616982389420715
  0.5833833603168056  0.8749925407325979  0.3692342636722050
  0.9182455630283497  0.8749361449659664  0.3687967782461209
  0.5007832452072488 -0.0001196250061212  0.4806820262237733
  0.8331523185150553  0.8748740561157996  0.4785725191081279
  0.6683818742959213  0.8749620057478279  0.4788818027002837
  0.7510898417582114  0.0002351307083148  0.5916130378743708
  0.5844680075540964  0.8748658398730738  0.5905458081920684
  0.9173257286420583  0.8751938129399077  0.5904173519471546
  0.5005591772022832 -0.0000627694750470  0.7028289545615294
  0.8369016273684264  0.8751492799051434  0.7047275053085226
  0.6660081908281722  0.8748105353338081  0.7047698868845508
  0.1643679514494998  0.1254179868242909  0.7034806011717544
  0.4077676417825869 -0.0000010180583009  0.3018879376266173
  0.2509742365727284 -0.0002896998722820  0.2581259223095483
  0.0941539886483381 -0.0001653523682503  0.3014167326197529
  0.1555327847333098  0.2499984693698390  0.4099501514998022
  0.0008345311571257  0.2499785735461078  0.3930484039382010
  0.3465728198262280  0.2499853841669685  0.4105647957321308
  0.4019222816338598  0.2497841213319671  0.5229972740182744
  0.2510375780458785  0.2499898215819653  0.5030982168889366
  0.1000260916681249  0.2499919617778032  0.5214511104170794
  0.1518521498139670  0.2497635898888969  0.6328119590633579
  0.0007359876497909  0.2499975445117132  0.6115885506597326
  0.3487167641316595  0.2489478029391627  0.6341385141869689
  0.4001291412366966  0.2490105985956767  0.7425698233382407
  0.2476167911022171  0.2500149411727763  0.7248472601982461
  0.0933654952881087  0.2495327458693576  0.7373398835445978
  0.4078346547670245  0.2500461091012027  0.3018012452542544
  0.2508980939240218  0.2499855684248384  0.2574380450096928
  0.0941724943628000  0.2499974275134780  0.3013017042912871
  0.1555088255121797  0.4999789834612105  0.4101459143420118
  0.0008429589279718  0.5000533700669463  0.3933114144390871
  0.3464695090660426  0.4999424161284939  0.4106744920546943
  0.4018966994817688  0.4998137577664402  0.5230347948915010
  0.2509397792912719  0.5000094754189238  0.5034665578143962
  0.0997945996708056  0.5002409877147086  0.5220746260525875
  0.1512603189663629  0.4994598269854298  0.6335647721791586
  0.0007432662763331  0.4975908834620321  0.6141554686982160
  0.3487071007240154  0.5007078472929984  0.6340612821352393
  0.4002221574175803  0.5002446602303159  0.7424740295765968
  0.2484824663517669  0.4994024675072331  0.7243462637430503
  0.0962963032734406  0.4978296940575951  0.7412613342780827
  0.4077484677229684  0.5000132561458189  0.3019269886632686
  0.2509723904937061  0.5003091057360971  0.2580912656463518
  0.0941631961367635  0.5001207942771317  0.3014561510283540
  0.1553886815667545  0.7499790209724500  0.4102716191257623
  0.0008412283412447  0.7499675369757826  0.3934991105978799
  0.3463260516643206  0.7499122780907832  0.4106403110431407
  0.4017492659584829  0.7497798362974533  0.5228339835399476
  0.2506698496623402  0.7499567316737975  0.5033592768610445
  0.0997444075280887  0.7499653877886965  0.5223469666821595
  0.1518882011690071  0.7500962459421689  0.6337816022203359
  0.0007375235972672  0.7500262674299115  0.6140946564847416
  0.3483675725861526  0.7500186772649184  0.6336150189632779
  0.4031584016890131  0.7494763671598554  0.7407538415318171
  0.2498794305558097  0.7492497141606215  0.7243388601708793
  0.0970454430173024  0.7502134677018676  0.7412540895414458
  0.4078122195040942  0.7499806799423413  0.3019987052145111
  0.2509867496498553  0.7499813927285329  0.2586887520018230
  0.0941072164485690  0.7499593904688311  0.3015712442234939
  0.1554220888728403 -0.0001300307926848  0.4101083850137534
  0.0008444274362005 -0.0000366784160411  0.3932619303749056
  0.3464368976707675  0.0000231825105729  0.4105749123714407
  0.4018107739891068  0.0001200350884729  0.5227441926413733
  0.2508307043036753 -0.0002878790051925  0.5032952405978693
  0.0997529451287399 -0.0003431583909683  0.5221355201912308
  0.1515337794884659  0.0003316797418993  0.6335548896043278
  0.0007415839469294  0.0024308758048662  0.6144139144757178
  0.3484827724316739 -0.0005639447848510  0.6335660128388872
  0.4030983837935799  0.0002071499012271  0.7407003851954891
  0.2499812149180046  0.0006444512623306  0.7241706668241950
  0.0968581540275342  0.0018139672233178  0.7411071744479392
  0.9074443707390625 -0.0001937743416570  0.3015030315697559
  0.7505902280469489 -0.0003023664368505  0.2582402426686793
  0.5939803034600155  0.0000160818137639  0.3020303950315953
  0.6552122525200558  0.2500085758738080  0.4107011251825964
  0.5008997488244796  0.2499217430645421  0.3940474042823461
  0.8461409658615059  0.2500159954068402  0.4101230886689254
  0.9015622604943265  0.2500150105064501  0.5215758703540647
  0.7504962636304079  0.2500373640889674  0.5032930280535302
  0.5996045508963719  0.2498265504042899  0.5230884202940492
  0.6525048750915573  0.2490777132189795  0.6343358636426014
  0.5006679919572113  0.2496266711492654  0.6154766859915940
  0.8494382538889776  0.2498701996908408  0.6329310705556950
  0.9077789005053126  0.2497449366416419  0.7375106280340730
  0.7535827111313154  0.2501899159278074  0.7250302081495501
  0.6010039136926366  0.2491798049456872  0.7427311388175900
  0.9073788595053396  0.2500118090406231  0.3014001167153728
  0.7507038022653099  0.2499863697105610  0.2578833442820210
  0.5940245243849648  0.2500431221029336  0.3019660323841520
  0.6553112868265113  0.4999679288075993  0.4108057103626033
  0.5008986020480730  0.5000473099715894  0.3940548472262735
  0.8461689565634970  0.5000034827952857  0.4103154145725392
  0.9018079491565781  0.5002705568006807  0.5221947574766997
  0.7506005636506505  0.5000627582384130  0.5036587736005349
  0.5996119525063617  0.4998487348471507  0.5231226675134780
  0.6525089541369271  0.5007774590205973  0.6342418798503955
  0.5006555953926560  0.5001793123472252  0.6154169864389891
  0.8500571831710509  0.4995780129034912  0.6336877976509712
  0.9049462275880107  0.4979776133359881  0.7413702656541173
  0.7526829234511576  0.4995637870439879  0.7245049538727872
  0.6008631816085600  0.5003710887578793  0.7426284568212749
  0.9074499271186843  0.5001317276513868  0.3015366710778718
  0.7506036636870363  0.5003108121963235  0.2582398908706103
  0.5939962093528504  0.4999921353765109  0.3020721474783200
  0.6554433299883615  0.7499401961474235  0.4107810603871997
  0.5009071143362338  0.7499663472804134  0.3940160630422835
  0.8462917752692424  0.7499977781813210  0.4104436502362955
  0.9018569713439278  0.7500008014184050  0.5224662921290412
  0.7508699232940854  0.7499971696069024  0.5035637515959314
  0.5997580756512235  0.7497936656649555  0.5229234808162856
  0.6528567957372994  0.7500961504438829  0.6337635833905279
  0.5006605177279208  0.7499542677803829  0.6143155272769031
  0.8494486202123795  0.7501697764277105  0.6339258000458163
  0.9041277519795902  0.7503294677728584  0.7414224202814768
  0.7512631020510413  0.7493918590504873  0.7244540619860724
  0.5978842059574534  0.7497267437964729  0.7408182744516577
  0.9074332065498184  0.7499658213790070  0.3016815573696758
  0.7505119810725751  0.7499769054790776  0.2592154623284729
  0.5940148983267176  0.7499713794494747  0.3021584545882038
  0.6553225175895923  0.0000427368985791  0.4107196672896014
  0.5008902202986301 -0.0000060509135732  0.3939650450962804
  0.8462511853099296 -0.0001095382286697  0.4102685500842513
  0.9018422348295368  0.9996969347074082  0.5222692470529207
  0.7507099164640531  0.9997390619099416  0.5034946409067216
  0.5997061654629435  0.0001440643114249  0.5228343135466802
  0.6527701468638544 -0.0004845538751724  0.6337157244008923
  0.5006821306869456 -0.0005031374438682  0.6143258857107692
  0.8498200106734183  0.0004285392903286  0.6337026898333615
  0.9043451337958215  0.0019742356595143  0.7412832696382656
  0.7512000400821420  0.0008274073463481  0.7242776235640176
  0.5979766518941535  0.0003093172742670  0.7407971218638563
  0.5672807745189544  0.3746456571953523  0.7920229506903818
  0.4332756406273593  0.3744683853270475  0.7919095726096692
  0.0005369758546530  0.2494474072105305  0.6974906055254807
 
  0.00000000E+00  0.00000000E+00  0.00000000E+00
  0.00000000E+00  0.00000000E+00  0.00000000E+00
  0.00000000E+00  0.00000000E+00  0.00000000E+00
  0.00000000E+00  0.00000000E+00  0.00000000E+00
  0.00000000E+00  0.00000000E+00  0.00000000E+00
  0.00000000E+00  0.00000000E+00  0.00000000E+00
  0.00000000E+00  0.00000000E+00  0.00000000E+00
  0.00000000E+00  0.00000000E+00  0.00000000E+00
  0.00000000E+00  0.00000000E+00  0.00000000E+00
  0.00000000E+00  0.00000000E+00  0.00000000E+00
  0.00000000E+00  0.00000000E+00  0.00000000E+00
  0.00000000E+00  0.00000000E+00  0.00000000E+00
  0.00000000E+00  0.00000000E+00  0.00000000E+00
  0.00000000E+00  0.00000000E+00  0.00000000E+00
  0.00000000E+00  0.00000000E+00  0.00000000E+00
  0.00000000E+00  0.00000000E+00  0.00000000E+00
  0.00000000E+00  0.00000000E+00  0.00000000E+00
  0.00000000E+00  0.00000000E+00  0.00000000E+00
  0.00000000E+00  0.00000000E+00  0.00000000E+00
  0.00000000E+00  0.00000000E+00  0.00000000E+00
  0.00000000E+00  0.00000000E+00  0.00000000E+00
  0.00000000E+00  0.00000000E+00  0.00000000E+00
  0.00000000E+00  0.00000000E+00  0.00000000E+00
  0.00000000E+00  0.00000000E+00  0.00000000E+00
  0.00000000E+00  0.00000000E+00  0.00000000E+00
  0.00000000E+00  0.00000000E+00  0.00000000E+00
  0.00000000E+00  0.00000000E+00  0.00000000E+00
  0.00000000E+00  0.00000000E+00  0.00000000E+00
  0.00000000E+00  0.00000000E+00  0.00000000E+00
  0.00000000E+00  0.00000000E+00  0.00000000E+00
  0.00000000E+00  0.00000000E+00  0.00000000E+00
  0.00000000E+00  0.00000000E+00  0.00000000E+00
  0.00000000E+00  0.00000000E+00  0.00000000E+00
  0.00000000E+00  0.00000000E+00  0.00000000E+00
  0.00000000E+00  0.00000000E+00  0.00000000E+00
  0.00000000E+00  0.00000000E+00  0.00000000E+00
  0.00000000E+00  0.00000000E+00  0.00000000E+00
  0.00000000E+00  0.00000000E+00  0.00000000E+00
  0.00000000E+00  0.00000000E+00  0.00000000E+00
  0.00000000E+00  0.00000000E+00  0.00000000E+00
  0.00000000E+00  0.00000000E+00  0.00000000E+00
  0.00000000E+00  0.00000000E+00  0.00000000E+00
  0.00000000E+00  0.00000000E+00  0.00000000E+00
  0.00000000E+00  0.00000000E+00  0.00000000E+00
  0.00000000E+00  0.00000000E+00  0.00000000E+00
  0.00000000E+00  0.00000000E+00  0.00000000E+00
  0.00000000E+00  0.00000000E+00  0.00000000E+00
  0.00000000E+00  0.00000000E+00  0.00000000E+00
  0.00000000E+00  0.00000000E+00  0.00000000E+00
  0.00000000E+00  0.00000000E+00  0.00000000E+00
  0.00000000E+00  0.00000000E+00  0.00000000E+00
  0.00000000E+00  0.00000000E+00  0.00000000E+00
  0.00000000E+00  0.00000000E+00  0.00000000E+00
  0.00000000E+00  0.00000000E+00  0.00000000E+00
  0.00000000E+00  0.00000000E+00  0.00000000E+00
  0.00000000E+00  0.00000000E+00  0.00000000E+00
  0.00000000E+00  0.00000000E+00  0.00000000E+00
  0.00000000E+00  0.00000000E+00  0.00000000E+00
  0.00000000E+00  0.00000000E+00  0.00000000E+00
  0.00000000E+00  0.00000000E+00  0.00000000E+00
  0.00000000E+00  0.00000000E+00  0.00000000E+00
  0.00000000E+00  0.00000000E+00  0.00000000E+00
  0.00000000E+00  0.00000000E+00  0.00000000E+00
  0.00000000E+00  0.00000000E+00  0.00000000E+00
  0.00000000E+00  0.00000000E+00  0.00000000E+00
  0.00000000E+00  0.00000000E+00  0.00000000E+00
  0.00000000E+00  0.00000000E+00  0.00000000E+00
  0.00000000E+00  0.00000000E+00  0.00000000E+00
  0.00000000E+00  0.00000000E+00  0.00000000E+00
  0.00000000E+00  0.00000000E+00  0.00000000E+00
  0.00000000E+00  0.00000000E+00  0.00000000E+00
  0.00000000E+00  0.00000000E+00  0.00000000E+00
  0.00000000E+00  0.00000000E+00  0.00000000E+00
  0.00000000E+00  0.00000000E+00  0.00000000E+00
  0.00000000E+00  0.00000000E+00  0.00000000E+00
  0.00000000E+00  0.00000000E+00  0.00000000E+00
  0.00000000E+00  0.00000000E+00  0.00000000E+00
  0.00000000E+00  0.00000000E+00  0.00000000E+00
  0.00000000E+00  0.00000000E+00  0.00000000E+00
  0.00000000E+00  0.00000000E+00  0.00000000E+00
  0.00000000E+00  0.00000000E+00  0.00000000E+00
  0.00000000E+00  0.00000000E+00  0.00000000E+00
  0.00000000E+00  0.00000000E+00  0.00000000E+00
  0.00000000E+00  0.00000000E+00  0.00000000E+00
  0.00000000E+00  0.00000000E+00  0.00000000E+00
  0.00000000E+00  0.00000000E+00  0.00000000E+00
  0.00000000E+00  0.00000000E+00  0.00000000E+00
  0.00000000E+00  0.00000000E+00  0.00000000E+00
  0.00000000E+00  0.00000000E+00  0.00000000E+00
  0.00000000E+00  0.00000000E+00  0.00000000E+00
  0.00000000E+00  0.00000000E+00  0.00000000E+00
  0.00000000E+00  0.00000000E+00  0.00000000E+00
  0.00000000E+00  0.00000000E+00  0.00000000E+00
  0.00000000E+00  0.00000000E+00  0.00000000E+00
  0.00000000E+00  0.00000000E+00  0.00000000E+00
  0.00000000E+00  0.00000000E+00  0.00000000E+00
  0.00000000E+00  0.00000000E+00  0.00000000E+00
  0.00000000E+00  0.00000000E+00  0.00000000E+00
  0.00000000E+00  0.00000000E+00  0.00000000E+00
  0.00000000E+00  0.00000000E+00  0.00000000E+00
  0.00000000E+00  0.00000000E+00  0.00000000E+00
  0.00000000E+00  0.00000000E+00  0.00000000E+00
  0.00000000E+00  0.00000000E+00  0.00000000E+00
  0.00000000E+00  0.00000000E+00  0.00000000E+00
  0.00000000E+00  0.00000000E+00  0.00000000E+00
  0.00000000E+00  0.00000000E+00  0.00000000E+00
  0.00000000E+00  0.00000000E+00  0.00000000E+00
  0.00000000E+00  0.00000000E+00  0.00000000E+00
  0.00000000E+00  0.00000000E+00  0.00000000E+00
  0.00000000E+00  0.00000000E+00  0.00000000E+00
  0.00000000E+00  0.00000000E+00  0.00000000E+00
  0.00000000E+00  0.00000000E+00  0.00000000E+00
  0.00000000E+00  0.00000000E+00  0.00000000E+00
  0.00000000E+00  0.00000000E+00  0.00000000E+00
  0.00000000E+00  0.00000000E+00  0.00000000E+00
  0.00000000E+00  0.00000000E+00  0.00000000E+00
  0.00000000E+00  0.00000000E+00  0.00000000E+00
  0.00000000E+00  0.00000000E+00  0.00000000E+00
  0.00000000E+00  0.00000000E+00  0.00000000E+00
  0.00000000E+00  0.00000000E+00  0.00000000E+00
  0.00000000E+00  0.00000000E+00  0.00000000E+00
  0.00000000E+00  0.00000000E+00  0.00000000E+00
  0.00000000E+00  0.00000000E+00  0.00000000E+00
  0.00000000E+00  0.00000000E+00  0.00000000E+00
  0.00000000E+00  0.00000000E+00  0.00000000E+00
  0.00000000E+00  0.00000000E+00  0.00000000E+00
  0.00000000E+00  0.00000000E+00  0.00000000E+00
  0.00000000E+00  0.00000000E+00  0.00000000E+00
  0.00000000E+00  0.00000000E+00  0.00000000E+00
  0.00000000E+00  0.00000000E+00  0.00000000E+00
  0.00000000E+00  0.00000000E+00  0.00000000E+00
  0.00000000E+00  0.00000000E+00  0.00000000E+00
  0.00000000E+00  0.00000000E+00  0.00000000E+00
  0.00000000E+00  0.00000000E+00  0.00000000E+00
  0.00000000E+00  0.00000000E+00  0.00000000E+00
  0.00000000E+00  0.00000000E+00  0.00000000E+00
  0.00000000E+00  0.00000000E+00  0.00000000E+00
  0.00000000E+00  0.00000000E+00  0.00000000E+00
  0.00000000E+00  0.00000000E+00  0.00000000E+00
  0.00000000E+00  0.00000000E+00  0.00000000E+00
  0.00000000E+00  0.00000000E+00  0.00000000E+00
  0.00000000E+00  0.00000000E+00  0.00000000E+00
  0.00000000E+00  0.00000000E+00  0.00000000E+00
  0.00000000E+00  0.00000000E+00  0.00000000E+00
  0.00000000E+00  0.00000000E+00  0.00000000E+00
  0.00000000E+00  0.00000000E+00  0.00000000E+00
  0.00000000E+00  0.00000000E+00  0.00000000E+00
  0.00000000E+00  0.00000000E+00  0.00000000E+00
  0.00000000E+00  0.00000000E+00  0.00000000E+00
  0.00000000E+00  0.00000000E+00  0.00000000E+00
  0.00000000E+00  0.00000000E+00  0.00000000E+00
  0.00000000E+00  0.00000000E+00  0.00000000E+00
  0.00000000E+00  0.00000000E+00  0.00000000E+00
  0.00000000E+00  0.00000000E+00  0.00000000E+00
  0.00000000E+00  0.00000000E+00  0.00000000E+00
  0.00000000E+00  0.00000000E+00  0.00000000E+00
  0.00000000E+00  0.00000000E+00  0.00000000E+00
  0.00000000E+00  0.00000000E+00  0.00000000E+00
  0.00000000E+00  0.00000000E+00  0.00000000E+00
  0.00000000E+00  0.00000000E+00  0.00000000E+00
  0.00000000E+00  0.00000000E+00  0.00000000E+00
  0.00000000E+00  0.00000000E+00  0.00000000E+00
  0.00000000E+00  0.00000000E+00  0.00000000E+00
  0.00000000E+00  0.00000000E+00  0.00000000E+00
  0.00000000E+00  0.00000000E+00  0.00000000E+00
  0.00000000E+00  0.00000000E+00  0.00000000E+00
  0.00000000E+00  0.00000000E+00  0.00000000E+00
  0.00000000E+00  0.00000000E+00  0.00000000E+00
  0.00000000E+00  0.00000000E+00  0.00000000E+00
  0.00000000E+00  0.00000000E+00  0.00000000E+00
  0.00000000E+00  0.00000000E+00  0.00000000E+00
  0.00000000E+00  0.00000000E+00  0.00000000E+00
  0.00000000E+00  0.00000000E+00  0.00000000E+00
  0.00000000E+00  0.00000000E+00  0.00000000E+00
  0.00000000E+00  0.00000000E+00  0.00000000E+00
  0.00000000E+00  0.00000000E+00  0.00000000E+00
  0.00000000E+00  0.00000000E+00  0.00000000E+00
  0.00000000E+00  0.00000000E+00  0.00000000E+00
  0.00000000E+00  0.00000000E+00  0.00000000E+00
  0.00000000E+00  0.00000000E+00  0.00000000E+00
  0.00000000E+00  0.00000000E+00  0.00000000E+00
  0.00000000E+00  0.00000000E+00  0.00000000E+00
  0.00000000E+00  0.00000000E+00  0.00000000E+00
  0.00000000E+00  0.00000000E+00  0.00000000E+00
  0.00000000E+00  0.00000000E+00  0.00000000E+00
  0.00000000E+00  0.00000000E+00  0.00000000E+00
  0.00000000E+00  0.00000000E+00  0.00000000E+00
  0.00000000E+00  0.00000000E+00  0.00000000E+00
  0.00000000E+00  0.00000000E+00  0.00000000E+00
  0.00000000E+00  0.00000000E+00  0.00000000E+00
  0.00000000E+00  0.00000000E+00  0.00000000E+00
  0.00000000E+00  0.00000000E+00  0.00000000E+00
  0.00000000E+00  0.00000000E+00  0.00000000E+00
  0.00000000E+00  0.00000000E+00  0.00000000E+00
  0.00000000E+00  0.00000000E+00  0.00000000E+00
  0.00000000E+00  0.00000000E+00  0.00000000E+00
  0.00000000E+00  0.00000000E+00  0.00000000E+00
  0.00000000E+00  0.00000000E+00  0.00000000E+00
  0.00000000E+00  0.00000000E+00  0.00000000E+00
  0.00000000E+00  0.00000000E+00  0.00000000E+00
  0.00000000E+00  0.00000000E+00  0.00000000E+00
  0.00000000E+00  0.00000000E+00  0.00000000E+00
  0.00000000E+00  0.00000000E+00  0.00000000E+00
  0.00000000E+00  0.00000000E+00  0.00000000E+00
  0.00000000E+00  0.00000000E+00  0.00000000E+00
  0.00000000E+00  0.00000000E+00  0.00000000E+00
  0.00000000E+00  0.00000000E+00  0.00000000E+00
  0.00000000E+00  0.00000000E+00  0.00000000E+00
  0.00000000E+00  0.00000000E+00  0.00000000E+00
  0.00000000E+00  0.00000000E+00  0.00000000E+00
  0.00000000E+00  0.00000000E+00  0.00000000E+00
  0.00000000E+00  0.00000000E+00  0.00000000E+00
  0.00000000E+00  0.00000000E+00  0.00000000E+00
  0.00000000E+00  0.00000000E+00  0.00000000E+00
  0.00000000E+00  0.00000000E+00  0.00000000E+00
  0.00000000E+00  0.00000000E+00  0.00000000E+00
  0.00000000E+00  0.00000000E+00  0.00000000E+00
  0.00000000E+00  0.00000000E+00  0.00000000E+00
  0.00000000E+00  0.00000000E+00  0.00000000E+00
  0.00000000E+00  0.00000000E+00  0.00000000E+00
  0.00000000E+00  0.00000000E+00  0.00000000E+00
  0.00000000E+00  0.00000000E+00  0.00000000E+00
  0.00000000E+00  0.00000000E+00  0.00000000E+00
  0.00000000E+00  0.00000000E+00  0.00000000E+00
  0.00000000E+00  0.00000000E+00  0.00000000E+00
  0.00000000E+00  0.00000000E+00  0.00000000E+00
  0.00000000E+00  0.00000000E+00  0.00000000E+00
  0.00000000E+00  0.00000000E+00  0.00000000E+00
  0.00000000E+00  0.00000000E+00  0.00000000E+00
  0.00000000E+00  0.00000000E+00  0.00000000E+00
  0.00000000E+00  0.00000000E+00  0.00000000E+00
  0.00000000E+00  0.00000000E+00  0.00000000E+00
  0.00000000E+00  0.00000000E+00  0.00000000E+00
  0.00000000E+00  0.00000000E+00  0.00000000E+00
  0.00000000E+00  0.00000000E+00  0.00000000E+00
  0.00000000E+00  0.00000000E+00  0.00000000E+00
  0.00000000E+00  0.00000000E+00  0.00000000E+00
  0.00000000E+00  0.00000000E+00  0.00000000E+00
  0.00000000E+00  0.00000000E+00  0.00000000E+00
  0.00000000E+00  0.00000000E+00  0.00000000E+00
  0.00000000E+00  0.00000000E+00  0.00000000E+00
  0.00000000E+00  0.00000000E+00  0.00000000E+00
