Ru Ta  N  Cu                            
   1.00000000000000     
    18.1096308199999996    0.0000000000000000    0.0000000000000000
     0.0000000000000000   23.3551997799999995    0.0000000000000000
     0.0000000000000000    0.0000000000000000   32.4818170799999990
   Ru   Ta   N    Cu
   128   240   240     4
Selective dynamics
Direct
  0.0431789034511291  0.0063278159401131  0.4485982172099153   T   T   T
  0.2793828936943317  0.4997222551906559  0.4398033877859768   T   T   T
  0.4230096330807680  0.0637821803091443  0.4318852697739216   T   T   T
  0.0515294815979685  0.2491776647359915  0.4485778082550724   T   T   T
  0.2781229595661850  0.2430486511716988  0.4330370370955581   T   T   T
  0.4115904932708291  0.3089385848397767  0.4313382611621201   T   T   T
  0.0497626842626585  0.1266584154982566  0.4486598411203969   T   T   T
  0.2789831794432895  0.1266350310922277  0.4332846899361390   T   T   T
  0.4193391041505953  0.1863232297901359  0.4316435956646507   T   T   T
  0.0502708202048573  0.3676156891153833  0.4483861165855955   T   T   T
  0.2754127192451269  0.3807101869176622  0.4408224348688456   T   T   T
  0.4184835636210257  0.4368819489086976  0.4331953617414552   T   T   T
  0.1562159723832210  0.4427314155055805  0.4493085099930046   T   T   T
  0.1743161805497238  0.3062055000176485  0.4605914931260304   T   T   T
  0.1719163835582704  0.1873151639834839  0.4620760495880962   T   T   T
  0.1731600651688935  0.0672062216330325  0.4628327994698424   T   T   T
  0.0680299132412569  0.4348911335534479  0.5083788341777683   T   T   T
  0.3324674633108894  0.4450687298064994  0.5009788395352683   T   T   T
  0.4447401313830700  0.0114562543314591  0.5001366008574357   T   T   T
  0.0644493857795292  0.1864610054376316  0.5125068343589789   T   T   T
  0.3126103822543915  0.1841709794663401  0.4972815971406377   T   T   T
  0.4337434000731146  0.2514345075277663  0.5009165589778520   T   T   T
  0.0642726830327324  0.0669294055097000  0.5130282768867426   T   T   T
  0.3104141380014904  0.0678867374168961  0.4969932153582912   T   T   T
  0.4414811982460852  0.1215048103834953  0.4996893547700306   T   T   T
  0.0721869936126113  0.3088649723035523  0.5128724947480363   T   T   T
  0.3051838855397102  0.3020075683448770  0.4963305164135490   T   T   T
  0.4305354358314454  0.3598730867558925  0.5009165986009981   T   T   T
  0.2060150256417942  0.3875807068926939  0.5099500000610083   T   T   T
  0.1936832124601164  0.2436425617792325  0.5265443465045346   T   T   T
  0.1950487398593659  0.1304447816051919  0.5269877669916923   T   T   T
  0.2077414879481227  0.4994752099382297  0.5067958823710438   T   T   T
  0.0318441839837734  0.4992814666383970  0.4486795315177983   T   T   T
  0.2793249065644887  0.0041633271022091  0.4357941495695737   T   T   T
  0.4247804343574211  0.5631787004784728  0.4334729290483327   T   T   T
  0.0526605455082924  0.7581584284039781  0.4481876656643431   T   T   T
  0.2702889950931633  0.7360985661301752  0.4385798247296510   T   T   T
  0.4048148155363888  0.8110402818688656  0.4350699235274664   T   T   T
  0.0294884941755848  0.6169335933325276  0.4468558088833701   T   T   T
  0.2776773781755912  0.6207379461689587  0.4393271281156441   T   T   T
  0.4142964258104231  0.6882826475066887  0.4337322933944038   T   T   T
  0.0529946381984968  0.8754342987231247  0.4476052454986706   T   T   T
  0.2762215042742602  0.8894057776149774  0.4403224887169672   T   T   T
  0.4172047609899547  0.9381841962508362  0.4317222617686107   T   T   T
  0.1614361808035500  0.9511425223404475  0.4535062179864623   T   T   T
  0.1767107123343513  0.8147752605607700  0.4572270439921794   T   T   T
  0.1506925008430043  0.6736837769247260  0.4461827257172191   T   T   T
  0.1539804371156425  0.5584482077637459  0.4487124977602299   T   T   T
  0.0699851152393897  0.9408376372796309  0.5101770076308404   T   T   T
  0.3290142443650877  0.9510121630872925  0.5003891349194562   T   T   T
  0.4532386975461058  0.5128569243820000  0.5044294369401290   T   T   T
  0.0644941645373918  0.6825798748118960  0.5060143355606639   T   T   T
  0.3236290832009996  0.6847039404431277  0.4996978744953175   T   T   T
  0.4367895890468221  0.7571096945726781  0.5024001175685022   T   T   T
  0.0645573693562002  0.5625014504999115  0.5093525783606394   T   T   T
  0.3254988293326271  0.5608366744235167  0.4990813488142716   T   T   T
  0.4491241749675068  0.6214775027511652  0.5011800429462067   T   T   T
  0.0802949353820077  0.8223327641494905  0.5122911930005960   T   T   T
  0.3073633036990265  0.8087330374409214  0.4943401825494508   T   T   T
  0.4331513063565244  0.8689455680227312  0.5010502242454808   T   T   T
  0.2061848444172611  0.8895484256517930  0.5113968781409088   T   T   T
  0.1965000213941323  0.7319783290241221  0.5063649485766452   T   T   T
  0.2027367653445813  0.6197127899564356  0.5060842323363157   T   T   T
  0.2041612999078046  0.9955703378450945  0.5201415456872539   T   T   T
  0.5478210347822310  0.0063217548460592  0.4479937917834486   T   T   T
  0.7689257685239449  0.4869022898189787  0.4400244597319085   T   T   T
  0.9171007679389710  0.0647821133879155  0.4338138884320893   T   T   T
  0.5336128598422875  0.2518656525904133  0.4488921285833646   T   T   T
  0.7783664428922908  0.2509565107838775  0.4399617963394788   T   T   T
  0.9221940084968575  0.3122439619266945  0.4337738422413296   T   T   T
  0.5465513826196038  0.1213038356361353  0.4475239896034087   T   T   T
  0.7743974587145267  0.1358661907107678  0.4384737287447075   T   T   T
  0.9193005749377594  0.1871348597621912  0.4330051854130892   T   T   T
  0.5304408943395623  0.3668877756217481  0.4475509510966506   T   T   T
  0.7771847467482722  0.3714041270777288  0.4394585649552574   T   T   T
  0.9115838393620860  0.4367617186651183  0.4345651347004141   T   T   T
  0.6501178204412833  0.4241127811125482  0.4470813262900619   T   T   T
  0.6546223809570874  0.3097966857708453  0.4504904104381725   T   T   T
  0.6551004993709920  0.1936274815424101  0.4499924273824662   T   T   T
  0.6729702255780622  0.0642935725097240  0.4588174478718345   T   T   T
  0.5601931643891921  0.4322466520573461  0.5068239002970568   T   T   T
  0.8226283851815053  0.4339443053429238  0.5004487492512752   T   T   T
  0.9405659112292358  0.0085177269293585  0.5007319372771971   T   T   T
  0.5659196038522460  0.1855630114011254  0.5086660860786206   T   T   T
  0.8291066501095019  0.1891223995962628  0.4999458428229793   T   T   T
  0.9473959736234956  0.2553136223828477  0.5003925892023586   T   T   T
  0.5714751295263337  0.0674968216416994  0.5118702629329891   T   T   T
  0.8129156890290272  0.0635313213633344  0.4947407703202889   T   T   T
  0.9417436245430748  0.1195804616242525  0.4999862936957558   T   T   T
  0.5620306518123739  0.3130265126252718  0.5112080351460146   T   T   T
  0.8242269428930814  0.3133977907681170  0.4997606665099573   T   T   T
  0.9482671855677408  0.3675148458447099  0.5012065234871398   T   T   T
  0.7041429461399495  0.3696360698961041  0.5075735873822012   T   T   T
  0.7074692984424671  0.2495997198543176  0.5078566462145974   T   T   T
  0.7003457859058301  0.1407872118916294  0.5119427467766857   T   T   T
  0.6918773278424113  0.4838498959300182  0.5081932561626419   T   T   T
  0.5513682989395919  0.5082184076841932  0.4491499271516973   T   T   T
  0.7732469123827086  0.9907993114458135  0.4391738406233918   T   T   T
  0.9022792011491728  0.5571924948799455  0.4360379411560680   T   T   T
  0.5333547828892738  0.7543831840281346  0.4478723806934418   T   T   T
  0.7802284321595070  0.7544331030138157  0.4398525208388552   T   T   T
  0.9263537568890934  0.8139619781847964  0.4342678541725407   T   T   T
  0.5481211533664622  0.6238355781533347  0.4468890800202615   T   T   T
  0.7776657148619008  0.6388376165313057  0.4404792011377455   T   T   T
  0.9203431038590094  0.6896116234430708  0.4329597928915919   T   T   T
  0.5314088824316425  0.8724035005833447  0.4477498287042122   T   T   T
  0.7789727749748333  0.8750080447850428  0.4393189270453680   T   T   T
  0.9208512777917837  0.9397769882989426  0.4334740333021799   T   T   T
  0.6536730968099028  0.9301046749126460  0.4484828283529386   T   T   T
  0.6549959678298883  0.8145802869337350  0.4495581912932559   T   T   T
  0.6565657992787658  0.6982009773964436  0.4493192178468017   T   T   T
  0.6756850186419850  0.5670456674212296  0.4577706563616443   T   T   T
  0.5648961720582991  0.9389592626420727  0.5075381238997799   T   T   T
  0.8293257111742536  0.9362111737373222  0.4996933413679450   T   T   T
  0.9352664528443652  0.5044105671486800  0.5032868884545809   T   T   T
  0.5684593892027465  0.6888808208128132  0.5082098345406953   T   T   T
  0.8327330438669172  0.6972854355006488  0.5006499203752424   T   T   T
  0.9533357808399959  0.7596130466021340  0.5017763383505478   T   T   T
  0.5811082584859343  0.5763514017485621  0.5129172686770405   T   T   T
  0.8052530090552972  0.5597994414894055  0.4954800045965812   T   T   T
  0.9340700653596251  0.6148435845482308  0.5016100729066817   T   T   T
  0.5634168687250249  0.8156693610078076  0.5095254685158122   T   T   T
  0.8276343015415842  0.8155143153235822  0.4990733385428447   T   T   T
  0.9520640051982818  0.8707007684494775  0.5010253592884442   T   T   T
  0.7077854463490700  0.8747805191116740  0.5067212249050821   T   T   T
  0.7095213022544611  0.7551555971724969  0.5068943416354748   T   T   T
  0.7043689514921573  0.6449570149660081  0.5104864921626127   T   T   T
  0.7015797074375941  0.9849448669212771  0.5091878004791485   T   T   T
  0.0002112439569970  0.0001379294448540  0.0373463921698374   F   F   F
  0.3342257926207992  0.0625994154237475  0.0423987318545187   F   F   F
  0.1660626269271432  0.0626581163633873  0.0424061668450690   F   F   F
  0.2502202084754828  0.1252178855354416  0.1130358333669221   F   F   F
  0.0828588434925734  0.0627073156657261  0.1186643004524512   F   F   F
  0.4176999472490408  0.0627059576615423  0.1186271515872050   F   F   F
  0.0007076566896595  0.1252011979878249  0.1991760486223602   T   T   T
  0.3326935310207839  0.0626726294290489  0.1975674654920568   T   T   T
  0.1678687556803191  0.0626839369882639  0.1976642517370647   T   T   T
  0.2485544679978293  0.1250440796507862  0.2783118913755055   T   T   T
  0.0837137636556312  0.0626478839761833  0.2789296890960584   T   T   T
  0.4178259969507606  0.0625233607874144  0.2775552026299436   T   T   T
  0.0022507261736880  0.1252698580968385  0.3594030778608355   T   T   T
  0.3325761836313743  0.0626244021970107  0.3565996754854847   T   T   T
  0.1651591312233261  0.0625582537193160  0.3614392837031372   T   T   T
  0.0001993579241457  0.1251124241418680  0.0373673238785415   F   F   F
  0.3342248374093941  0.1876083518869578  0.0424180467130881   F   F   F
  0.1660568042752573  0.1876606967942038  0.0424146876443743   F   F   F
  0.2502332970886698  0.2502158349488468  0.1130222857832806   F   F   F
  0.0828712378028129  0.1877169521294775  0.1186661494224168   F   F   F
  0.4176644359050954  0.1877065482458207  0.1186607550294028   F   F   F
  0.0007271240252701  0.2503042067554245  0.1991898085902879   T   T   T
  0.3327702789886885  0.1877613996195132  0.1975695677051514   T   T   T
  0.1678663504786275  0.1877344600081782  0.1976450326363093   T   T   T
  0.2485970695813120  0.2502573731512114  0.2783822440578386   T   T   T
  0.0835608157636902  0.1877338454196141  0.2787750238474589   T   T   T
  0.4177798057049049  0.1877711524503105  0.2774016151018830   T   T   T
  0.0014583957771466  0.2505564165540408  0.3596429275306041   T   T   T
  0.3327170253202372  0.1874079063658509  0.3556861110850563   T   T   T
  0.1645114183667333  0.1875740733217339  0.3609224979081130   T   T   T
  0.0002122078768210  0.2501392066830732  0.0373456541597363   F   F   F
  0.3342232035055162  0.3125992309382539  0.0423967923009556   F   F   F
  0.1660586660861370  0.3126582257413517  0.0424062846115874   F   F   F
  0.2502173161139041  0.3752178897059935  0.1130360339591618   F   F   F
  0.0828568376004242  0.3127060748111887  0.1186645141734175   F   F   F
  0.4176984722473520  0.3127078846600213  0.1186298408889357   F   F   F
  0.0008764720509947  0.3752497744943093  0.1992050678967534   T   T   T
  0.3327771211667002  0.3128275103880309  0.1976199872800758   T   T   T
  0.1679487212840578  0.3127840950543614  0.1976678275834640   T   T   T
  0.2490526434865917  0.3753012170946949  0.2787051669144960   T   T   T
  0.0838788332757736  0.3127464151206678  0.2789852379020634   T   T   T
  0.4175748507957154  0.3128791249928438  0.2778870520005692   T   T   T
  0.0021492377411874  0.3757374317099907  0.3598044404650431   T   T   T
  0.3327223003660728  0.3126503830972876  0.3570636888459728   T   T   T
  0.1652009414345199  0.3127941466918330  0.3617443574458650   T   T   T
  0.0001993469486266  0.3751125453592721  0.0373668329409540   F   F   F
  0.3342265491584655  0.4376091382735581  0.0424193945147948   F   F   F
  0.1660559599480962  0.4376604044393986  0.0424156771225839   F   F   F
  0.2502327017382058  0.0002164962773534  0.1130220722767348   F   F   F
  0.0828707196508915  0.4377156099338606  0.1186668391713255   F   F   F
  0.4176643738564039  0.4377089816271393  0.1186614737223408   F   F   F
  0.0008237666050531  0.0001826219657247  0.1991900596996785   T   T   T
  0.3328845298163192  0.4377839183241385  0.1977167550521234   T   T   T
  0.1679804072518110  0.4377625114984718  0.1977658077589975   T   T   T
  0.2490371121413669  0.0000696908985248  0.2785718026019274   T   T   T
  0.0840516921419115  0.4377065412577389  0.2790540453489588   T   T   T
  0.4173428305092998  0.4378045505696957  0.2783450863183153   T   T   T
  0.0031353737065311 -0.0000000092192111  0.3599028686884832   T   T   T
  0.3333496564902327  0.4375076494313805  0.3582998153426740   T   T   T
  0.1663246482895502  0.4374493983233262  0.3607015356577178   T   T   T
  0.0002112439569970  0.5001379294448540  0.0373463921698374   F   F   F
  0.3342257926207992  0.5625994154237475  0.0423987318545187   F   F   F
  0.1660626269271432  0.5626581163633873  0.0424061668450690   F   F   F
  0.2502202084754828  0.6252178855354416  0.1130358333669221   F   F   F
  0.0828588434925734  0.5627073156657261  0.1186643004524512   F   F   F
  0.4176999472490408  0.5627059576615423  0.1186271515872050   F   F   F
  0.0008118083255780  0.6252586727428474  0.1991859195819083   T   T   T
  0.3329256493535647  0.5627270809103800  0.1977457684118380   T   T   T
  0.1680937418527191  0.5627280134425809  0.1977955058876109   T   T   T
  0.2496500246282616  0.6251386840541567  0.2787344053578337   T   T   T
  0.0841072747706191  0.5627592340760154  0.2789449433529023   T   T   T
  0.4174513091425199  0.5626301164918360  0.2783972856834829   T   T   T
  0.0025099752324431  0.6254700808519118  0.3598180246477066   T   T   T
  0.3337217739630567  0.5625079215842634  0.3587793869110459   T   T   T
  0.1663249427301630  0.5625653722541667  0.3606934871732901   T   T   T
  0.0001993579241457  0.6251124241418680  0.0373673238785415   F   F   F
  0.3342248374093941  0.6876083518869507  0.0424180467130881   F   F   F
  0.1660568042752573  0.6876606967941967  0.0424146876443743   F   F   F
  0.2502332970886698  0.7502158349488468  0.1130222857832806   F   F   F
  0.0828712378028129  0.6877169521294704  0.1186661494224168   F   F   F
  0.4176644359050954  0.6877065482458136  0.1186607550294028   F   F   F
  0.0008840946242969  0.7502672332638227  0.1991976146617300   T   T   T
  0.3329212696974596  0.6877168850789415  0.1977020592806090   T   T   T
  0.1681839417395828  0.6877137208838605  0.1976996894343596   T   T   T
  0.2495360213819001  0.7500504683084159  0.2787297508881627   T   T   T
  0.0841118843028433  0.6877500313791084  0.2787819643219839   T   T   T
  0.4174646389341930  0.6876484930856629  0.2781886282345455   T   T   T
  0.0023848212874460  0.7500882465414872  0.3595188864488488   T   T   T
  0.3337598541756193  0.6874971023086547  0.3578118978946713   T   T   T
  0.1665832758936993  0.6877921027575631  0.3600168085373872   T   T   T
  0.0002122078768210  0.7501392066830732  0.0373456541597363   F   F   F
  0.3342232035055162  0.8125992309382539  0.0423967923009556   F   F   F
  0.1660586660861370  0.8126582257413517  0.0424062846115874   F   F   F
  0.2502173161139041  0.8752178897059935  0.1130360339591618   F   F   F
  0.0828568376004242  0.8127060748111887  0.1186645141734175   F   F   F
  0.4176984722473520  0.8127078846600213  0.1186298408889357   F   F   F
  0.0009438033253683  0.8752094054118981  0.1992260540608358   T   T   T
  0.3328589162501316  0.8126948131366667  0.1977015793134360   T   T   T
  0.1680965019111074  0.8127215199331913  0.1976936554341778   T   T   T
  0.2493956142554364  0.8751905662248860  0.2787607342855239   T   T   T
  0.0845967438598658  0.8127409381674811  0.2789910420871827   T   T   T
  0.4174629669719594  0.8125644190466217  0.2781867059073074   T   T   T
  0.0016305315663529  0.8755179553114016  0.3595684795534522   T   T   T
  0.3330517429273188  0.8126931927431342  0.3581056932582377   T   T   T
  0.1660567354567718  0.8126911152354888  0.3619931262660552   T   T   T
  0.0001993469486266  0.8751125453592721  0.0373668329409540   F   F   F
  0.3342265491584655  0.9376091382735510  0.0424193945147948   F   F   F
  0.1660559599480962  0.9376604044393915  0.0424156771225839   F   F   F
  0.2502327017382058  0.5002164962773534  0.1130220722767348   F   F   F
  0.0828707196508915  0.9377156099338535  0.1186668391713255   F   F   F
  0.4176643738564039  0.9377089816271322  0.1186614737223408   F   F   F
  0.0008831038995831  0.5002344236909196  0.1991872827058586   T   T   T
  0.3327924136029733  0.9376621791890180  0.1976550304435980   T   T   T
  0.1679658676387133  0.9376968769059036  0.1977117345201042   T   T   T
  0.2494530936257423  0.5001841315596615  0.2788565082667984   T   T   T
  0.0841411645965085  0.9376826130908454  0.2790879701664762   T   T   T
  0.4176433836435698  0.9374593777881044  0.2779923087104703   T   T   T
  0.0038052082558550  0.5006051798510790  0.3599800531958245   T   T   T
  0.3338639300148192  0.9375529121258221  0.3575488355534274   T   T   T
  0.1662630199044095  0.9375497270654284  0.3608817011708652   T   T   T
  0.5002112439569970  0.0001379294448540  0.0373463921698374   F   F   F
  0.8342257926207992  0.0625994154237475  0.0423987318545187   F   F   F
  0.6660626269271432  0.0626581163633873  0.0424061668450690   F   F   F
  0.7502202084754828  0.1252178855354416  0.1130358333669221   F   F   F
  0.5828588434925734  0.0627073156657261  0.1186643004524512   F   F   F
  0.9176999472490408  0.0627059576615423  0.1186271515872050   F   F   F
  0.5013751283527624  0.1251369944764662  0.1990427513362441   T   T   T
  0.8328947742350498  0.0627335369317195  0.1977568586748628   T   T   T
  0.6682170624802282  0.0627243035773701  0.1977253564782896   T   T   T
  0.7492253157758711  0.1252457223554077  0.2787803881899622   T   T   T
  0.5845482277957741  0.0626803689580428  0.2789755605954086   T   T   T
  0.9170022758110111  0.0627146145793111  0.2783209750211136   T   T   T
  0.5016075361175427  0.1254033317817209  0.3590077780276308   T   T   T
  0.8333109784816612  0.0629270417130422  0.3584866614434767   T   T   T
  0.6656338884659819  0.0628081573322282  0.3621332517823349   T   T   T
  0.5001993579241457  0.1251124241418680  0.0373673238785415   F   F   F
  0.8342248374093941  0.1876083518869578  0.0424180467130881   F   F   F
  0.6660568042752573  0.1876606967942038  0.0424146876443743   F   F   F
  0.7502332970886698  0.2502158349488468  0.1130222857832806   F   F   F
  0.5828712378028129  0.1877169521294775  0.1186661494224168   F   F   F
  0.9176644359050954  0.1877065482458207  0.1186607550294028   F   F   F
  0.5012953634346554  0.2503542408558796  0.1990566005780121   T   T   T
  0.8328012308931351  0.1877691267315946  0.1976927628650672   T   T   T
  0.6681715356410911  0.1877788450028262  0.1977064617024194   T   T   T
  0.7493319926750898  0.2502922368462968  0.2788062472483070   T   T   T
  0.5843160036242075  0.1877438716853008  0.2789428056619034   T   T   T
  0.9169666431224032  0.1877817680882355  0.2782382026503478   T   T   T
  0.5032946482258308  0.2500559874080610  0.3595868962295404   T   T   T
  0.8331385420746675  0.1878817600333715  0.3579844217748824   T   T   T
  0.6660148123645716  0.1876685518992519  0.3606479410854380   T   T   T
  0.5002122078768210  0.2501392066830732  0.0373456541597363   F   F   F
  0.8342232035055162  0.3125992309382539  0.0423967923009556   F   F   F
  0.6660586660861370  0.3126582257413517  0.0424062846115874   F   F   F
  0.7502173161139041  0.3752178897059935  0.1130360339591618   F   F   F
  0.5828568376004242  0.3127060748111887  0.1186645141734175   F   F   F
  0.9176984722473520  0.3127078846600213  0.1186298408889357   F   F   F
  0.5011325028429479  0.3753383088908585  0.1991456014473405   T   T   T
  0.8328744485376119  0.3128069090181919  0.1977690403931560   T   T   T
  0.6681607237314928  0.3127990867474321  0.1977915707495465   T   T   T
  0.7494023114319358  0.3752589597416426  0.2788295773810522   T   T   T
  0.5843385161610971  0.3128541837814872  0.2790567738723284   T   T   T
  0.9170451859990747  0.3128147504329361  0.2783899618075723   T   T   T
  0.5028150283030096  0.3752514921602484  0.3596676145617292   T   T   T
  0.8335844741244712  0.3127183397377502  0.3588196206189859   T   T   T
  0.6660025292855304  0.3127643183862813  0.3610637717873818   T   T   T
  0.5001993469486266  0.3751125453592721  0.0373668329409540   F   F   F
  0.8342265491584655  0.4376091382735581  0.0424193945147948   F   F   F
  0.6660559599480962  0.4376604044393986  0.0424156771225839   F   F   F
  0.7502327017382058  0.0002164962773534  0.1130220722767348   F   F   F
  0.5828707196508915  0.4377156099338606  0.1186668391713255   F   F   F
  0.9176643738564039  0.4377089816271393  0.1186614737223408   F   F   F
  0.5012992001027402  0.0001281026521793  0.1990967030047763   T   T   T
  0.8328514318191784  0.4378075100227761  0.1977415859990364   T   T   T
  0.6681843028318798  0.4377936547803031  0.1977611777945023   T   T   T
  0.7494386415625519  0.0002151460046981  0.2788386930867490   T   T   T
  0.5843111655915680  0.4378990068254240  0.2790513061747878   T   T   T
  0.9171702623167268  0.4378127237354291  0.2783113152048547   T   T   T
  0.5018645663744815  0.9999022009929969  0.3593848460798628   T   T   T
  0.8332347688141053  0.4376324431455603  0.3579892721381865   T   T   T
  0.6660155963513749  0.4380773827176132  0.3605237018224994   T   T   T
  0.5002112439569970  0.5001379294448540  0.0373463921698374   F   F   F
  0.8342257926207992  0.5625994154237475  0.0423987318545187   F   F   F
  0.6660626269271432  0.5626581163633873  0.0424061668450690   F   F   F
  0.7502202084754828  0.6252178855354416  0.1130358333669221   F   F   F
  0.5828588434925734  0.5627073156657261  0.1186643004524512   F   F   F
  0.9176999472490408  0.5627059576615423  0.1186271515872050   F   F   F
  0.5011658635324968  0.6251717479195583  0.1991947255569386   T   T   T
  0.8328730607584235  0.5627901465433943  0.1977954770096318   T   T   T
  0.6682259839767706  0.5627793157829257  0.1977579594751947   T   T   T
  0.7497499472105222  0.6253042117200903  0.2790011756673413   T   T   T
  0.5847545043970859  0.5627618291213500  0.2791169981374106   T   T   T
  0.9171026167237399  0.5627498047525888  0.2784204071184626   T   T   T
  0.5019763261625779  0.6253419774674449  0.3592817072460220   T   T   T
  0.8331187499837156  0.5627184207468655  0.3585233173940118   T   T   T
  0.6660699787784542  0.5627808691720633  0.3624413052709108   T   T   T
  0.5001993579241457  0.6251124241418680  0.0373673238785415   F   F   F
  0.8342248374093941  0.6876083518869507  0.0424180467130881   F   F   F
  0.6660568042752573  0.6876606967941967  0.0424146876443743   F   F   F
  0.7502332970886698  0.7502158349488468  0.1130222857832806   F   F   F
  0.5828712378028129  0.6877169521294704  0.1186661494224168   F   F   F
  0.9176644359050954  0.6877065482458136  0.1186607550294028   F   F   F
  0.5011584368805754  0.7501894420949538  0.1991727493326818   T   T   T
  0.8329212173086955  0.6877660496202126  0.1978057549266332   T   T   T
  0.6682732603367548  0.6877720332903648  0.1977838234300820   T   T   T
  0.7498686075792768  0.7502490694383699  0.2789781830011782   T   T   T
  0.5846305420985906  0.6876911336733601  0.2790292085852726   T   T   T
  0.9171896502648444  0.6877180301708995  0.2784849648814488   T   T   T
  0.5037845944783300  0.7502508032758678  0.3598048746915363   T   T   T
  0.8345366852877195  0.6876357919417251  0.3587908960160783   T   T   T
  0.6669455137756124  0.6877566139940143  0.3607092120172238   T   T   T
  0.5002122078768210  0.7501392066830732  0.0373456541597363   F   F   F
  0.8342232035055162  0.8125992309382539  0.0423967923009556   F   F   F
  0.6660586660861370  0.8126582257413517  0.0424062846115874   F   F   F
  0.7502173161139041  0.8752178897059935  0.1130360339591618   F   F   F
  0.5828568376004242  0.8127060748111887  0.1186645141734175   F   F   F
  0.9176984722473520  0.8127078846600213  0.1186298408889357   F   F   F
  0.5011506428988977  0.8751423875135580  0.1991550566570666   T   T   T
  0.8329237103625360  0.8127458927429809  0.1977888768882106   T   T   T
  0.6682634589082518  0.8127384348619209  0.1977730097172933   T   T   T
  0.7497866632857678  0.8753526959965305  0.2788935605121778   T   T   T
  0.5845014692740763  0.8126613896709521  0.2790320610036534   T   T   T
  0.9173672156804950  0.8127626942337421  0.2784386789955542   T   T   T
  0.5034935441496516  0.8751212126187057  0.3597139383209050   T   T   T
  0.8339095084129784  0.8130373640440889  0.3589376743716446   T   T   T
  0.6664187130273238  0.8128927490980259  0.3609323954765494   T   T   T
  0.5001993469486266  0.8751125453592721  0.0373668329409540   F   F   F
  0.8342265491584655  0.9376091382735510  0.0424193945147948   F   F   F
  0.6660559599480962  0.9376604044393915  0.0424156771225839   F   F   F
  0.7502327017382058  0.5002164962773534  0.1130220722767348   F   F   F
  0.5828707196508915  0.9377156099338535  0.1186668391713255   F   F   F
  0.9176643738564039  0.9377089816271322  0.1186614737223408   F   F   F
  0.5011004527079546  0.5002870353090345  0.1991960252639894   T   T   T
  0.8329733142834803  0.9377392949341712  0.1977690668021721   T   T   T
  0.6682301543423144  0.9377037711753359  0.1977416575994727   T   T   T
  0.7494061992199030  0.5001921565654479  0.2788967224212907   T   T   T
  0.5843877457250616  0.9376690605800800  0.2789428414879256   T   T   T
  0.9172656906366800  0.9377916427729861  0.2784233074695607   T   T   T
  0.5020193567517419  0.4999426071359652  0.3599517402772149   T   T   T
  0.8338872992226237  0.9380032281102993  0.3584129667278967   T   T   T
  0.6665514983501745  0.9379931337501054  0.3605288524900707   T   T   T
  0.4059663601692378  0.0001462046730154  0.0700885167279779   F   F   F
  0.2501335306342440  0.0001313415364734  0.0393543396202674   F   F   F
  0.0944334762619548  0.0001738881651363  0.0701382961740649   F   F   F
  0.1549947328934422  0.1252546000618224  0.1485264565477067   F   F   F
  0.0003044512358912  0.1252329358346600  0.1366467142038701   F   F   F
  0.3454752489896649  0.1252525403775380  0.1484231789215542   F   F   F
  0.4019176382693092  0.1251626809995715  0.2287839331678085   T   T   T
  0.2501407579973181  0.1252206242492380  0.2151479582065595   T   T   T
  0.0997617659250300  0.1251683609365492  0.2298143692349419   T   T   T
  0.1505724951872141  0.1251138004497362  0.3109754324384026   T   T   T
  0.0002958271232479  0.1252641050946568  0.2953748496358478   T   T   T
  0.3483567145878576  0.1248166025966103  0.3074233144450059   T   T   T
  0.4010087089172064  0.1252990543267445  0.3850367108921334   T   T   T
  0.2504324065411281  0.1250777077902119  0.3726057725446644   T   T   T
  0.0988113148940160  0.1252001853635903  0.3905357808449522   T   T   T
  0.4059504510021199  0.1251528418496832  0.0701137697057277   F   F   F
  0.2501484584581348  0.1251294756807368  0.0393952583647277   F   F   F
  0.0944439778587522  0.1251741239827453  0.0701534912843229   F   F   F
  0.1549877250862224  0.2502614546838657  0.1485179043880294   F   F   F
  0.0002974674814880  0.2502100279361912  0.1366324893501272   F   F   F
  0.3454803331882346  0.2503006024972620  0.1484139149937889   F   F   F
  0.4019205034357770  0.2504418046242967  0.2289172507640725   T   T   T
  0.2501651039560124  0.2502624257669089  0.2151975891804731   T   T   T
  0.0997797969046847  0.2503316737106761  0.2298249285714430   T   T   T
  0.1507407425691641  0.2502856291588008  0.3109370592844001   T   T   T
  0.0003239561990443  0.2503210659620183  0.2955327958209389   T   T   T
  0.3481816657399891  0.2505271913199840  0.3076196913668459   T   T   T
  0.4019756683546380  0.2489796133013359  0.3842613477649608   T   T   T
  0.2506581541396763  0.2498808690635772  0.3728212796535415   T   T   T
  0.0989020528959795  0.2499791255422343  0.3899696435891730   T   T   T
  0.4059628358367533  0.2501443164155361  0.0700852243531500   F   F   F
  0.2501309939231433  0.2501318371526651  0.0393519425499136   F   F   F
  0.0944333317481849  0.2501740935465691  0.0701386596889861   F   F   F
  0.1549942609652177  0.3752545226085218  0.1485264414225469   F   F   F
  0.0003019335461047  0.3752315664304433  0.1366474736751755   F   F   F
  0.3454762333887373  0.3752493953370220  0.1484229723695165   F   F   F
  0.4017233015481089  0.3753916396585799  0.2292473334294402   T   T   T
  0.2502686186104875  0.3752973720256031  0.2153766369383489   T   T   T