Ta  N Cu                                
   1.00000000000000     
     9.0548154099999998    0.0000000000000000    0.0000000000000000
     0.0000000000000000   11.6775998899999998    0.0000000000000000
     0.0000000000000000    0.0000000000000000   23.4818170799999990
   Ta   N    Cu
    60    60     2
Selective dynamics
Direct
  0.0000000000000000  0.0000000000000000  0.2546926809530987   F   F   F
  0.6670845899906297  0.1250000003211298  0.2638822399803757   F   F   F
  0.3329153514769843  0.1250000003211298  0.2638822399803757   F   F   F
  0.4999999994478088  0.2499999997859135  0.3618861993156202   F   F   F
  0.1650707596845180  0.1250000003211298  0.3684425577811794   F   F   F
  0.8349292403154820  0.1250000003211298  0.3684425577811794   F   F   F
  0.0004155893866193  0.2505086192064230  0.4798214424968807   T   T   T
  0.6656510408010772  0.1252447468002502  0.4782155853374137   T   T   T
  0.3349375095401644  0.1252819065695674  0.4782129196968524   T   T   T
  0.5005529031256016  0.2510568102979728  0.5910440901984870   T   T   T
  0.1681341812857446  0.1256994048224080  0.5903216681434555   T   T   T
  0.8330950673119883  0.1257673227972509  0.5902484302559943   T   T   T
  0.0010288994449375  0.2496862139427309  0.7023504601723024   T   T   T
  0.6669665517518044  0.1260267223621044  0.7020137889021134   T   T   T
  0.3347569136414584  0.1260515327026491  0.7020684750602653   T   T   T
  0.0000000000000000  0.2499999997859135  0.2546926809530987   F   F   F
  0.6670845899906297  0.3750000001070433  0.2638822399803757   F   F   F
  0.3329153514769843  0.3750000001070433  0.2638822399803757   F   F   F
  0.4999999994478088  0.5000000004281731  0.3618861993156202   F   F   F
  0.1650707596845180  0.3750000001070433  0.3684425577811794   F   F   F
  0.8349292403154820  0.3750000001070433  0.3684425577811794   F   F   F
  0.0003790384009870  0.5003282820263112  0.4797808401019008   T   T   T
  0.6654252951807414  0.3752272541967182  0.4781660197654013   T   T   T
  0.3351115539570930  0.3752674190756948  0.4781637767505069   T   T   T
  0.5005110277786056  0.5008313423878574  0.5907361548382585   T   T   T
  0.1682870445448594  0.3758964511929359  0.5901604133049877   T   T   T
  0.8328592095742755  0.3759120553961664  0.5900723587223903   T   T   T
  0.0008633152403297  0.5012281465090498  0.7020492285010403   T   T   T
  0.6708832609294441  0.3776469205370786  0.7040451639879850   T   T   T
  0.3305367092325837  0.3776926687352641  0.7041275229042225   T   T   T
  0.0000000000000000  0.5000000004281731  0.2546926809530987   F   F   F
  0.6670845899906297  0.6249999998929567  0.2638822399803757   F   F   F
  0.3329153514769843  0.6249999998929567  0.2638822399803757   F   F   F
  0.4999999994478088  0.7500000002140865  0.3618861993156202   F   F   F
  0.1650707596845180  0.6249999998929567  0.3684425577811794   F   F   F
  0.8349292403154820  0.6249999998929567  0.3684425577811794   F   F   F
  0.0003779599444188  0.7503571685360476  0.4797806815771441   T   T   T
  0.6652283773213312  0.6252689626154846  0.4781325624186265   T   T   T
  0.3352847653497758  0.6252959726455708  0.4781289646943891   T   T   T
  0.5005999453871471  0.7506133960455175  0.5907652435723082   T   T   T
  0.1682795823412562  0.6257018432721312  0.5900521139686223   T   T   T
  0.8328173057690770  0.6257185989161952  0.5899871520367482   T   T   T
  0.0009543060794484  0.7506066499561203  0.7020626719219383   T   T   T
  0.6722087649644816  0.6260550949635310  0.7040526913840947   T   T   T
  0.3294718384734833  0.6260497957299639  0.7040944142055975   T   T   T
  0.0000000000000000  0.7500000002140865  0.2546926809530987   F   F   F
  0.6670845899906297  0.8750000005352163  0.2638822399803757   F   F   F
  0.3329153514769843  0.8750000005352163  0.2638822399803757   F   F   F
  0.4999999994478088  0.0000000000000000  0.3618861993156202   F   F   F
  0.1650707596845180  0.8750000005352163  0.3684425577811794   F   F   F
  0.8349292403154820  0.8750000005352163  0.3684425577811794   F   F   F
  0.0003957986173452  0.0001576834914486  0.4798148330735972   T   T   T
  0.6654100045522838  0.8752867356546661  0.4781693570086720   T   T   T
  0.3351178773573095  0.8753409684659955  0.4781646522198715   T   T   T
  0.5005729061318327  0.0004186096260656  0.5910636561122553   T   T   T
  0.1683074629738330  0.8755306204139665  0.5901326694428756   T   T   T
  0.8328601765208257  0.8755715917656033  0.5900754541698943   T   T   T
  0.0009792115500963  0.0024051665417103  0.7024032407761130   T   T   T
  0.6710785115707600  0.8744684795736700  0.7040996707091099   T   T   T
  0.3306073348764660  0.8744706922682244  0.7041488124072729   T   T   T
  0.8141011533980276  0.0000000000000000  0.3013105672926031   F   F   F
  0.4999999994478088  0.0000000000000000  0.2564174481620327   F   F   F
  0.1858988466019724  0.0000000000000000  0.3013105672926031   F   F   F
  0.3088456122590841  0.2499999997859135  0.4099867722441957   F   F   F
  0.0000000000000000  0.2499999997859135  0.3930971035158137   F   F   F
  0.6911543877409159  0.2499999997859135  0.4099867722441957   F   F   F
  0.8029147782779161  0.2505281343594823  0.5221950575716162   T   T   T
  0.5003172658193286  0.2502119467744501  0.5030770748960449   T   T   T
  0.1979357298990237  0.2505592712348904  0.5222592440032986   T   T   T
  0.3035589334565666  0.2516292484374489  0.6335060580690168   T   T   T
  0.0006235767306824  0.2510033884456789  0.6141593594971616   T   T   T
  0.6976656154207092  0.2516552286985304  0.6334405774088819   T   T   T
  0.8025358256701042  0.2523041237162031  0.7423296774256403   T   T   T
  0.5008210738961787  0.2505329275152663  0.7237716252504574   T   T   T
  0.1993204170843957  0.2524172411122940  0.7424997594472156   T   T   T
  0.8141011533980276  0.2499999997859135  0.3013105672926031   F   F   F
  0.4999999994478088  0.2499999997859135  0.2564174481620327   F   F   F
  0.1858988466019724  0.2499999997859135  0.3013105672926031   F   F   F
  0.3088456122590841  0.5000000004281731  0.4099867722441957   F   F   F
  0.0000000000000000  0.5000000004281731  0.3930971035158137   F   F   F
  0.6911543877409159  0.5000000004281731  0.4099867722441957   F   F   F
  0.8027238859334817  0.5003401348131472  0.5220916993871110   T   T   T
  0.5002919819568473  0.5003236856720383  0.5027667552599319   T   T   T
  0.1980342961199030  0.5003932675063232  0.5221568293322938   T   T   T
  0.3046503780518727  0.5009497781046032  0.6332572708286215   T   T   T
  0.0005250959011211  0.5010030803559476  0.6135974355267092   T   T   T
  0.6965521816495883  0.5009061102396499  0.6331884112226737   T   T   T
  0.8068478192733481  0.5011486926464416  0.7406227201306914   T   T   T
  0.5007794172692295  0.4999889479075458  0.7237935425613605   T   T   T
  0.1947116817958784  0.5012303916906867  0.7407436010201350   T   T   T
  0.8141011533980276  0.5000000004281731  0.3013105672926031   F   F   F
  0.4999999994478088  0.5000000004281731  0.2564174481620327   F   F   F
  0.1858988466019724  0.5000000004281731  0.3013105672926031   F   F   F
  0.3088456122590841  0.7500000002140865  0.4099867722441957   F   F   F
  0.0000000000000000  0.7500000002140865  0.3930971035158137   F   F   F
  0.6911543877409159  0.7500000002140865  0.4099867722441957   F   F   F
  0.8027253219421110  0.7505865984703987  0.5220958088246563   T   T   T
  0.5002945551238398  0.7503643704502805  0.5028035695644444   T   T   T
  0.1980526144474603  0.7505867752294790  0.5221533034391571   T   T   T
  0.3046311883296982  0.7507264656243787  0.6332635544723222   T   T   T
  0.0005552897452849  0.7505235531531119  0.6136146897638525   T   T   T
  0.6966293558499380  0.7507413472437879  0.6332037378021402   T   T   T
  0.8070153764805204  0.7508674230483514  0.7406435865634731   T   T   T
  0.5008725763353470  0.7521546073865388  0.7238045207504975   T   T   T
  0.1948520352612585  0.7509473369822532  0.7407354392182961   T   T   T
  0.8141011533980276  0.7500000002140865  0.3013105672926031   F   F   F
  0.4999999994478088  0.7500000002140865  0.2564174481620327   F   F   F
  0.1858988466019724  0.7500000002140865  0.3013105672926031   F   F   F
  0.3088456122590841  0.0000000000000000  0.4099867722441957   F   F   F
  0.0000000000000000  0.0000000000000000  0.3930971035158137   F   F   F
  0.6911543877409159  0.0000000000000000  0.4099867722441957   F   F   F
  0.8029139924839402  0.0004138221248734  0.5221997282707833   T   T   T
  0.5003155322552761  0.0004587419978702  0.5030879005190393   T   T   T
  0.1979134281141998  0.0003995402421831  0.5222459982590185   T   T   T
  0.3035596554011525  0.0000383855658967  0.6335258697187749   T   T   T
  0.0006185019670137  0.0005343690847388  0.6141736603641642   T   T   T
  0.6977672309255266  0.0000976440914183  0.6334452320919586   T   T   T
  0.8027012021915788 -0.0001467544966282  0.7423978213066166   T   T   T
  0.5009104607808623  0.0015556393088804  0.7237854259677159   T   T   T
  0.1992539955328154 -0.0000994107623537  0.7425451056814082   T   T   T
  0.1352458237098157  0.1264413836103183  0.7915426984426993   T   T   T
  0.8666737856408310  0.1262604307554585  0.7914766785855121   T   T   T
 
  0.00000000E+00  0.00000000E+00  0.00000000E+00
  0.00000000E+00  0.00000000E+00  0.00000000E+00
  0.00000000E+00  0.00000000E+00  0.00000000E+00
  0.00000000E+00  0.00000000E+00  0.00000000E+00
  0.00000000E+00  0.00000000E+00  0.00000000E+00
  0.00000000E+00  0.00000000E+00  0.00000000E+00
  0.00000000E+00  0.00000000E+00  0.00000000E+00
  0.00000000E+00  0.00000000E+00  0.00000000E+00
  0.00000000E+00  0.00000000E+00  0.00000000E+00
  0.00000000E+00  0.00000000E+00  0.00000000E+00
  0.00000000E+00  0.00000000E+00  0.00000000E+00
  0.00000000E+00  0.00000000E+00  0.00000000E+00
  0.00000000E+00  0.00000000E+00  0.00000000E+00
  0.00000000E+00  0.00000000E+00  0.00000000E+00
  0.00000000E+00  0.00000000E+00  0.00000000E+00
  0.00000000E+00  0.00000000E+00  0.00000000E+00
  0.00000000E+00  0.00000000E+00  0.00000000E+00
  0.00000000E+00  0.00000000E+00  0.00000000E+00
  0.00000000E+00  0.00000000E+00  0.00000000E+00
  0.00000000E+00  0.00000000E+00  0.00000000E+00
  0.00000000E+00  0.00000000E+00  0.00000000E+00
  0.00000000E+00  0.00000000E+00  0.00000000E+00
  0.00000000E+00  0.00000000E+00  0.00000000E+00
  0.00000000E+00  0.00000000E+00  0.00000000E+00
  0.00000000E+00  0.00000000E+00  0.00000000E+00
  0.00000000E+00  0.00000000E+00  0.00000000E+00
  0.00000000E+00  0.00000000E+00  0.00000000E+00
  0.00000000E+00  0.00000000E+00  0.00000000E+00
  0.00000000E+00  0.00000000E+00  0.00000000E+00
  0.00000000E+00  0.00000000E+00  0.00000000E+00
  0.00000000E+00  0.00000000E+00  0.00000000E+00
  0.00000000E+00  0.00000000E+00  0.00000000E+00
  0.00000000E+00  0.00000000E+00  0.00000000E+00
  0.00000000E+00  0.00000000E+00  0.00000000E+00
  0.00000000E+00  0.00000000E+00  0.00000000E+00
  0.00000000E+00  0.00000000E+00  0.00000000E+00
  0.00000000E+00  0.00000000E+00  0.00000000E+00
  0.00000000E+00  0.00000000E+00  0.00000000E+00
  0.00000000E+00  0.00000000E+00  0.00000000E+00
  0.00000000E+00  0.00000000E+00  0.00000000E+00
  0.00000000E+00  0.00000000E+00  0.00000000E+00
  0.00000000E+00  0.00000000E+00  0.00000000E+00
  0.00000000E+00  0.00000000E+00  0.00000000E+00
  0.00000000E+00  0.00000000E+00  0.00000000E+00
  0.00000000E+00  0.00000000E+00  0.00000000E+00
  0.00000000E+00  0.00000000E+00  0.00000000E+00
  0.00000000E+00  0.00000000E+00  0.00000000E+00
  0.00000000E+00  0.00000000E+00  0.00000000E+00
  0.00000000E+00  0.00000000E+00  0.00000000E+00
  0.00000000E+00  0.00000000E+00  0.00000000E+00
  0.00000000E+00  0.00000000E+00  0.00000000E+00
  0.00000000E+00  0.00000000E+00  0.00000000E+00
  0.00000000E+00  0.00000000E+00  0.00000000E+00
  0.00000000E+00  0.00000000E+00  0.00000000E+00
  0.00000000E+00  0.00000000E+00  0.00000000E+00
  0.00000000E+00  0.00000000E+00  0.00000000E+00
  0.00000000E+00  0.00000000E+00  0.00000000E+00
  0.00000000E+00  0.00000000E+00  0.00000000E+00
  0.00000000E+00  0.00000000E+00  0.00000000E+00
  0.00000000E+00  0.00000000E+00  0.00000000E+00
  0.00000000E+00  0.00000000E+00  0.00000000E+00
  0.00000000E+00  0.00000000E+00  0.00000000E+00
  0.00000000E+00  0.00000000E+00  0.00000000E+00
  0.00000000E+00  0.00000000E+00  0.00000000E+00
  0.00000000E+00  0.00000000E+00  0.00000000E+00
  0.00000000E+00  0.00000000E+00  0.00000000E+00
  0.00000000E+00  0.00000000E+00  0.00000000E+00
  0.00000000E+00  0.00000000E+00  0.00000000E+00
  0.00000000E+00  0.00000000E+00  0.00000000E+00
  0.00000000E+00  0.00000000E+00  0.00000000E+00
  0.00000000E+00  0.00000000E+00  0.00000000E+00
  0.00000000E+00  0.00000000E+00  0.00000000E+00
  0.00000000E+00  0.00000000E+00  0.00000000E+00
  0.00000000E+00  0.00000000E+00  0.00000000E+00
  0.00000000E+00  0.00000000E+00  0.00000000E+00
  0.00000000E+00  0.00000000E+00  0.00000000E+00
  0.00000000E+00  0.00000000E+00  0.00000000E+00
  0.00000000E+00  0.00000000E+00  0.00000000E+00
  0.00000000E+00  0.00000000E+00  0.00000000E+00
  0.00000000E+00  0.00000000E+00  0.00000000E+00
  0.00000000E+00  0.00000000E+00  0.00000000E+00
  0.00000000E+00  0.00000000E+00  0.00000000E+00
  0.00000000E+00  0.00000000E+00  0.00000000E+00
  0.00000000E+00  0.00000000E+00  0.00000000E+00
  0.00000000E+00  0.00000000E+00  0.00000000E+00
  0.00000000E+00  0.00000000E+00  0.00000000E+00
  0.00000000E+00  0.00000000E+00  0.00000000E+00
  0.00000000E+00  0.00000000E+00  0.00000000E+00
  0.00000000E+00  0.00000000E+00  0.00000000E+00
  0.00000000E+00  0.00000000E+00  0.00000000E+00
  0.00000000E+00  0.00000000E+00  0.00000000E+00
  0.00000000E+00  0.00000000E+00  0.00000000E+00
  0.00000000E+00  0.00000000E+00  0.00000000E+00
  0.00000000E+00  0.00000000E+00  0.00000000E+00
  0.00000000E+00  0.00000000E+00  0.00000000E+00
  0.00000000E+00  0.00000000E+00  0.00000000E+00
  0.00000000E+00  0.00000000E+00  0.00000000E+00
  0.00000000E+00  0.00000000E+00  0.00000000E+00
  0.00000000E+00  0.00000000E+00  0.00000000E+00
  0.00000000E+00  0.00000000E+00  0.00000000E+00
  0.00000000E+00  0.00000000E+00  0.00000000E+00
  0.00000000E+00  0.00000000E+00  0.00000000E+00
  0.00000000E+00  0.00000000E+00  0.00000000E+00
  0.00000000E+00  0.00000000E+00  0.00000000E+00
  0.00000000E+00  0.00000000E+00  0.00000000E+00
  0.00000000E+00  0.00000000E+00  0.00000000E+00
  0.00000000E+00  0.00000000E+00  0.00000000E+00
  0.00000000E+00  0.00000000E+00  0.00000000E+00
  0.00000000E+00  0.00000000E+00  0.00000000E+00
  0.00000000E+00  0.00000000E+00  0.00000000E+00
  0.00000000E+00  0.00000000E+00  0.00000000E+00
  0.00000000E+00  0.00000000E+00  0.00000000E+00
  0.00000000E+00  0.00000000E+00  0.00000000E+00
  0.00000000E+00  0.00000000E+00  0.00000000E+00
  0.00000000E+00  0.00000000E+00  0.00000000E+00
  0.00000000E+00  0.00000000E+00  0.00000000E+00
  0.00000000E+00  0.00000000E+00  0.00000000E+00
  0.00000000E+00  0.00000000E+00  0.00000000E+00
  0.00000000E+00  0.00000000E+00  0.00000000E+00
  0.00000000E+00  0.00000000E+00  0.00000000E+00
  0.00000000E+00  0.00000000E+00  0.00000000E+00
  0.00000000E+00  0.00000000E+00  0.00000000E+00
