Ta  N Ru Cu 
 1.0000000000000000
    18.1096308199999996    0.0000000000000000    0.0000000000000000
     0.0000000000000000   23.3551997799999995    0.0000000000000000
     0.0000000000000000    0.0000000000000000   30.4818171199999988
 216 240  24  29
Selective dynamics
Cartesian
 18.0976700000000008  0.0152840000000000  5.9298039999999999   F   F   F
  5.9446089999999998  1.4090600000000000  6.1287589999999996   F   F   F
  3.0724260000000001  1.4106140000000000  6.1283260000000004   F   F   F
  4.5080470000000004  2.9168569999999998  8.5139659999999999   F   F   F
  1.4834740000000000  1.4752670000000001  8.6189760000000000   F   F   F
  7.5335109999999998  1.4729289999999999  8.6165109999999991   F   F   F
 18.0918099999999988  2.9276580000000001 11.2411519999999996   F   F   F
  6.0045739999999999  1.4693300000000000 11.2090730000000001   F   F   F
  3.0085609999999998  1.4692510000000001 11.2111090000000004   F   F   F
  4.5198950000000000  2.9134509999999998 13.8511279999999992   F   F   F
  1.4880720000000001  1.4586560000000000 13.8238249999999994   F   F   F
  7.5229530000000002  1.4622800000000000 13.8185020000000005   F   F   F
 18.0780950000000011  2.9433080000000000  5.9755659999999997   F   F   F
  6.0784450000000003  4.3977190000000004  6.1662520000000001   F   F   F
  2.9388410000000000  4.4010040000000004  6.1687529999999997   F   F   F
  4.5066300000000004  5.8650490000000000  8.5150190000000006   F   F   F
  1.4777570000000000  4.3896210000000000  8.6492229999999992   F   F   F
  7.5440839999999998  4.3869920000000002  8.6418549999999996   F   F   F
 18.0884380000000000  5.8510080000000002 11.2711629999999996   F   F   F
  6.0048519999999996  4.3888730000000002 11.2244840000000003   F   F   F
  3.0142940000000000  4.3905240000000001 11.2335630000000002   F   F   F
  4.5240119999999999  5.7870410000000003 13.8715799999999998   F   F   F
  1.4902979999999999  4.3707659999999997 13.8389340000000001   F   F   F
  7.5303579999999997  4.3725329999999998 13.8404760000000007   F   F   F
  6.0733889999999997  4.3093490000000001 16.5092239999999997   F   F   F
  0.0064340000000000  5.8369939999999998  5.9748820000000000   F   F   F
  5.9391290000000003  7.3840729999999999  6.1450149999999999   F   F   F
  3.0752190000000001  7.3869490000000004  6.1531560000000001   F   F   F
  4.5030619999999999  8.7629710000000003  8.5909639999999996   F   F   F
  1.4857359999999999  7.3075609999999998  8.6619259999999993   F   F   F
  7.5339390000000002  7.3047959999999996  8.6449639999999999   F   F   F
 18.0863470000000000  8.7672659999999993 11.2900250000000000   F   F   F
  6.0138309999999997  7.3080080000000001 11.2419770000000003   F   F   F
  3.0002960000000001  7.3081899999999997 11.2681149999999999   F   F   F
  4.5121510000000002  8.7457349999999998 13.8747190000000007   F   F   F
  1.5066590000000000  7.3000109999999996 13.9129009999999997   F   F   F
  7.5410800000000000  7.2991760000000001 13.8941359999999996   F   F   F
 18.0859850000000009  8.7778440000000000  5.9897250000000000   F   F   F
  5.9457649999999997 10.1561520000000005  6.1569870000000000   F   F   F
  3.0604540000000000 10.1566349999999996  6.1653099999999998   F   F   F
  4.5071560000000002  0.0191690000000000  8.5365660000000005   F   F   F
  1.4797659999999999 10.2304160000000000  8.6638929999999998   F   F   F
  7.5369099999999998 10.2306650000000001  8.6390469999999997   F   F   F
 18.0884970000000003  0.0083150000000000 11.2201830000000005   F   F   F
  6.0118320000000001 10.2266370000000002 11.2434989999999999   F   F   F
  3.0013550000000002 10.2241330000000001 11.2702100000000005   F   F   F
  4.5061980000000004  0.0026970000000000 13.8408639999999998   F   F   F
  1.5181060000000000 10.2378479999999996 13.9281089999999992   F   F   F
  7.5329629999999996 10.2253329999999991 13.8874589999999998   F   F   F
  6.1822900000000001 10.2497469999999993 16.5431829999999991   F   F   F
  0.0284980000000000 11.6776560000000007  5.9957539999999998   F   F   F
  5.9468660000000000 13.2079470000000008  6.1518980000000001   F   F   F
  3.0640060000000000 13.2087789999999998  6.1579709999999999   F   F   F
  4.5081480000000003 14.6069270000000007  8.5655680000000007   F   F   F
  1.4801780000000000 13.1385090000000009  8.6505960000000002   F   F   F
  7.5361170000000000 13.1405209999999997  8.6350999999999996   F   F   F
 18.0831939999999989 14.6152990000000003 11.2569479999999995   F   F   F
  6.0088960000000000 13.1481790000000007 11.2393190000000001   F   F   F
  3.0069200000000000 13.1483679999999996 11.2500619999999998   F   F   F
  4.5117370000000001 14.6157369999999993 13.8513099999999998   F   F   F
  1.4942480000000000 13.1484749999999995 13.8607530000000008   F   F   F
  7.5383509999999996 13.1545550000000002 13.8575239999999997   F   F   F
 18.0836439999999996 14.5856580000000005  5.9690390000000004   F   F   F
  5.9391710000000000 15.9841940000000005  6.1299089999999996   F   F   F
  3.0754790000000001 15.9810800000000004  6.1367529999999997   F   F   F
  4.5071170000000000 17.5107169999999996  8.4893680000000007   F   F   F
  1.4841230000000001 16.0655439999999992  8.6358259999999998   F   F   F
  7.5310400000000000 16.0670499999999983  8.6294020000000007   F   F   F
 18.0796630000000000 17.5238639999999997 11.2384540000000008   F   F   F
  6.0123939999999996 16.0718379999999996 11.2241739999999997   F   F   F
  3.0035729999999998 16.0716800000000006 11.2240110000000008   F   F   F
  4.4895079999999998 17.5800459999999994 13.8608989999999999   F   F   F
  1.5101640000000001 16.0832860000000011 13.8569110000000002   F   F   F
  7.5321790000000002 16.0866310000000006 13.8571770000000001   F   F   F
  6.0393179999999997 16.1467440000000018 16.5060779999999987   F   F   F
  0.0044490000000000 17.5413139999999999  5.9536650000000000   F   F   F
  6.0743349999999996 18.9786840000000012  6.1521100000000004   F   F   F
  2.9368629999999998 18.9774880000000010  6.1535390000000003   F   F   F
  4.5060399999999996 20.4623400000000011  8.4951500000000006   F   F   F
  1.4775490000000000 18.9869699999999995  8.6277790000000003   F   F   F
  7.5348759999999997 18.9867880000000007  8.6292050000000007   F   F   F
 18.0843109999999996 20.4493790000000004 11.2232319999999994   F   F   F
  5.9993460000000001 18.9888680000000001 11.2144449999999996   F   F   F
  3.0093390000000002 18.9877299999999991 11.2106870000000001   F   F   F
  4.5000419999999997 20.4552410000000009 13.8381790000000002   F   F   F
  1.4644210000000000 19.0059719999999999 13.8080770000000008   F   F   F
  7.5134650000000001 19.0027569999999990 13.8401630000000004   F   F   F
 18.0774399999999993 20.4358989999999991  5.9640319999999996   F   F   F
  5.9469589999999997 21.9683430000000008  6.1158149999999996   F   F   F
  3.0661369999999999 21.9702650000000013  6.1162630000000000   F   F   F
  4.5054650000000001 11.6797699999999995  8.5771359999999994   F   F   F
  1.4807660000000000 21.9024380000000001  8.6119360000000000   F   F   F
  7.5313179999999997 21.9016759999999984  8.6132299999999997   F   F   F
 18.0910739999999990 11.6852850000000004 11.2827660000000005   F   F   F
  6.0032420000000002 21.9077470000000005 11.2054760000000009   F   F   F
  3.0072049999999999 21.9077699999999993 11.2020510000000009   F   F   F
  4.4965950000000001 11.7326789999999992 13.8757070000000002   F   F   F
  1.4862059999999999 21.9081420000000016 13.8017880000000002   F   F   F
  7.5133669999999997 21.9143439999999998 13.8093360000000001   F   F   F
  6.0189659999999998 21.9180479999999989 16.4502099999999984   F   F   F
  2.9338389999999999 21.8875439999999983 16.4450989999999990   F   F   F
  9.0293770000000002  0.0123160000000000  5.9301969999999997   F   F   F
 15.0025709999999997  1.3968100000000001  6.1412399999999998   F   F   F
 12.1288970000000003  1.3974949999999999  6.1403200000000000   F   F   F
 13.5674939999999999  2.9302519999999999  8.5470480000000002   F   F   F
 10.5326810000000002  1.4745420000000000  8.6117390000000000   F   F   F
 16.5953219999999995  1.4745889999999999  8.6142149999999997   F   F   F
  9.0335690000000000  2.9279890000000002 11.2349669999999993   F   F   F
 15.0635739999999991  1.4686370000000000 11.2056489999999993   F   F   F
 12.0594339999999995  1.4697899999999999 11.2042050000000000   F   F   F
 13.5664639999999999  2.9128509999999999 13.8409879999999994   F   F   F
 10.5379839999999998  1.4629160000000001 13.8212820000000001   F   F   F
 16.5800769999999993  1.4570900000000000 13.8187169999999995   F   F   F
  9.0526879999999998  2.9406910000000002  5.9722600000000003   F   F   F
 15.0155419999999999  4.4659279999999999  6.1555569999999999   F   F   F
 12.1165380000000003  4.4624129999999997  6.1456070000000000   F   F   F
 13.5723470000000006  5.8550300000000002  8.5757040000000000   F   F   F
 10.5310279999999992  4.3855139999999997  8.6285989999999995   F   F   F
 16.6023999999999994  4.3861889999999999  8.6366320000000005   F   F   F
  9.0316100000000006  5.8503769999999999 11.2574009999999998   F   F   F
 15.0683810000000005  4.3873559999999996 11.2303320000000006   F   F   F
 12.0670699999999993  4.3860169999999998 11.2252489999999998   F   F   F
 13.5790480000000002  5.7887360000000001 13.8691060000000004   F   F   F
 10.5384670000000007  4.3683899999999998 13.8261830000000003   F   F   F
 16.5857540000000014  4.3774649999999999 13.8405170000000002   F   F   F
 15.1126000000000005  4.2897930000000004 16.4782900000000012   F   F   F
  9.0142900000000008  5.8325440000000004  5.9705149999999998   F   F   F
 15.0017530000000008  7.2260710000000001  6.1487340000000001   F   F   F
 12.1350780000000000  7.2281909999999998  6.1420959999999996   F   F   F
 13.5731260000000002  8.7436930000000004  8.5250780000000006   F   F   F
 10.5376919999999998  7.3068830000000000  8.6400179999999995   F   F   F
 16.5976469999999985  7.3088309999999996  8.6511809999999993   F   F   F
  9.0257480000000001  8.7607660000000003 11.2614490000000007   F   F   F
 15.0745489999999993  7.3039090000000000 11.2449040000000000   F   F   F
 12.0709879999999998  7.2997059999999996 11.2297879999999992   F   F   F
 13.5776760000000003  8.7849730000000008 13.8741699999999994   F   F   F
 10.5918139999999994  7.3013060000000003 13.8783650000000005   F   F   F
 16.6057239999999986  7.3078390000000004 13.9168699999999994   F   F   F
  9.0445709999999995  8.7761910000000007  5.9788389999999998   F   F   F
 15.1178329999999992 10.2449040000000000  6.1823519999999998   F   F   F
 12.0233989999999995 10.2438470000000006  6.1751860000000001   F   F   F
 13.5630760000000006  0.0144750000000000  8.5393709999999992   F   F   F
 10.5282579999999992 10.2224260000000005  8.6464250000000007   F   F   F
 16.6050800000000010 10.2227569999999996  8.6649189999999994   F   F   F
  9.0324100000000005  0.0094050000000000 11.2204920000000001   F   F   F
 15.0731579999999994 10.2241949999999999 11.2450069999999993   F   F   F
 12.0827430000000007 10.2235200000000006 11.2123880000000007   F   F   F
 13.5542379999999998  0.0039180000000000 13.8363029999999991   F   F   F
 10.5545419999999996 10.2268609999999995 13.7749210000000009   F   F   F
 16.5946679999999986 10.2236130000000003 13.8982539999999997   F   F   F
 15.0662529999999997 10.2696939999999994 16.5724750000000007   F   F   F
  8.9903499999999994 11.6794840000000004  5.9840850000000003   F   F   F
 15.1126760000000004 13.1189370000000007  6.1766790000000000   F   F   F
 12.0263589999999994 13.1194279999999992  6.1702589999999997   F   F   F
 13.5695569999999996 14.6246650000000002  8.4999300000000009   F   F   F
 10.5279989999999994 13.1472470000000001  8.6344329999999996   F   F   F
 16.6029860000000014 13.1456499999999998  8.6467019999999994   F   F   F
  9.0233430000000006 14.6156729999999992 11.2383229999999994   F   F   F
 15.0691590000000009 13.1507000000000005 11.2155939999999994   F   F   F
 12.0718890000000005 13.1544360000000005 11.1920439999999992   F   F   F
 13.5741569999999996 14.6106330000000000 13.8267900000000008   F   F   F
 10.5592140000000008 13.1491319999999998 13.8070120000000003   F   F   F
 16.5753979999999999 13.1504200000000004 13.8706530000000008   F   F   F
  9.0442680000000006 14.5882950000000005  5.9635249999999997   F   F   F
 14.9985490000000006 16.1483139999999992  6.1270290000000003   F   F   F
 12.1315310000000007 16.1445770000000017  6.1271360000000001   F   F   F
 13.5639719999999997 17.5254200000000004  8.5523910000000001   F   F   F
 10.5336149999999993 16.0663599999999995  8.6209430000000005   F   F   F
 16.5933090000000014 16.0642190000000014  8.6251320000000007   F   F   F
  9.0260040000000004 17.5262929999999990 11.2371599999999994   F   F   F
 15.0662479999999999 16.0735579999999985 11.2122410000000006   F   F   F
 12.0584080000000000 16.0752440000000014 11.2117609999999992   F   F   F
 13.5441909999999996 17.5762399999999985 13.8476660000000003   F   F   F
 10.5657949999999996 16.0847699999999989 13.8484020000000001   F   F   F
 16.5709480000000013 16.0797339999999984 13.8645519999999998   F   F   F
 15.1380429999999997 16.1382219999999990 16.5545340000000003   F   F   F
  9.0097649999999998 17.5418389999999995  5.9539999999999997   F   F   F
 15.0095869999999998 18.9110359999999993  6.1387689999999999   F   F   F
 12.1129160000000002 18.9128630000000015  6.1345190000000001   F   F   F
 13.5607930000000003 20.4461109999999984  8.5320269999999994   F   F   F
 10.5263419999999996 18.9902629999999988  8.6157889999999995   F   F   F
 16.5965339999999983 18.9904989999999998  8.6152519999999999   F   F   F
  9.0280679999999993 20.4509390000000018 11.2261330000000008   F   F   F
 15.0564459999999993 18.9902510000000007 11.2093139999999991   F   F   F
 12.0558720000000008 18.9921219999999984 11.2132430000000003   F   F   F
 13.5481300000000005 20.4603619999999999 13.8334050000000008   F   F   F
 10.5173679999999994 19.0078989999999983 13.8148630000000008   F   F   F
 16.5646120000000003 18.9992170000000016 13.8248099999999994   F   F   F
  9.0460379999999994 20.4337160000000004  5.9640589999999998   F   F   F
 15.0009499999999996 21.9831560000000010  6.1343480000000001   F   F   F
 12.1211749999999991 21.9818250000000006  6.1302329999999996   F   F   F
 13.5728770000000001 11.6868200000000009  8.4841400000000000   F   F   F
 10.5292449999999995 21.9014309999999988  8.6079249999999998   F   F   F
 16.5939550000000011 21.9017330000000001  8.6083929999999995   F   F   F
  9.0230599999999992 11.6904649999999997 11.2510929999999991   F   F   F
 15.0591249999999999 21.9080200000000005 11.1989879999999999   F   F   F
 12.0570109999999993 21.9094079999999991 11.1995140000000006   F   F   F
 13.5945730000000005 11.6829520000000002 13.8303759999999993   F   F   F
 10.5379109999999994 21.9138179999999991 13.8104650000000007   F   F   F
 16.5675370000000015 21.9076239999999984 13.8029849999999996   F   F   F
 15.0892459999999993 21.9130600000000015 16.4532300000000014   F   F   F
 12.0129029999999997 21.8971030000000013 16.4479010000000017   F   F   F
  6.0645350000000002  1.4308580000000000 16.4881390000000003   F   F   F
  2.9547829999999999  1.4253430000000000 16.4679439999999992   F   F   F
  6.1240750000000004  7.2351619999999999 16.5835900000000009   F   F   F
  5.9689550000000002 13.2414310000000004 16.5220969999999987   F   F   F
  6.0368519999999997 19.0363390000000017 16.5175790000000013   F   F   F
 15.1109960000000001  1.4184180000000000 16.4793319999999994   F   F   F
 12.0036269999999998  1.4439679999999999 16.4733559999999990   F   F   F
 15.2336399999999994  7.2752929999999996 16.5771389999999990   F   F   F
 15.2154410000000002 13.1966800000000006 16.5777600000000014   F   F   F
 15.1005190000000002 19.0416729999999994 16.4947809999999997   F   F   F
  3.0227960000000000  4.3567700000000000 16.4884290000000000   F   F   F
 12.0498840000000005  4.3524089999999998 16.4639969999999991   F   F   F
  2.9658009999999999 18.9534500000000001 16.4776419999999995   F   F   F
 11.9911510000000003 18.9641939999999991 16.5007379999999984   F   F   F
  7.3243289999999996  0.0088630000000000  7.0409079999999999   F   F   F
  4.5078269999999998  0.0107950000000000  5.3665810000000000   F   F   F
  1.6916389999999999  0.0127220000000000  7.0418890000000003   F   F   F
  2.7638140000000000  2.9304470000000000  9.6223600000000005   F   F   F
 18.0946700000000007  2.9283560000000000  9.2043490000000006   F   F   F
  6.2546840000000001  2.9279590000000000  9.6176680000000001   F   F   F
  7.2515790000000004  2.9276369999999998 12.2478780000000000   F   F   F
  4.5085110000000004  2.9246880000000002 11.7849570000000003   F   F   F
  1.7643249999999999  2.9254780000000000 12.2517879999999995   F   F   F
  2.7310750000000001  2.9136160000000002 14.8508300000000002   F   F   F
 18.0882530000000017  2.9156019999999998 14.4312240000000003   F   F   F
  6.3024030000000000  2.8999090000000001 14.8510399999999994   F   F   F
  7.3294839999999999  2.8618139999999999 17.3131920000000008   F   F   F
  4.5162579999999997  2.8887800000000001 16.9870240000000017   F   F   F
  1.6457090000000001  2.8425319999999998 17.2844839999999991   F   F   F
  7.3338570000000001  2.9196589999999998  7.0465809999999998   F   F   F
  4.5085920000000002  2.9532099999999999  6.3163440000000000   F   F   F
  1.6860310000000001  2.9234480000000000  7.0509880000000003   F   F   F
  2.7697769999999999  5.8538040000000002  9.6447400000000005   F   F   F
 18.0938419999999986  5.8512250000000003  9.2270559999999993   F   F   F
  6.2501480000000003  5.8507009999999999  9.6321700000000003   F   F   F
  7.2518180000000001  5.8476340000000002 12.2772530000000000   F   F   F
  4.5142590000000000  5.8471659999999996 11.8067349999999998   F   F   F
  1.7561020000000001  5.8537049999999997 12.2843590000000003   F   F   F
  2.7435779999999999  5.7717989999999997 14.8457889999999999   F   F   F
 18.1063539999999996  5.8127350000000000 14.4870970000000003   F   F   F
  6.3264860000000001  5.8082969999999996 14.9095709999999997   F   F   F
  7.2896140000000003  5.7383100000000002 17.4823340000000016   F   F   F
  4.5629150000000003  5.7478360000000004 17.0463629999999995   F   F   F
  1.5463439999999999  5.3614660000000001 17.4862770000000012   F   F   F
  7.3306979999999999  5.8596630000000003  7.0711630000000003   F   F   F
  4.5080830000000001  5.8371060000000003  6.2744479999999996   F   F   F
  1.6872300000000000  5.8639460000000003  7.0806019999999998   F   F   F
  2.7430089999999998  8.7666529999999998  9.6722839999999994   F   F   F
 18.0941779999999994  8.7648089999999996  9.2417420000000003   F   F   F
  6.2715420000000002  8.7671980000000005  9.6535379999999993   F   F   F
  7.2475129999999996  8.7611100000000004 12.2899519999999995   F   F   F
  4.5155479999999999  8.7644190000000002 11.8142829999999996   F   F   F
  1.7457670000000001  8.7625989999999998 12.3115330000000007   F   F   F
  2.7357950000000000  8.7430319999999995 14.8096219999999992   F   F   F
  0.0024370000000000  8.7807279999999999 14.5812960000000000   F   F   F
  6.3083179999999999  8.7402829999999998 14.9155590000000000   F   F   F
  7.2822779999999998  8.7321840000000002 17.4471150000000002   F   F   F
  4.6109059999999999  8.7281549999999992 17.2212649999999989   F   F   F
  1.0499630000000000  8.8199229999999993 18.1797930000000001   F   F   F
  7.3257740000000000  8.7652929999999998  7.0722079999999998   F   F   F
  4.5052770000000004  8.7765129999999996  5.3811980000000004   F   F   F
  1.6902509999999999  8.7667269999999995  7.0904680000000004   F   F   F
  2.7456640000000001  0.0114880000000000  9.6155760000000008   F   F   F
 18.0925820000000002  0.0101800000000000  9.1786580000000004   F   F   F
  6.2681550000000001  0.0107450000000000  9.6146729999999998   F   F   F
  7.2502969999999998  0.0127980000000000 12.2357960000000006   F   F   F
  4.5063760000000004  0.0103460000000000 11.7764480000000002   F   F   F
  1.7606390000000001  0.0119920000000000 12.2317359999999997   F   F   F
  2.7176279999999999 23.3548749999999998 14.8312279999999994   F   F   F
 18.0868450000000003 23.3486259999999994 14.4031149999999997   F   F   F
  6.2889730000000004  0.0084360000000000 14.8397970000000008   F   F   F
  7.3306620000000002 23.3143069999999994 17.2976360000000007   F   F   F
  4.4858630000000002 23.3516739999999992 16.9812049999999992   F   F   F
  1.6509170000000000 23.3341129999999986 17.2782449999999983   F   F   F
  7.2975230000000000 11.6826340000000002  7.0544110000000000   F   F   F
  4.5056349999999998 11.6802170000000007  6.4622880000000000   F   F   F
  1.7189019999999999 11.6813549999999999  7.0732179999999998   F   F   F
  2.7482609999999998 14.6046589999999998  9.6444179999999999   F   F   F
 18.0924709999999997 14.6066559999999992  9.2145849999999996   F   F   F
  6.2696249999999996 14.6065070000000006  9.6382080000000006   F   F   F
  7.2497379999999998 14.6174140000000001 12.2645490000000006   F   F   F
  4.5115429999999996 14.6209840000000000 11.7945419999999999   F   F   F
  1.7551589999999999 14.6297689999999996 12.2574159999999992   F   F   F
  2.7297929999999999 14.5828520000000008 14.7779509999999998   F   F   F
 18.0883099999999999 14.6416660000000007 14.3921440000000000   F   F   F
  6.3151630000000001 14.6342839999999992 14.8683739999999993   F   F   F
  7.2041680000000001 14.7055150000000001 17.4581000000000017   F   F   F
  4.6025169999999997 14.7010410000000000 16.9686599999999999   F   F   F
  1.5258630000000000 15.1636600000000001 17.0762539999999987   F   F   F
  7.3260860000000001 14.6029859999999996  7.0583470000000004   F   F   F
  4.5063060000000004 14.5844539999999991  5.3705769999999999   F   F   F
  1.6885450000000000 14.6006040000000006  7.0692760000000003   F   F   F
  2.7694770000000002 17.5242690000000003  9.6160770000000007   F   F   F
 18.0898789999999998 17.5254179999999984  9.1982330000000001   F   F   F
  6.2450559999999999 17.5248619999999988  9.6161689999999993   F   F   F
  7.2473200000000002 17.5390039999999985 12.2596860000000003   F   F   F
  4.5069720000000002 17.5283809999999995 11.7937650000000005   F   F   F
  1.7525530000000000 17.5256229999999995 12.2464720000000007   F   F   F
  2.6970339999999999 17.6082080000000012 14.8267039999999994   F   F   F
 18.0765390000000004 17.5622819999999997 14.4388970000000008   F   F   F
  6.2869539999999997 17.5770720000000011 14.8686330000000009   F   F   F
  7.2204319999999997 17.6314999999999991 17.4644000000000013   F   F   F
  4.4869349999999999 17.6175050000000013 17.0229929999999996   F   F   F
  1.3279790000000000 17.9023089999999989 17.3669159999999998   F   F   F
  7.3266999999999998 17.5133499999999991  7.0552580000000003   F   F   F
  4.5067329999999997 17.5348380000000006  6.2454140000000002   F   F   F
  1.6862720000000000 17.5098379999999985  7.0572270000000001   F   F   F
  2.7645680000000001 20.4498509999999989  9.6062680000000000   F   F   F
 18.0911890000000000 20.4454039999999999  9.1878530000000005   F   F   F
  6.2463480000000002 20.4502820000000014  9.6090750000000007   F   F   F
  7.2456379999999996 20.4459330000000001 12.2396180000000001   F   F   F
  4.5049159999999997 20.4505160000000004 11.7736889999999992   F   F   F
  1.7591990000000000 20.4477310000000010 12.2273289999999992   F   F   F
  2.7102130000000000 20.4349039999999995 14.8290050000000004   F   F   F
 18.0784510000000012 20.4745419999999996 14.3916299999999993   F   F   F
  6.2865929999999999 20.4612690000000015 14.8414769999999994   F   F   F
  7.3107889999999998 20.5172729999999994 17.3230359999999983   F   F   F
  4.4700160000000002 20.4416410000000006 16.9645429999999990   F   F   F
  1.6179429999999999 20.4676800000000014 17.2575569999999985   F   F   F
  7.3283860000000001 20.4565920000000006  7.0401129999999998   F   F   F
  4.5053739999999998 20.4277200000000008  6.2905709999999999   F   F   F
  1.6853380000000000 20.4582349999999984  7.0392539999999997   F   F   F
  2.7453530000000002 11.6839130000000004  9.6599000000000004   F   F   F
 18.0909070000000014 11.6859330000000003  9.2403739999999992   F   F   F
  6.2701960000000003 11.6848500000000008  9.6441780000000001   F   F   F
  7.2441769999999996 11.6878019999999996 12.2796719999999997   F   F   F
  4.5108340000000000 11.6852210000000003 11.8098030000000005   F   F   F
  1.7616689999999999 11.6740569999999995 12.2936420000000002   F   F   F
  2.7407560000000002 11.7426800000000000 14.8802040000000009   F   F   F
 18.0983920000000005 11.6896260000000005 14.4788359999999994   F   F   F
  6.3011749999999997 11.7334479999999992 14.9006100000000004   F   F   F
  7.2670320000000004 11.7990239999999993 17.4826620000000013   F   F   F
  4.6734540000000004 11.6283390000000004 17.0838539999999988   F   F   F
  1.2818840000000000 12.1931639999999994 17.7642980000000001   F   F   F
 16.3900609999999993  0.0117900000000000  7.0363350000000002   F   F   F
 13.5635130000000004  0.0119850000000000  5.3709470000000001   F   F   F
 10.7381100000000007  0.0109540000000000  7.0356050000000003   F   F   F
 11.8026579999999992  2.9330870000000000  9.6183139999999998   F   F   F
  9.0347570000000008  2.9277880000000001  9.1983359999999994   F   F   F
 15.3286739999999995  2.9332639999999999  9.6226920000000007   F   F   F
 16.3083169999999988  2.9230320000000001 12.2497939999999996   F   F   F
 13.5650999999999993  2.9229289999999999 11.7792399999999997   F   F   F
 10.8161649999999998  2.9226079999999999 12.2432280000000002   F   F   F
 11.7809209999999993  2.9121679999999999 14.8372989999999998   F   F   F
  9.0330580000000005  2.9195980000000001 14.4197590000000009   F   F   F
 15.3520389999999995  2.8934590000000000 14.8406800000000008   F   F   F
 16.3676069999999996  2.8490300000000000 17.3187040000000003   F   F   F
 13.5545550000000006  2.8902670000000001 16.9800930000000001   F   F   F
 10.7201939999999993  2.9407230000000002 17.2700749999999985   F   F   F
 16.3717070000000007  2.9378880000000001  7.0406909999999998   F   F   F
 13.5669199999999996  2.9373000000000000  6.4182119999999996   F   F   F
 10.7614850000000004  2.9355460000000000  7.0361269999999996   F   F   F
 11.8012739999999994  5.8420880000000004  9.6355360000000001   F   F   F
  9.0364229999999992  5.8500829999999997  9.2133459999999996   F   F   F
 15.3368420000000008  5.8466690000000003  9.6484590000000008   F   F   F
 16.3112490000000001  5.8552260000000000 12.2895819999999993   F   F   F
 13.5732040000000005  5.8468580000000001 11.8021069999999995   F   F   F
 10.8156099999999995  5.8528810000000000 12.2599199999999993   F   F   F
 11.7890709999999999  5.7521690000000003 14.8244539999999994   F   F   F
  9.0532570000000003  5.8246260000000003 14.4598720000000007   F   F   F
 15.3746469999999995  5.8067299999999999 14.9014140000000008   F   F   F
 16.3976189999999988  5.6651980000000002 17.4496129999999994   F   F   F
 13.6095810000000004  5.7393470000000004 17.0897390000000016   F   F   F
 10.6077680000000001  5.6031930000000001 17.3863939999999992   F   F   F
 16.3948859999999996  5.8564249999999998  7.0641040000000004   F   F   F
 13.5669160000000009  5.8419819999999998  5.3777860000000004   F   F   F
 10.7421330000000008  5.8542569999999996  7.0537179999999999   F   F   F
 11.8226630000000004  8.7618179999999999  9.6241599999999998   F   F   F
  9.0330359999999992  8.7648100000000007  9.2191250000000000   F   F   F
 15.3182240000000007  8.7619389999999999  9.6449200000000008   F   F   F
 16.3101699999999994  8.7653309999999998 12.3138039999999993   F   F   F
 13.5756420000000002  8.7569499999999998 11.8044440000000002   F   F   F
 10.8216049999999999  8.7407389999999996 12.2421830000000007   F   F   F
 11.7981940000000005  8.8096879999999995 14.8217230000000004   F   F   F
  9.0592769999999998  8.7475199999999997 14.4148840000000007   F   F   F
 15.3667520000000000  8.7829829999999998 14.9340130000000002   F   F   F
 16.2359639999999992  8.8399529999999995 17.5558550000000011   F   F   F
 13.7159440000000004  8.6840869999999999 17.0641789999999993   F   F   F
 10.5884699999999992  8.8586829999999992 17.4545209999999997   F   F   F
 16.3942809999999994  8.7580039999999997  7.0795750000000002   F   F   F
 13.5689340000000005  8.7605109999999993  6.3287040000000001   F   F   F
 10.7384760000000004  8.7573950000000007  7.0640179999999999   F   F   F
 11.7952320000000004  0.0107250000000000  9.6119540000000008   F   F   F
  9.0320689999999999  0.0099920000000000  9.1782760000000003   F   F   F
 15.3287379999999995  0.0109050000000000  9.6113549999999996   F   F   F
 16.3059319999999985  0.0111700000000000 12.2317689999999999   F   F   F
 13.5593079999999997  0.0102740000000000 11.7716440000000002   F   F   F
 10.8121299999999998  0.0129470000000000 12.2352200000000000   F   F   F
 11.7694939999999999  0.0094900000000000 14.8376800000000006   F   F   F
  9.0290669999999995 23.3480409999999985 14.4265030000000003   F   F   F
 15.3416910000000009  0.0057180000000000 14.8288200000000003   F   F   F
 16.3861799999999995 23.3354089999999985 17.2934459999999994   F   F   F
 13.5448789999999999  0.0039340000000000 16.9782790000000006   F   F   F
 10.7176770000000001 23.3366499999999988 17.2893779999999992   F   F   F
 16.4226659999999995 11.6792259999999999  7.0725160000000002   F   F   F
 13.5688469999999999 11.6791970000000003  6.0587320000000000   F   F   F
 10.7121600000000008 11.6808329999999998  7.0552940000000000   F   F   F
 11.8214050000000004 14.6149210000000007  9.6054639999999996   F   F   F
  9.0316349999999996 14.6083700000000007  9.1984180000000002   F   F   F
 15.3121989999999997 14.6106370000000005  9.6162550000000007   F   F   F
 16.2943430000000014 14.6128730000000004 12.2626069999999991   F   F   F
 13.5694260000000000 14.6132249999999999 11.7691009999999991   F   F   F
 10.8122080000000000 14.6160630000000005 12.2232990000000008   F   F   F
 11.7935949999999998 14.5900710000000000 14.7086220000000001   F   F   F
  9.0547690000000003 14.6270089999999993 14.3766820000000006   F   F   F