Ta  N Ru Cu                             
   1.00000000000000     
     9.0548154099999998    0.0000000000000000    0.0000000000000000
     0.0000000000000000   11.6775998899999998    0.0000000000000000
     0.0000000000000000    0.0000000000000000   23.4818170799999990
   Ta   N    Ru   Cu
    60    60    16     1
Selective dynamics
Direct
  0.0000000000000000  0.0000000000000000  0.2546926809530987   F   F   F
  0.6670845899906297  0.1250000003211298  0.2638822399803757   F   F   F
  0.3329153514769843  0.1250000003211298  0.2638822399803757   F   F   F
  0.4999999994478088  0.2499999997859135  0.3618861993156202   F   F   F
  0.1650707596845180  0.1250000003211298  0.3684425577811794   F   F   F
  0.8349292403154820  0.1250000003211298  0.3684425577811794   F   F   F
  0.0005439696424448  0.2500693162844048  0.4799155586918084   T   T   T
  0.6643997702518831  0.1249878660282173  0.4779826420202241   T   T   T
  0.3352903763446696  0.1249827503982920  0.4779616509223690   T   T   T
  0.4986046505577123  0.2498809032123514  0.5901413410200885   T   T   T
  0.1683221677145388  0.1249188897822147  0.5899356718049007   T   T   T
  0.8324064581955780  0.1248048790749738  0.5894801534219285   T   T   T
  0.9919810977666669  0.2509841492739782  0.6995632157232559   T   T   T
  0.6654833810317354  0.1250700504947587  0.7007636356415399   T   T   T
  0.3307176605490978  0.1248312019563468  0.7036795466813404   T   T   T
  0.0000000000000000  0.2499999997859135  0.2546926809530987   F   F   F
  0.6670845899906297  0.3750000001070433  0.2638822399803757   F   F   F
  0.3329153514769843  0.3750000001070433  0.2638822399803757   F   F   F
  0.4999999994478088  0.5000000004281731  0.3618861993156202   F   F   F
  0.1650707596845180  0.3750000001070433  0.3684425577811794   F   F   F
  0.8349292403154820  0.3750000001070433  0.3684425577811794   F   F   F
  0.0006255978416237  0.5001158123094953  0.4799233196873993   T   T   T
  0.6644512595518006  0.3750382143485327  0.4780062953628094   T   T   T
  0.3353450481728800  0.3750280885764675  0.4779967307594740   T   T   T
  0.4986500419418755  0.5000479563076692  0.5902640604943734   T   T   T
  0.1681546231277630  0.3750036397525755  0.5903221891658614   T   T   T
  0.8326069832632276  0.3752151511256787  0.5892996992748738   T   T   T
  0.9920778006170534  0.5006541557250742  0.7008616667390926   T   T   T
  0.6643297717202242  0.3759257543391615  0.6997866987533924   T   T   T
  0.3289155864952060  0.3749349564876124  0.7053477672276889   T   T   T
  0.0000000000000000  0.5000000004281731  0.2546926809530987   F   F   F
  0.6670845899906297  0.6249999998929567  0.2638822399803757   F   F   F
  0.3329153514769843  0.6249999998929567  0.2638822399803757   F   F   F
  0.4999999994478088  0.7500000002140865  0.3618861993156202   F   F   F
  0.1650707596845180  0.6249999998929567  0.3684425577811794   F   F   F
  0.8349292403154820  0.6249999998929567  0.3684425577811794   F   F   F
  0.0007040003830863  0.7500029292323699  0.4799786448461106   T   T   T
  0.6642525865949264  0.6250651476573178  0.4780253172796501   T   T   T
  0.3350797589066713  0.6250040815115070  0.4780768883577577   T   T   T
  0.4984508280658997  0.7501068597419087  0.5903620570358434   T   T   T
  0.1678963877387943  0.6247922145889380  0.5904988464137934   T   T   T
  0.8326138413272018  0.6252288446910415  0.5896064471152236   T   T   T
  0.9980493947568206  0.7497923672510255  0.6998426100550060   T   T   T
  0.6632088729940001  0.6256467261131003  0.7013589054972825   T   T   T
  0.3297461908221366  0.6249453648206384  0.7038049019778527   T   T   T
  0.0000000000000000  0.7500000002140865  0.2546926809530987   F   F   F
  0.6670845899906297  0.8750000005352163  0.2638822399803757   F   F   F
  0.3329153514769843  0.8750000005352163  0.2638822399803757   F   F   F
  0.4999999994478088  0.0000000000000000  0.3618861993156202   F   F   F
  0.1650707596845180  0.8750000005352163  0.3684425577811794   F   F   F
  0.8349292403154820  0.8750000005352163  0.3684425577811794   F   F   F
  0.0005637097284785  0.9997936861753326  0.4799157085263570   T   T   T
  0.6643577484791818  0.8749515700421691  0.4779860878300152   T   T   T
  0.3353453558755510  0.8749365870269061  0.4780035822297881   T   T   T
  0.4988986041835645  0.9998709432683631  0.5902808216253913   T   T   T
  0.1681223018061312  0.8750140909783208  0.5903362804223783   T   T   T
  0.8324956040527098  0.8749170438651420  0.5893999612759219   T   T   T
  0.9916462600030655  0.9993954979175026  0.7002038722371929   T   T   T
  0.6634870193689135  0.8738755759588598  0.7010486411002028   T   T   T
  0.3271704673367525  0.8745569810190017  0.7051770321750719   T   T   T
  0.8141011533980276  0.0000000000000000  0.3013105672926031   F   F   F
  0.4999999994478088  0.0000000000000000  0.2564174481620327   F   F   F
  0.1858988466019724  0.0000000000000000  0.3013105672926031   F   F   F
  0.3088456122590841  0.2499999997859135  0.4099867722441957   F   F   F
  0.0000000000000000  0.2499999997859135  0.3930971035158137   F   F   F
  0.6911543877409159  0.2499999997859135  0.4099867722441957   F   F   F
  0.8016144142841835  0.2499647294236736  0.5216068035508735   T   T   T
  0.4996978916870096  0.2499967896676884  0.5025656000762193   T   T   T
  0.1988887447077834  0.2501416817091733  0.5222551035408365   T   T   T
  0.3037787753101414  0.2500427526294122  0.6346173604251693   T   T   T
  0.9996838625543698  0.2501417767625018  0.6117534823766395   T   T   T
  0.6961166340769716  0.2494677149287395  0.6324694565295593   T   T   T
  0.7988493530380583  0.2542035152178084  0.7449215884900876   T   T   T
  0.5016363367979293  0.2498700952330066  0.7242494490603484   T   T   T
  0.1897415299590727  0.2477609336474190  0.7375593656616991   T   T   T
  0.8141011533980276  0.2499999997859135  0.3013105672926031   F   F   F
  0.4999999994478088  0.2499999997859135  0.2564174481620327   F   F   F
  0.1858988466019724  0.2499999997859135  0.3013105672926031   F   F   F
  0.3088456122590841  0.5000000004281731  0.4099867722441957   F   F   F
  0.0000000000000000  0.5000000004281731  0.3930971035158137   F   F   F
  0.6911543877409159  0.5000000004281731  0.4099867722441957   F   F   F
  0.8017080046986412  0.5002969747245939  0.5217183248060329   T   T   T
  0.4996819619885757  0.5000558737804907  0.5026283856898968   T   T   T
  0.1988337431928073  0.4998744133560826  0.5224301027533610   T   T   T
  0.3039125133041550  0.4997578815984161  0.6349610792152804   T   T   T
  0.9992657063112019  0.4999111806348903  0.6126530068466723   T   T   T
  0.6954233588648480  0.5012432920796743  0.6329180318833947   T   T   T
  0.7964677730221171  0.4993679224272994  0.7469459502784774   T   T   T
  0.5013312562379915  0.5004579036385862  0.7254664155374719   T   T   T
  0.1907514774767357  0.5010595991448382  0.7389827342496752   T   T   T
  0.8141011533980276  0.5000000004281731  0.3013105672926031   F   F   F
  0.4999999994478088  0.5000000004281731  0.2564174481620327   F   F   F
  0.1858988466019724  0.5000000004281731  0.3013105672926031   F   F   F
  0.3088456122590841  0.7500000002140865  0.4099867722441957   F   F   F
  0.0000000000000000  0.7500000002140865  0.3930971035158137   F   F   F
  0.6911543877409159  0.7500000002140865  0.4099867722441957   F   F   F
  0.8015466461609941  0.7499483603099650  0.5217107703464574   T   T   T
  0.4995857887388733  0.7499908694619871  0.5026631875125797   T   T   T
  0.1990975282147406  0.7499293067427906  0.5224257638159209   T   T   T
  0.3035322140379675  0.7500518238079743  0.6353691545960645   T   T   T
  0.9997719937426188  0.7501322033282432  0.6118387926769283   T   T   T
  0.6947633656351042  0.7498782744665449  0.6329148291772266   T   T   T
  0.8032638356389477  0.7508332266692781  0.7426768393670027   T   T   T
  0.5000193192878717  0.7503861620835135  0.7270008188887260   T   T   T
  0.1939073108459640  0.7470937747541293  0.7420515174425204   T   T   T
  0.8141011533980276  0.7500000002140865  0.3013105672926031   F   F   F
  0.4999999994478088  0.7500000002140865  0.2564174481620327   F   F   F
  0.1858988466019724  0.7500000002140865  0.3013105672926031   F   F   F
  0.3088456122590841  0.0000000000000000  0.4099867722441957   F   F   F
  0.0000000000000000  0.0000000000000000  0.3930971035158137   F   F   F
  0.6911543877409159  0.0000000000000000  0.4099867722441957   F   F   F
  0.8015267897472842  0.9998874712486943  0.5216959317926559   T   T   T
  0.4996934582056046  0.9999480236620404  0.5026222346099215   T   T   T
  0.1989156697650352  0.9998398190152967  0.5222513395739694   T   T   T
  0.3039511947009280  0.9993255227214012  0.6346976296006870   T   T   T
  0.9995263595477888  0.9997963218735917  0.6122052129030854   T   T   T
  0.6956341231296658  0.9996832624784090  0.6330385049214978   T   T   T
  0.7979019142926532  0.9968661927268517  0.7462166391462174   T   T   T
  0.5004717426564735  0.9996092194024119  0.7253719530588206   T   T   T
  0.1904044393967787  0.0020058698100463  0.7377595729105838   T   T   T
  0.1319661794790348  0.0201487196072414  0.8155930031416886   T   T   T
  0.5693295748788021  0.0037447115038319  0.8062214605822766   T   T   T
  0.8788824834536604  0.1274477561640851  0.7973841405876902   T   T   T
  0.1356091762484928  0.4991778884855445  0.8176677782764529   T   T   T
  0.5856066047510134  0.4778726311587504  0.8039355211255684   T   T   T
  0.8798433451428669  0.6314792387876235  0.7982543254938208   T   T   T
  0.1307146276428861  0.2379237862349897  0.8157126794430603   T   T   T
  0.5734554962280999  0.2482186891576499  0.8040815667075304   T   T   T
  0.8975083072613697  0.3745676767902955  0.8004649136228970   T   T   T
  0.1167889087024291  0.7394101622236050  0.8208257030875894   T   T   T
  0.5628805878298514  0.7725336998137738  0.8077769619412947   T   T   T
  0.8897015281445751  0.8689413830270399  0.7993373014357008   T   T   T
  0.3492338530365619  0.9047101619257696  0.8416640895695271   T   T   T
  0.2703073692438431  0.7553820835170578  0.8966168463934989   T   T   T
  0.3569559553734286  0.3728483269860527  0.8349428909190610   T   T   T
  0.3682382318664055  0.1356260124955583  0.8406395467334283   T   T   T
  0.3891153640963140  0.6025348642976666  0.8429540973920620   T   T   T
 
  0.00000000E+00  0.00000000E+00  0.00000000E+00
  0.00000000E+00  0.00000000E+00  0.00000000E+00
  0.00000000E+00  0.00000000E+00  0.00000000E+00
  0.00000000E+00  0.00000000E+00  0.00000000E+00
  0.00000000E+00  0.00000000E+00  0.00000000E+00
  0.00000000E+00  0.00000000E+00  0.00000000E+00
  0.00000000E+00  0.00000000E+00  0.00000000E+00
  0.00000000E+00  0.00000000E+00  0.00000000E+00
  0.00000000E+00  0.00000000E+00  0.00000000E+00
  0.00000000E+00  0.00000000E+00  0.00000000E+00
  0.00000000E+00  0.00000000E+00  0.00000000E+00
  0.00000000E+00  0.00000000E+00  0.00000000E+00
  0.00000000E+00  0.00000000E+00  0.00000000E+00
  0.00000000E+00  0.00000000E+00  0.00000000E+00
  0.00000000E+00  0.00000000E+00  0.00000000E+00
  0.00000000E+00  0.00000000E+00  0.00000000E+00
  0.00000000E+00  0.00000000E+00  0.00000000E+00
  0.00000000E+00  0.00000000E+00  0.00000000E+00
  0.00000000E+00  0.00000000E+00  0.00000000E+00
  0.00000000E+00  0.00000000E+00  0.00000000E+00
  0.00000000E+00  0.00000000E+00  0.00000000E+00
  0.00000000E+00  0.00000000E+00  0.00000000E+00
  0.00000000E+00  0.00000000E+00  0.00000000E+00
  0.00000000E+00  0.00000000E+00  0.00000000E+00
  0.00000000E+00  0.00000000E+00  0.00000000E+00
  0.00000000E+00  0.00000000E+00  0.00000000E+00
  0.00000000E+00  0.00000000E+00  0.00000000E+00
  0.00000000E+00  0.00000000E+00  0.00000000E+00
  0.00000000E+00  0.00000000E+00  0.00000000E+00
  0.00000000E+00  0.00000000E+00  0.00000000E+00
  0.00000000E+00  0.00000000E+00  0.00000000E+00
  0.00000000E+00  0.00000000E+00  0.00000000E+00
  0.00000000E+00  0.00000000E+00  0.00000000E+00
  0.00000000E+00  0.00000000E+00  0.00000000E+00
  0.00000000E+00  0.00000000E+00  0.00000000E+00
  0.00000000E+00  0.00000000E+00  0.00000000E+00
  0.00000000E+00  0.00000000E+00  0.00000000E+00
  0.00000000E+00  0.00000000E+00  0.00000000E+00
  0.00000000E+00  0.00000000E+00  0.00000000E+00
  0.00000000E+00  0.00000000E+00  0.00000000E+00
  0.00000000E+00  0.00000000E+00  0.00000000E+00
  0.00000000E+00  0.00000000E+00  0.00000000E+00
  0.00000000E+00  0.00000000E+00  0.00000000E+00
  0.00000000E+00  0.00000000E+00  0.00000000E+00
  0.00000000E+00  0.00000000E+00  0.00000000E+00
  0.00000000E+00  0.00000000E+00  0.00000000E+00
  0.00000000E+00  0.00000000E+00  0.00000000E+00
  0.00000000E+00  0.00000000E+00  0.00000000E+00
  0.00000000E+00  0.00000000E+00  0.00000000E+00
  0.00000000E+00  0.00000000E+00  0.00000000E+00
  0.00000000E+00  0.00000000E+00  0.00000000E+00
  0.00000000E+00  0.00000000E+00  0.00000000E+00
  0.00000000E+00  0.00000000E+00  0.00000000E+00
  0.00000000E+00  0.00000000E+00  0.00000000E+00
  0.00000000E+00  0.00000000E+00  0.00000000E+00
  0.00000000E+00  0.00000000E+00  0.00000000E+00
  0.00000000E+00  0.00000000E+00  0.00000000E+00
  0.00000000E+00  0.00000000E+00  0.00000000E+00
  0.00000000E+00  0.00000000E+00  0.00000000E+00
  0.00000000E+00  0.00000000E+00  0.00000000E+00
  0.00000000E+00  0.00000000E+00  0.00000000E+00
  0.00000000E+00  0.00000000E+00  0.00000000E+00
  0.00000000E+00  0.00000000E+00  0.00000000E+00
  0.00000000E+00  0.00000000E+00  0.00000000E+00
  0.00000000E+00  0.00000000E+00  0.00000000E+00
  0.00000000E+00  0.00000000E+00  0.00000000E+00
  0.00000000E+00  0.00000000E+00  0.00000000E+00
  0.00000000E+00  0.00000000E+00  0.00000000E+00
  0.00000000E+00  0.00000000E+00  0.00000000E+00
  0.00000000E+00  0.00000000E+00  0.00000000E+00
  0.00000000E+00  0.00000000E+00  0.00000000E+00
  0.00000000E+00  0.00000000E+00  0.00000000E+00
  0.00000000E+00  0.00000000E+00  0.00000000E+00
  0.00000000E+00  0.00000000E+00  0.00000000E+00
  0.00000000E+00  0.00000000E+00  0.00000000E+00
  0.00000000E+00  0.00000000E+00  0.00000000E+00
  0.00000000E+00  0.00000000E+00  0.00000000E+00
  0.00000000E+00  0.00000000E+00  0.00000000E+00
  0.00000000E+00  0.00000000E+00  0.00000000E+00
  0.00000000E+00  0.00000000E+00  0.00000000E+00
  0.00000000E+00  0.00000000E+00  0.00000000E+00
  0.00000000E+00  0.00000000E+00  0.00000000E+00
  0.00000000E+00  0.00000000E+00  0.00000000E+00
  0.00000000E+00  0.00000000E+00  0.00000000E+00
  0.00000000E+00  0.00000000E+00  0.00000000E+00
  0.00000000E+00  0.00000000E+00  0.00000000E+00
  0.00000000E+00  0.00000000E+00  0.00000000E+00
  0.00000000E+00  0.00000000E+00  0.00000000E+00
  0.00000000E+00  0.00000000E+00  0.00000000E+00
  0.00000000E+00  0.00000000E+00  0.00000000E+00
  0.00000000E+00  0.00000000E+00  0.00000000E+00
  0.00000000E+00  0.00000000E+00  0.00000000E+00
  0.00000000E+00  0.00000000E+00  0.00000000E+00
  0.00000000E+00  0.00000000E+00  0.00000000E+00
  0.00000000E+00  0.00000000E+00  0.00000000E+00
  0.00000000E+00  0.00000000E+00  0.00000000E+00
  0.00000000E+00  0.00000000E+00  0.00000000E+00
  0.00000000E+00  0.00000000E+00  0.00000000E+00
  0.00000000E+00  0.00000000E+00  0.00000000E+00
  0.00000000E+00  0.00000000E+00  0.00000000E+00
  0.00000000E+00  0.00000000E+00  0.00000000E+00
  0.00000000E+00  0.00000000E+00  0.00000000E+00
  0.00000000E+00  0.00000000E+00  0.00000000E+00
  0.00000000E+00  0.00000000E+00  0.00000000E+00
  0.00000000E+00  0.00000000E+00  0.00000000E+00
  0.00000000E+00  0.00000000E+00  0.00000000E+00
  0.00000000E+00  0.00000000E+00  0.00000000E+00
  0.00000000E+00  0.00000000E+00  0.00000000E+00
  0.00000000E+00  0.00000000E+00  0.00000000E+00
  0.00000000E+00  0.00000000E+00  0.00000000E+00
  0.00000000E+00  0.00000000E+00  0.00000000E+00
  0.00000000E+00  0.00000000E+00  0.00000000E+00
  0.00000000E+00  0.00000000E+00  0.00000000E+00
  0.00000000E+00  0.00000000E+00  0.00000000E+00
  0.00000000E+00  0.00000000E+00  0.00000000E+00
  0.00000000E+00  0.00000000E+00  0.00000000E+00
  0.00000000E+00  0.00000000E+00  0.00000000E+00
  0.00000000E+00  0.00000000E+00  0.00000000E+00
  0.00000000E+00  0.00000000E+00  0.00000000E+00
  0.00000000E+00  0.00000000E+00  0.00000000E+00
  0.00000000E+00  0.00000000E+00  0.00000000E+00
  0.00000000E+00  0.00000000E+00  0.00000000E+00
  0.00000000E+00  0.00000000E+00  0.00000000E+00
  0.00000000E+00  0.00000000E+00  0.00000000E+00
  0.00000000E+00  0.00000000E+00  0.00000000E+00
  0.00000000E+00  0.00000000E+00  0.00000000E+00
  0.00000000E+00  0.00000000E+00  0.00000000E+00
  0.00000000E+00  0.00000000E+00  0.00000000E+00
  0.00000000E+00  0.00000000E+00  0.00000000E+00
  0.00000000E+00  0.00000000E+00  0.00000000E+00
  0.00000000E+00  0.00000000E+00  0.00000000E+00
  0.00000000E+00  0.00000000E+00  0.00000000E+00
  0.00000000E+00  0.00000000E+00  0.00000000E+00
  0.00000000E+00  0.00000000E+00  0.00000000E+00
  0.00000000E+00  0.00000000E+00  0.00000000E+00
  0.00000000E+00  0.00000000E+00  0.00000000E+00
  0.00000000E+00  0.00000000E+00  0.00000000E+00
