POSCAR                                  
   1.00000000000000     
     6.3391339146832726   -0.0036376732969229   -0.0030170085944349
    -3.1727172748274399    5.4953075180525950   -0.0000000000000000
    -0.0047755441074077   -0.0027571616759388   10.0146138265106757
   Al   N    Li   V 
    14    16     1     1
Direct
  0.1640670734662727  0.3287433342578081  0.9901954014788820
  0.6680642926275774  0.3340321463137922  0.9967702984362937
  0.1640670734662727  0.8353237392084717  0.9901954014789246
  0.6718919451052068  0.8359459725526071  0.9807699147779532
  0.1559655547251706  0.3229008193823407  0.5005378496824137
  0.6740459977594562  0.3370229988797316  0.4978493490821019
  0.1559655547251706  0.8330647353428369  0.5005378496824350
  0.3356948523271287  0.1678474261635608  0.7450521393379934
  0.8296423809828439  0.1639450981509388  0.7452883169039604
  0.3355709518981976  0.6677854759490955  0.7477471793238595
  0.8296423809828439  0.6656972828318982  0.7452883169039248
  0.3393107419583138  0.1696553709791534  0.2528779365750681
  0.8313347367166033  0.1679325114298204  0.2559246473690486
  0.8313347367166033  0.6634022252867759  0.2559246473690273
  0.1621308744457472  0.3189977747905092  0.1854383396521137
  0.6656300007296957  0.3328150003648514  0.1886172203218428
  0.1621308744457472  0.8431330996552453  0.1854383396522842
  0.6836840682051039  0.8418420341025556  0.1827131381923367
  0.1669596047380212  0.3342254514203076  0.6915501017040784
  0.6663683136023695  0.3331841568011883  0.6902737152848457
  0.1669596047380212  0.8327341533177209  0.6915501017041139
  0.6647297607572646  0.8323648803786359  0.7120963163216347
  0.3344402339345055  0.1672201169672492  0.9380207994220138
  0.8353463145711547  0.1722460675742129  0.9400365016519678
  0.3290353513619744  0.6645176756809839  0.9465800329186327
  0.8353463145711547  0.6631002469969348  0.9400365016519323
  0.3329840908141601  0.1664920454070765  0.4408900495628074
  0.8398291015195474  0.1806563423975592  0.4382256739763886
  0.3157840803740437  0.6578920401870181  0.4343155827075381
  0.8398291015195474  0.6591727591219811  0.4382256739762322
  0.6765116227015250  0.8382558113507661  0.5060558975293633
  0.3357024135127546  0.6678512067563739  0.2449767653679818
 
  0.00000000E+00  0.00000000E+00  0.00000000E+00
  0.00000000E+00  0.00000000E+00  0.00000000E+00
  0.00000000E+00  0.00000000E+00  0.00000000E+00
  0.00000000E+00  0.00000000E+00  0.00000000E+00
  0.00000000E+00  0.00000000E+00  0.00000000E+00
  0.00000000E+00  0.00000000E+00  0.00000000E+00
  0.00000000E+00  0.00000000E+00  0.00000000E+00
  0.00000000E+00  0.00000000E+00  0.00000000E+00
  0.00000000E+00  0.00000000E+00  0.00000000E+00
  0.00000000E+00  0.00000000E+00  0.00000000E+00
  0.00000000E+00  0.00000000E+00  0.00000000E+00
  0.00000000E+00  0.00000000E+00  0.00000000E+00
  0.00000000E+00  0.00000000E+00  0.00000000E+00
  0.00000000E+00  0.00000000E+00  0.00000000E+00
  0.00000000E+00  0.00000000E+00  0.00000000E+00
  0.00000000E+00  0.00000000E+00  0.00000000E+00
  0.00000000E+00  0.00000000E+00  0.00000000E+00
  0.00000000E+00  0.00000000E+00  0.00000000E+00
  0.00000000E+00  0.00000000E+00  0.00000000E+00
  0.00000000E+00  0.00000000E+00  0.00000000E+00
  0.00000000E+00  0.00000000E+00  0.00000000E+00
  0.00000000E+00  0.00000000E+00  0.00000000E+00
  0.00000000E+00  0.00000000E+00  0.00000000E+00
  0.00000000E+00  0.00000000E+00  0.00000000E+00
  0.00000000E+00  0.00000000E+00  0.00000000E+00
  0.00000000E+00  0.00000000E+00  0.00000000E+00
  0.00000000E+00  0.00000000E+00  0.00000000E+00
  0.00000000E+00  0.00000000E+00  0.00000000E+00
  0.00000000E+00  0.00000000E+00  0.00000000E+00
  0.00000000E+00  0.00000000E+00  0.00000000E+00
  0.00000000E+00  0.00000000E+00  0.00000000E+00
  0.00000000E+00  0.00000000E+00  0.00000000E+00
