POSCAR
   1.00000000000000
     6.3386850565867077    0.0000000000000000    0.0000000000000000
    -3.16934252829335385   5.48946228559289086836    0.0000000000000000
     0.0000000000000000    0.0000000000000000    10.0144480917254484
   Al   N      Li     V
    14    16    1   1
Direct
  0.1666666666666667  0.3333333333333333 -0.0042397173794375
  0.6666666666666667  0.3333333333333333 -0.0014714568660519
  0.1666666666666667  0.8333333333333333 -0.0042397173793904
  0.6666666666666667  0.8333333333333333 -0.0047228536878405
  0.1666666666666667  0.3333333333333333  0.5010284028676604
  0.6666666666666667  0.3333333333333333  0.4961088027264699
  0.1666666666666667  0.8333333333333333  0.5010284028676819
  0.3333333333333333  0.1666666666666667  0.7474161164308164
  0.8333333333333333  0.1666666666666667  0.7522769077258391
  0.3333333333333333  0.6666666666666667  0.7524497006019125
  0.8333333333333333  0.6666666666666667  0.7522769077257998
  0.3333333333333333  0.1666666666666667  0.2475249283050414
  0.8333333333333333  0.1666666666666667  0.2444226881030561
  0.8333333333333333  0.6666666666666667  0.2444226881030345
  0.1666666666666667  0.3333333333333333  0.1824042270618458
  0.6666666666666667  0.3333333333333333  0.1882744432337456
  0.1666666666666667  0.8333333333333333  0.1824042270620184
  0.6666666666666667  0.8333333333333333  0.1858455928105399
  0.1666666666666667  0.3333333333333333  0.6920889386657566
  0.6666666666666667  0.3333333333333333  0.6879931989775014
  0.1666666666666667  0.8333333333333333  0.6920889386657875
  0.6666666666666667  0.8333333333333333  0.7060845924102394
  0.3333333333333333  0.1666666666666667  0.9361783949027469
  0.8333333333333333  0.1666666666666667  0.9403167345255912
  0.3333333333333333  0.6666666666666667  0.9446009600864841
  0.8333333333333333  0.6666666666666667  0.9403167345255550
  0.3333333333333333  0.1666666666666667  0.4404476486445554
  0.8333333333333333  0.1666666666666667  0.4334507857498285
  0.3333333333333333  0.6666666666666667  0.4477837263197702
  0.8333333333333333  0.6666666666666667  0.4334507857496723
  0.6666666666666667  0.8333333333333333  0.4999595245665325
  0.3333333333333333  0.6666666666666667  0.2420287458972372
