Ta  N Cu 
 1.0000000000000000
    18.1096308199999996    0.0000000000000000    0.0000000000000000
     0.0000000000000000   23.3551997799999995    0.0000000000000000
     0.0000000000000000    0.0000000000000000   30.4818170799999990
 240 240  29
Selective dynamics
Cartesian
  18.050746   23.337286   5.942905  F  F  F
   5.937832    1.357795   6.137810  F  F  F
   3.052960    1.356730   6.138236  F  F  F
   4.495051    2.896328   8.535351  F  F  F
   1.466287    1.440598   8.622719  F  F  F
   7.521447    1.441459   8.623234  F  F  F
  18.077881    2.894050  11.237770  F  F  F
   5.990481    1.437460  11.215138  F  F  F
   3.001495    1.435907  11.212996  F  F  F
   4.499691    2.896531  13.877835  T  T  T
   1.486794    1.433618  13.835932  T  T  T
   7.507062    1.436062  13.837269  T  T  T
  18.087143    2.896667  16.468156  T  T  T
   6.041127    1.435311  16.528948  T  T  T
   2.960033    1.438463  16.523352  T  T  T
  18.109700    2.896676   5.942079  F  F  F
   5.937497    4.438591   6.138410  F  F  F
   3.053532    4.439374   6.139456  F  F  F
   4.494388    5.812428   8.554647  F  F  F
   1.464986    4.350992   8.622766  F  F  F
   7.521114    4.351810   8.623097  F  F  F
  18.076062    5.810772  11.241263  F  F  F
   5.989810    4.353663  11.216961  F  F  F
   3.001184    4.353126  11.212223  F  F  F
   4.498592    5.809871  13.876607  T  T  T
   1.486356    4.349232  13.832488  T  T  T
   7.508337    4.350800  13.843206  T  T  T
  18.080824    5.816333  16.459489  T  T  T
   6.021994    4.329846  16.532679  T  T  T
   2.944855    4.355698  16.516933  T  T  T
  18.050459    5.811690   5.944668  F  F  F
   5.938320    7.195865   6.137489  F  F  F
   3.051018    7.194121   6.138782  F  F  F
   4.492256    8.733241   8.534849  F  F  F
   1.464027    7.274801   8.622508  F  F  F
   7.520397    7.275911   8.622506  F  F  F
  18.078708    8.732314  11.243340  F  F  F
   5.991735    7.272318  11.215550  F  F  F
   2.999203    7.272699  11.209776  F  F  F
   4.488204    8.732030  13.863494  T  T  T
   1.484149    7.269081  13.830719  T  T  T
   7.507266    7.269801  13.837328  T  T  T
  18.106754    8.731438  16.445017  T  T  T
   5.959556    7.247555  16.478499  T  T  T
   2.928568    7.260842  16.506181  T  T  T
  18.113300    8.726572   5.946730  F  F  F
   5.934568   10.275580   6.135289  F  F  F
   3.054269   10.276821   6.138776  F  F  F
   4.494551   23.335062   8.554457  F  F  F
   1.461307   10.188595   8.622804  F  F  F
   7.520480   10.189253   8.619099  F  F  F
  18.079352   23.332696  11.237742  F  F  F
   5.989087   10.193095  11.209017  F  F  F
   2.993566   10.193406  11.208428  F  F  F
   4.499534   23.334296  13.879177  T  T  T
   1.485137   10.195324  13.844884  T  T  T
   7.500376   10.192496  13.821307  T  T  T
  18.082779   23.332944  16.470622  T  T  T
   5.961413   10.176665  16.453063  T  T  T
   2.912418   10.169316  16.512065  T  T  T
  18.066183   11.650400   5.935878  F  F  F
   5.934937   13.034957   6.137102  F  F  F
   3.053951   13.031468   6.139485  F  F  F
   4.490409   14.575873   8.531198  F  F  F
   1.459276   13.116458   8.621261  F  F  F
   7.522254   13.117647   8.617699  F  F  F
  18.081068   14.573575  11.245878  F  F  F
   5.989504   13.117063  11.206560  F  F  F
   2.995452   13.115081  11.209246  F  F  F
   4.486650   14.579156  13.857802  T  T  T
   1.493642   13.114244  13.858143  T  T  T
   7.492679   13.120097  13.820322  T  T  T
  18.072079   14.566924  16.467610  T  T  T
   5.989337   13.122284  16.442605  T  T  T
   2.888841   13.112257  16.546357  T  T  T
   0.014900   14.576226   5.945328  F  F  F
   5.935996   16.116739   6.136314  F  F  F
   3.053787   16.118226   6.139321  F  F  F
   4.491714   17.496969   8.549510  F  F  F
   1.460993   16.033382   8.621418  F  F  F
   7.522715   16.034604   8.618361  F  F  F
  18.080260   17.496222  11.239045  F  F  F
   5.987576   16.037628  11.208081  F  F  F
   2.997283   16.034908  11.210030  F  F  F
   4.494417   17.497059  13.875670  T  T  T
   1.491031   16.035335  13.844931  T  T  T
   7.498037   16.043293  13.828348  T  T  T
  18.076433   17.492921  16.459122  T  T  T
   5.989365   16.075242  16.481970  T  T  T
   2.915165   16.057133  16.532848  T  T  T
  18.066132   17.500376   5.933307  F  F  F
   5.935813   18.875846   6.134394  F  F  F
   3.055210   18.874170   6.136647  F  F  F
   4.493828   20.417061   8.534694  F  F  F
   1.464550   18.960073   8.622053  F  F  F
   7.521714   18.961320   8.620110  F  F  F
  18.080032   20.415344  11.236699  F  F  F
   5.988207   18.956666  11.210864  F  F  F
   2.999818   18.954527  11.211411  F  F  F
   4.495908   20.416812  13.872658  T  T  T
   1.486145   18.957370  13.834540  T  T  T
   7.503684   18.963278  13.831954  T  T  T
  18.081836   20.412523  16.468179  T  T  T
   6.013429   18.996806  16.514478  T  T  T
   2.948274   18.963074  16.519263  T  T  T
   0.004579   20.423492   5.944265  F  F  F
   5.939530   21.957475   6.135963  F  F  F
   3.051862   21.957150   6.137622  F  F  F
   4.489442   11.654994   8.549188  F  F  F
   1.466505   21.872209   8.622458  F  F  F
   7.520938   21.873468   8.621896  F  F  F
  18.078498   11.652873  11.248019  F  F  F
   5.989615   21.875058  11.212587  F  F  F
   3.001417   21.874015  11.212109  F  F  F
   4.484426   11.654708  13.851946  T  T  T
   1.486512   21.874373  13.835406  T  T  T
   7.506210   21.877746  13.834768  T  T  T
  18.053313   11.643117  16.498596  T  T  T
   6.042613   21.886566  16.526582  T  T  T
   2.958109   21.878130  16.523245  T  T  T
   9.048334   23.337738   5.941544  F  F  F
  14.994588    1.517226   6.140984  F  F  F
  12.102748    1.515638   6.140720  F  F  F
  13.549308    2.895034   8.552103  F  F  F
  10.516132    1.433441   8.623419  F  F  F
  16.581213    1.433908   8.621979  F  F  F
   9.022919    2.895167  11.239386  F  F  F
  15.045372    1.434848  11.212349  F  F  F
  12.055284    1.435147  11.212096  F  F  F
  13.557526    2.892498  13.874834  T  T  T
  10.543540    1.431957  13.836933  T  T  T
  16.561664    1.431774  13.835260  T  T  T
   9.019500    2.904317  16.466320  T  T  T
  15.093015    1.425754  16.524439  T  T  T
  12.014828    1.414480  16.526280  T  T  T
   8.988795    2.896980   5.941549  F  F  F
  14.993917    4.278623   6.141589  F  F  F
  12.102178    4.278163   6.139881  F  F  F
  13.548322    5.810792   8.540160  F  F  F
  10.515507    4.357041   8.622968  F  F  F
  16.581033    4.357994   8.621978  F  F  F
   9.021454    5.809867  11.241167  F  F  F
  15.046466    4.352005  11.212473  F  F  F
  12.054326    4.352087  11.212384  F  F  F
  13.555504    5.807253  13.863673  T  T  T
  10.546202    4.348048  13.841233  T  T  T
  16.557201    4.346149  13.840159  T  T  T
   9.007033    5.842720  16.470721  T  T  T
  15.124598    4.330300  16.540954  T  T  T
  12.023482    4.296557  16.522484  T  T  T
   9.048180    5.811942   5.942309  F  F  F
  14.990628    7.344142   6.140862  F  F  F
  12.104001    7.342873   6.138549  F  F  F
  13.549928    8.727636   8.549051  F  F  F
  10.515194    7.266343   8.621620  F  F  F
  16.580312    7.266492   8.621027  F  F  F
   9.019519    8.730794  11.235753  F  F  F
  15.047378    7.270700  11.211996  F  F  F
  12.051293    7.270887  11.211711  F  F  F
  13.565796    8.729307  13.859124  T  T  T
  10.539994    7.266801  13.830567  T  T  T
  16.564603    7.267598  13.834103  T  T  T
   9.016331    8.728883  16.458774  T  T  T
  15.117732    7.244286  16.490453  T  T  T
  12.035956    7.257195  16.451075  T  T  T
   8.985087    8.726750   5.944748  F  F  F
  14.990726   10.095067   6.129878  F  F  F
  12.106260   10.095747   6.128253  F  F  F
  13.549240   23.335567   8.540398  F  F  F
  10.518387   10.190819   8.620966  F  F  F
  16.577797   10.191461   8.623670  F  F  F
   9.023086   23.333746  11.238133  F  F  F
  15.050666   10.191434  11.213944  F  F  F
  12.053173   10.191408  11.206763  F  F  F
  13.553695   23.330398  13.874475  T  T  T
  10.533377   10.195076  13.816772  T  T  T
  16.563791   10.195174  13.844515  T  T  T
   9.026637   23.332705  16.471697  T  T  T
  15.096754   10.184977  16.484086  T  T  T
  12.055261   10.194612  16.417799  T  T  T
   9.034827   11.651143   5.932319  F  F  F
  15.072817   13.125482   6.172574  F  F  F
  12.028299   13.124167   6.170058  F  F  F
  13.549687   14.574802   8.459106  F  F  F
  10.516235   13.109393   8.622382  F  F  F
  16.580798   13.109517   8.625039  F  F  F
   9.020671   14.578571  11.233896  F  F  F
  15.049708   13.113867  11.207198  F  F  F
  12.059136   13.114746  11.200997  F  F  F
  13.562309   14.576622  13.858673  T  T  T
  10.536632   13.120849  13.820436  T  T  T
  16.564869   13.116324  13.847306  T  T  T
   9.051395   14.586839  16.431769  T  T  T
  15.125647   13.154356  16.530461  T  T  T
  12.073610   13.144801  16.459587  T  T  T
   8.975787   14.576027   5.943602  F  F  F
  15.071413   16.023117   6.171169  F  F  F
  12.027610   16.024551   6.168993  F  F  F
  13.548765   17.521083   8.489413  F  F  F
  10.516911   16.040446   8.622072  F  F  F
  16.579468   16.040447   8.623445  F  F  F
   9.021571   17.499112  11.234737  F  F  F
  15.044431   16.035875  11.202435  F  F  F
  12.056905   16.037210  11.202337  F  F  F
  13.555280   17.496962  13.865303  T  T  T
  10.539502   16.041353  13.825556  T  T  T
  16.564697   16.036698  13.829677  T  T  T
   9.028905   17.484555  16.443394  T  T  T
  15.123538   16.050473  16.509446  T  T  T
  12.087448   16.062727  16.464724  T  T  T
   9.034685   17.499532   5.930881  F  F  F
  14.992131   19.054539   6.127070  F  F  F
  12.106854   19.054394   6.125741  F  F  F
  13.549436   20.419871   8.548920  F  F  F
  10.520457   18.957778   8.621207  F  F  F
  16.577021   18.957592   8.621559  F  F  F
   9.021696   20.416296  11.235637  F  F  F
  15.044321   18.956627  11.208513  F  F  F
  12.056767   18.956800  11.209496  F  F  F
  13.555115   20.412266  13.871843  T  T  T
  10.541392   18.959277  13.831542  T  T  T
  16.562911   18.956924  13.827816  T  T  T
   9.024249   20.407129  16.463658  T  T  T
  15.105667   18.958204  16.513643  T  T  T
  12.029165   18.984693  16.517224  T  T  T
   8.985463   20.424322   5.943276  F  F  F
  14.993241   21.805501   6.138417  F  F  F
  12.105470   21.806528   6.136802  F  F  F
  13.550094   11.628222   8.491828  F  F  F
  10.517002   21.881099   8.621024  F  F  F
  16.580795   21.881777   8.621230  F  F  F
   9.020075   11.653419  11.234239  F  F  F
  15.045410   21.874400  11.211166  F  F  F
  12.055325   21.874148  11.211943  F  F  F
  13.568333   11.659870  13.853063  T  T  T
  10.542416   21.874093  13.834818  T  T  T
  16.562445   21.872415  13.832467  T  T  T
   9.029989   11.673019  16.417538  T  T  T
  15.095491   21.871856  16.521929  T  T  T
  12.009949   21.873212  16.522678  T  T  T
   7.331792   23.336283   7.047024  F  F  F
   4.495768   23.334467   5.368565  F  F  F
   1.658849   23.335263   7.047434  F  F  F
   2.737422    2.895461   9.615969  F  F  F
  18.076085    2.895757   9.192880  F  F  F
   6.251626    2.896807   9.617926  F  F  F
   7.236898    2.896654  12.246131  F  F  F
   4.495873    2.894972  11.801259  F  F  F
   1.755210    2.893574  12.241096  F  F  F
   2.715257    2.891156  14.852407  T  T  T
  18.079182    2.892441  14.395480  T  T  T
   6.284122    2.895052  14.859959  T  T  T
   7.270316    2.905910  17.383601  T  T  T
   4.502052    2.908042  16.992117  T  T  T
   1.726742    2.892550  17.372745  T  T  T
   7.306445    2.897449   7.036264  F  F  F
   4.495205    2.897991   6.395132  F  F  F
   1.683511    2.896978   7.035581  F  F  F
   2.731115    5.813124   9.623405  F  F  F
  18.078969    5.813268   9.195772  F  F  F
   6.257188    5.814103   9.626372  F  F  F
   7.235834    5.811022  12.248721  F  F  F
   4.496486    5.813870  11.802245  F  F  F
   1.754603    5.811180  12.239848  F  F  F
   2.711089    5.806391  14.849400  T  T  T
  18.076209    5.807215  14.388522  T  T  T
   6.286003    5.804256  14.871649  T  T  T
   7.236474    5.845138  17.438548  T  T  T
   4.477457    5.818710  16.997393  T  T  T
   1.714998    5.810790  17.375984  T  T  T
   7.331828    5.814256   7.047498  F  F  F
   4.495997    5.817536   5.371494  F  F  F
   1.657330    5.813513   7.048357  F  F  F
   2.735301    8.732383   9.614922  F  F  F
  18.074222    8.731296   9.197072  F  F  F
   6.249774    8.733085   9.615855  F  F  F
   7.232897    8.731473  12.239497  F  F  F
   4.492848    8.733569  11.793376  F  F  F
   1.756323    8.734212  12.240706  F  F  F
   2.705684    8.728489  14.848765  T  T  T
  18.080777    8.733561  14.381210  T  T  T
   6.275423    8.725937  14.843257  T  T  T
   7.197371    8.737402  17.345509  T  T  T
   4.463026    8.730923  16.986067  T  T  T
   1.713284    8.730935  17.380273  T  T  T
   7.304944    8.732844   7.037495  F  F  F
   4.494160    8.732938   6.400271  F  F  F
   1.683667    8.732618   7.038850  F  F  F
   2.731270   23.333657   9.624016  F  F  F
  18.080258   23.334085   9.192771  F  F  F
   6.257769   23.334765   9.624740  F  F  F
   7.237148   23.334273  12.245007  F  F  F
   4.496093   23.333341  11.803723  F  F  F
   1.755212   23.332064  12.243726  F  F  F
   2.714630   23.332791  14.852812  T  T  T
  18.078764   23.330809  14.396549  T  T  T
   6.285408   23.335790  14.857076  T  T  T
   7.272236   23.335938  17.378158  T  T  T
   4.501382   23.335485  16.991890  T  T  T
   1.730086   23.334570  17.369144  T  T  T
   7.328068   11.646329   7.045601  F  F  F
   4.495890   11.654481   5.366484  F  F  F
   1.660106   11.646291   7.050618  F  F  F
   2.732206   14.575243   9.614286  F  F  F
  18.071772   14.574877   9.200422  F  F  F
   6.250793   14.576670   9.610432  F  F  F
   7.230255   14.580693  12.234174  F  F  F
   4.491804   14.576035  11.787547  F  F  F
   1.759004   14.572046  12.250400  F  F  F
   2.723424   14.579095  14.881204  T  T  T
  18.081564   14.572817  14.394218  T  T  T
   6.262073   14.589210  14.848993  T  T  T
   7.246279   14.571674  17.307251  T  T  T
   4.491332   14.568324  17.122810  T  T  T
   1.704875   14.574796  17.394176  T  T  T
   7.297520   14.575887   7.035580  F  F  F
   4.493713   14.575987   6.389025  F  F  F
   1.691814   14.574921   7.038463  F  F  F
   2.728880   17.493737   9.622877  F  F  F
  18.074860   17.496656   9.195243  F  F  F
   6.256409   17.495395   9.620552  F  F  F
   7.233346   17.498526  12.240232  F  F  F
   4.494594   17.495413  11.799656  F  F  F
   1.755924   17.493838  12.245056  F  F  F
   2.712072   17.501755  14.857272  T  T  T
  18.078870   17.494581  14.387084  T  T  T
   6.282960   17.512091  14.863401  T  T  T
   7.247421   17.505216  17.402915  T  T  T
   4.482756   17.490559  17.003222  T  T  T
   1.717064   17.498522  17.377049  T  T  T
   7.328155   17.504750   7.045461  F  F  F
   4.496214   17.496280   5.367197  F  F  F
   1.660975   17.504024   7.048717  F  F  F
   2.736179   20.415279   9.615636  F  F  F
  18.075414   20.416262   9.191914  F  F  F
   6.251649   20.416027   9.615076  F  F  F
   7.234711   20.417111  12.239935  F  F  F
   4.495320   20.415030  11.797945  F  F  F
   1.756670   20.414857  12.241414  F  F  F
   2.713924   20.418225  14.852212  T  T  T
  18.079054   20.413954  14.393420  T  T  T
   6.280899   20.422420  14.851979  T  T  T
   7.267044   20.410558  17.374917  T  T  T
   4.498382   20.410105  16.987508  T  T  T
   1.726527   20.418376  17.371883  T  T  T
   7.305097   20.417948   7.036281  F  F  F
   4.495615   20.418468   6.398693  F  F  F
   1.685243   20.416757   7.037208  F  F  F
   2.726640   11.655771   9.622722  F  F  F
  18.074542   11.652218   9.201822  F  F  F
   6.254405   11.655821   9.618263  F  F  F
   7.229607   11.655275  12.232896  F  F  F
   4.490687   11.654260  11.784748  F  F  F
   1.756100   11.657073  12.251621  F  F  F
   2.721898   11.651775  14.878132  T  T  T
  18.076754   11.656741  14.417277  T  T  T
   6.259177   11.651327  14.840619  T  T  T
   7.239912   11.666595  17.307805  T  T  T
   4.480730   11.646573  17.116814  T  T  T
   1.688353   11.645849  17.387988  T  T  T
  16.367794   23.336552   7.036702  F  F  F
  13.549721   23.338507   6.407821  F  F  F
  10.730879   23.336137   7.037073  F  F  F
  11.784984    2.895469   9.622583  F  F  F
   9.020491    2.896345   9.194258  F  F  F
  15.313494    2.895104   9.622709  F  F  F
  16.291100    2.892685  12.244788  F  F  F
  13.550322    2.893125  11.799629  F  F  F
  10.809048    2.894676  12.245732  F  F  F
  11.774317    2.883963  14.854371  T  T  T
   9.026039    2.893983  14.398831  T  T  T
  15.336067    2.885654  14.859706  T  T  T
  16.329054    2.883617  17.377159  T  T  T
  13.556247    2.898884  17.005401  T  T  T
  10.784705    2.892312  17.370428  T  T  T
  16.392114    2.896584   7.046013  F  F  F
  13.548193    2.897172   5.389128  F  F  F
  10.706144    2.896549   7.046855  F  F  F
  11.788464    5.813118   9.616718  F  F  F
   9.016253    5.813487   9.195991  F  F  F
  15.308744    5.813891   9.616539  F  F  F
  16.286506    5.809549  12.243585  F  F  F
  13.549523    5.812950  11.793038  F  F  F
  10.810544    5.809176  12.243669  F  F  F
  11.776909    5.795245  14.866604  T  T  T
   9.024423    5.815204  14.404743  T  T  T
  15.329009    5.796346  14.866921  T  T  T
  16.339853    5.800843  17.391845  T  T  T
  13.567423    5.848678  17.116959  T  T  T
  10.802300    5.774874  17.383362  T  T  T
  16.367170    5.812436   7.037296  F  F  F
  13.547891    5.810735   6.406501  F  F  F
  10.729551    5.812173   7.038390  F  F  F
  11.784969    8.731545   9.619939  F  F  F
   9.020002    8.732226   9.192089  F  F  F
  15.313288    8.731409   9.622615  F  F  F
  16.290032    8.734071  12.243357  F  F  F
  13.551028    8.733181  11.793213  F  F  F
  10.805256    8.731468  12.234285  F  F  F
  11.769293    8.731586  14.815107  T  T  T
   9.020479    8.736640  14.399521  T  T  T
  15.352118    8.727637  14.856007  T  T  T
  16.361928    8.716557  17.405560  T  T  T
  13.561793    8.750212  16.929895  T  T  T
  10.820375    8.754972  17.310698  T  T  T
  16.391344    8.727311   7.043963  F  F  F
  13.548153    8.713830   5.359836  F  F  F
  10.706301    8.726847   7.043588  F  F  F
  11.788472   23.332273   9.616269  F  F  F
   9.017063   23.334175   9.193441  F  F  F
  15.310126   23.332775   9.616001  F  F  F
  16.291138   23.331552  12.241217  F  F  F
  13.550854   23.331181  11.799039  F  F  F
  10.810217   23.332046  12.243155  F  F  F
  11.768466   23.328705  14.854277  T  T  T
   9.025341   23.332232  14.398404  T  T  T
  15.336265   23.327958  14.852892  T  T  T
  16.325115   23.327768  17.369147  T  T  T
  13.552431   23.324527  16.991749  T  T  T
  10.781685   23.326432  17.377731  T  T  T
  16.384476   11.638938   7.045180  F  F  F
  13.549990   11.632548   6.273515  F  F  F
  10.714762   11.639146   7.043176  F  F  F
  11.820153   14.574926   9.597853  F  F  F
   9.023497   14.575260   9.193102  F  F  F
  15.278683   14.574246   9.601157  F  F  F
  16.289458   14.574228  12.238150  F  F  F
  13.551574   14.575376  11.785809  F  F  F
  10.812116   14.576414  12.228265  F  F  F
  11.770396   14.582263  14.844317  T  T  T
   9.019287   14.578519  14.377223  T  T  T
  15.342688   14.578770  14.853922  T  T  T
  16.326527   14.582895  17.393888  T  T  T
  13.581453   14.570240  16.983172  T  T  T
  10.857207   14.589359  17.402058  T  T  T
  16.414672   14.574821   7.037803  F  F  F
  13.549425   14.573796   5.994441  F  F  F
  10.685873   14.574445   7.035749  F  F  F
  11.807504   17.498308   9.605350  F  F  F
   9.020540   17.497367   9.192336  F  F  F
  15.289489   17.498104   9.606086  F  F  F
  16.289404   17.493275  12.233805  F  F  F
  13.550277   17.492371  11.789983  F  F  F
  10.811303   17.496774  12.234031  F  F  F
  11.765207   17.504978  14.852958  T  T  T
   9.021286   17.496895  14.383727  T  T  T
  15.339375   17.501202  14.845432  T  T  T
  16.333564   17.501498  17.371625  T  T  T
  13.569605   17.486470  16.987682  T  T  T
  10.807749   17.486934  17.400081  T  T  T
  16.383529   17.510631   7.042469  F  F  F
  13.549784   17.516836   6.265095  F  F  F
  10.715667   17.510513   7.041736  F  F  F
  11.784237   20.416258   9.620213  F  F  F
   9.021476   20.416778   9.190977  F  F  F
  15.314243   20.416575   9.619840  F  F  F
  16.291634   20.413642  12.239072  F  F  F
  13.550793   20.414050  11.797416  F  F  F
  10.808849   20.414080  12.240587  F  F  F
  11.768700   20.414720  14.850451  T  T  T
   9.022807   20.414900  14.392194  T  T  T
  15.337928   20.414889  14.849205  T  T  T
  16.325419   20.414725  17.367834  T  T  T
  13.550842   20.399443  16.983623  T  T  T
  10.781597   20.403629  17.372881  T  T  T
  16.391532   20.422107   7.041883  F  F  F
  13.549643   20.437220   5.356564  F  F  F
  10.708169   20.422291   7.041472  F  F  F
  11.809205   11.650213   9.604759  F  F  F
   9.019733   11.652559   9.192886  F  F  F
  15.290938   11.650383   9.610212  F  F  F
  16.287593   11.655491  12.247603  F  F  F
  13.552953   11.655637  11.784753  F  F  F
  10.811459   11.659175  12.226225  F  F  F
  11.778961   11.667263  14.832384  T  T  T
   9.018461   11.658115  14.364319  T  T  T
  15.336880   11.663087  14.893138  T  T  T
  16.299141   11.647954  17.512391  T  T  T
  13.535468   11.663647  17.080718  T  T  T
  10.812406   11.673011  17.345324  T  T  T
   7.812083   11.655719  19.155909  T  T  T
   8.833683   10.481999  21.153710  T  T  T
   9.077180   12.941966  20.946638  T  T  T
  10.232823   11.670264  22.701799  T  T  T
  11.767494    8.805734  19.022413  T  T  T
   6.362313   13.013963  20.783476  T  T  T
  10.266213   11.176395  19.130526  T  T  T
  13.709603    9.305358  20.264380  T  T  T
   9.461444    8.723579  19.728227  T  T  T
  10.469914    6.672199  19.009793  T  T  T
   7.959213    6.959705  18.899923  T  T  T
   7.697291   12.000175  22.682212  T  T  T
   6.403491   10.614723  21.047632  T  T  T
  15.393067   10.910969  19.110281  T  T  T
   7.558826    8.281102  21.146147  T  T  T
   7.799106   14.228464  19.115526  T  T  T
  12.902907   11.269422  19.029210  T  T  T
   5.262458   11.645552  18.978934  T  T  T
   6.942354    9.299181  19.129692  T  T  T
  15.559837    8.447532  19.099344  T  T  T
  13.501613    7.014929  18.872732  T  T  T
   5.196076   14.309649  18.979849  T  T  T
  11.400614   10.116807  21.011225  T  T  T
  11.554929   12.527353  20.837739  T  T  T
   6.492825   15.444685  20.764784  T  T  T
   9.027354   15.426184  20.748697  T  T  T
  10.322279   13.800310  19.092781  T  T  T
   7.728778   16.761050  19.094452  T  T  T
  10.117348   16.241828  18.718352  T  T  T
