Ta N Cu Ru                              
   1.00000000000000     
    18.1096308199999996    0.0000000000000000    0.0000000000000000
     0.0000000000000000   11.6775998899999998    0.0000000000000000
     0.0000000000000000    0.0000000000000000   23.4818170799999990
   Ta   N    Cu   Ru
   119   120     1     1
Direct
  0.0000325796279687  0.9999095522547014  0.2548661236092123
  0.3335132574660504  0.1249250282762058  0.2637857768649595
  0.1666566401571748  0.1250914406648842  0.2637343327750380
  0.2499161277640487  0.2499984180799510  0.3613213384761622
  0.0824346565266950  0.1250225476012595  0.3682668971210486
  0.4175006831253926  0.1249652581080108  0.3684753099125168
  0.0000068841910449  0.2499999066327336  0.4799900217437492
  0.3323059413326437  0.1248891500952091  0.4781659127532938
  0.1680159662188725  0.1250278659988550  0.4778902109241093
  0.2502772478301741  0.2499990486696854  0.5911978870367158
  0.0837012250328222  0.1250159697896789  0.5897714057647800
  0.4162450971469790  0.1257560380563977  0.5891766799276270
  0.9995818108535462  0.2500057726444804  0.7023032252969570
  0.3336875394601825  0.1236891032351044  0.7034386676197989
  0.1645828852815970  0.1250091907846161  0.7039896155995902
  0.0000390527517681  0.2499986938982327  0.2548442546854835
  0.3335135847933337  0.3750777343673295  0.2637851528598931
  0.1666552038277029  0.3749133582415211  0.2637331063525207
  0.2499940348851135  0.4999421673825327  0.3613557184590421
  0.0824348561802037  0.3749800386668982  0.3682674082497574
  0.4175005556948196  0.3750364746349947  0.3684758713014288
  0.0000289378592404  0.5000156040754093  0.4798861582311083
  0.3323084752888879  0.3751128422103637  0.4781685112584464
  0.1680236759104041  0.3749794258230901  0.4778887033227897
  0.2503384841407890  0.4994746543343673  0.5911431131892959
  0.0836978361957425  0.3749828016943393  0.5897681306694639
  0.4162573501611869  0.3742422950714660  0.5891875559089718
  0.9998008740007044  0.5002378550459305  0.7022699815288777
  0.3337266853382889  0.3764174580997530  0.7034687680887708
  0.1645889605253069  0.3749853787999429  0.7039910420838662
  0.0000304471051224  0.5000947614183099  0.2548659333787014
  0.3335972851476859  0.6250577847644219  0.2637986314678986
  0.1665194867744137  0.6249687534258774  0.2638031927836169
  0.2501391113291761  0.7500007641053609  0.3614021955952606
  0.0825524668361607  0.6249943969961598  0.3684186543302797
  0.4174893054534811  0.6250244404239159  0.3685262564611316
  0.0000398737237769  0.7499999191336989  0.4798295840281011
  0.3324818297288135  0.6250661280832309  0.4782939712831591
  0.1677328369282614  0.6249819891462767  0.4781309269673297
  0.2504409138335912  0.7499978123519944  0.5911829363376118
  0.0838292277056592  0.6249827894640614  0.5898352258124103
  0.4165472743450137  0.6248713444272594  0.5901814633334084
  0.9997434399583220  0.7500040245552670  0.7022159083892305
  0.3360202183896713  0.6252011707549133  0.7045662244637541
  0.1649843875497821  0.6251041619506912  0.7040018591903758
  0.0000149541492141  0.7500022636276431  0.2548779704022528
  0.3335951388942579  0.8749403048640118  0.2637971031960489
  0.1665141477551277  0.8750336656396921  0.2638000653464110
  0.2499919707382848  0.0000629281116055  0.3613564417760493
  0.0825536108550967  0.8750089679219419  0.3684196611920878
  0.4174888600584046  0.8749783871125383  0.3685259014036580
  0.0000304424541360  0.9999864944952952  0.4798866021736176
  0.3324811079263947  0.8749334268825931  0.4782932398008803
  0.1677339361237360  0.8750209750038460  0.4781333249264248
  0.2503429975367638  0.0005368485562929  0.5911441379253617
  0.0838345252229154  0.8750159514791238  0.5898381124150932
  0.4165505128698055  0.8751318644702264  0.5901833215205463
  0.9997978884945052  0.9997625587631110  0.7022689181433628
  0.3360117905198697  0.8748503284578671  0.7045846124962266
  0.1649878747887191  0.8749211430502756  0.7040051755805447
  0.4999235084642757 -0.0000203926067993  0.2548665450286324
  0.8333780185683882  0.1250821041346762  0.2637619757458176
  0.6665643228582040  0.1248997574476196  0.2637226612888811
  0.7502520802817221  0.2500018035207422  0.3612494499151593
  0.5825251229400329  0.1249581523003004  0.3683327150227195
  0.9177094686647084  0.1250249716025503  0.3683097518782995
  0.4999620699545792  0.2499995534958764  0.4794298747026957
  0.8320238734732668  0.1249676307477705  0.4778670686365192
  0.6677883373361605  0.1248788282246245  0.4778278120558786
  0.7501477717377308  0.2499938267641819  0.5908707910017204
  0.5842882141773456  0.1255856680780446  0.5886762279886599
  0.9163030041217227  0.1249317001234024  0.5897728512684817
  0.8345365778296753  0.1249078891588641  0.7040607114156890
  0.6642411128061267  0.1260492164735949  0.7033618334399481
  0.4999221030958251  0.2500012875471059  0.2548434891786021
  0.8333761389163969  0.3749203343097374  0.2637632302325434
  0.6665617665329423  0.3751032210364427  0.2637217117631456
  0.7501324900496695  0.4999687575631444  0.3613283153135330
  0.5825259143248169  0.3750446227354278  0.3683347096567139
  0.9177085482265392  0.3749785397111014  0.3683088662919347
  0.4999638234635418  0.5001644290535957  0.4797565483868754
  0.8320289636510775  0.3750343270387398  0.4778641962434825
  0.6677883044346528  0.3751242217789886  0.4778269329271267
  0.7497274011577842  0.4996875405039785  0.5910736759888915
  0.5842835967625990  0.3744062979194867  0.5886846075213997
  0.9163050215553827  0.3750692125023085  0.5897787021819340
  0.8345510293896267  0.3750872544122809  0.7040633266256607
  0.6642229335030969  0.3739634934242401  0.7033587466708195
  0.4999234283012453  0.5000228266157196  0.2548664803303499
  0.8335397077045740  0.6249870969805009  0.2638122995579310
  0.6664579816793995  0.6250430186077589  0.2637531221949678
  0.7500095272967423  0.7500003066559630  0.3613884065978166
  0.5824854800916032  0.6250611182737167  0.3684261168006602
  0.9175802857669036  0.6249871231131034  0.3684557345285326
  0.4999779503714719  0.7500008589121827  0.4800066542282253
  0.8323415017177309  0.6250258824467608  0.4781344746871440
  0.6675917705553246  0.6250846114504423  0.4781000014183244
  0.7496704381519255  0.7499998387947371  0.5911098668896612
  0.5835119253748982  0.6249039090316952  0.5899788577604003
  0.9162423805287180  0.6250331936097278  0.5898806196699714
  0.5000222629977275  0.7499969930846871  0.7026782435208353
  0.8346425115882246  0.6248685100627884  0.7041213962920760
  0.6641144286935943  0.6245649218007244  0.7044935945110197
  0.4999264856839110  0.7500024986252843  0.2549067508923037
  0.8335408393106006  0.8750172819343296  0.2638114959231509
  0.6664562397907273  0.8749613516603633  0.2637528781259850
  0.7501330887272137  0.0000353497863358  0.3613258240477377
  0.5824855948902377  0.8749421894953503  0.3684273735772348
  0.9175799618931401  0.8750161024494453  0.3684568881724870
  0.4999633874854175  0.9998391911426853  0.4797563146422664
  0.8323417174414851  0.8749753397808570  0.4781331058721744
  0.6675920205189937  0.8749158705957847  0.4780985085583027
  0.7497277210230738  0.0003240471570288  0.5910771172430465
  0.5835136332378310  0.8751039164017245  0.5899788198419796
  0.9162469177090096  0.8749725011073488  0.5898834156405619
  0.4999069436361761  0.0092433195579342  0.7027981137647513
  0.8346463319591587  0.8751340389590744  0.7041204351836933
  0.6641035027690608  0.8754462211510173  0.7044974287115134
  0.4998900032757467  0.4908342289210242  0.7028003280753256
  0.4067694883123394  0.9999252327237402  0.3012922522349082
  0.2500558063109394  0.9999355421745152  0.2577590205703310
  0.0932310356012558  0.0000724020944034  0.3011611744085170
  0.1543958510153929  0.2500011302937825  0.4099272079950819
  0.0000786018088167  0.2500023236142385  0.3932012764326798
  0.3455628982028281  0.2499998015452889  0.4099178928491918
  0.4007695998557806  0.2500021532734364  0.5217125898139995
  0.2499866940860765  0.2499991339407961  0.5028983431644406
  0.0990257938943954  0.2499984679358476  0.5219350590251894
  0.1519216463182475  0.2500047284426788  0.6332775618549882
 -0.0000120877776024  0.2499968141016528  0.6136049371485618
  0.3486440063994085  0.2500254833712208  0.6340300509803910
  0.4055477717760115  0.2501908100327366  0.7396108354930118
  0.2501602419402599  0.2500079873342377  0.7251179050038004
  0.0963575440669691  0.2500128168397939  0.7402937449538498
  0.4067406369867921  0.2500001119614896  0.3012226616922412
  0.2501598911180125  0.2500025905074384  0.2576879877084738
  0.0931885881970523  0.2500012895999997  0.3011414111034432
  0.1544605429958098  0.4999751425974649  0.4099520106866771
  0.0000752244902599  0.5000133826700528  0.3931579469997191
  0.3455552247760657  0.5000285697412632  0.4100356918238920
  0.4010958005226526  0.5001026117718094  0.5222321972366432
  0.2500240386684848  0.5001529894543153  0.5029887704290167
  0.0990196956065321  0.4997402270149403  0.5219923219238070
  0.1519672747140945  0.5000827543873225  0.6331492441200383
  0.0000075673307077  0.4999575861256448  0.6135893954834448
  0.3488642813307415  0.4996848274088503  0.6335982336544523
  0.4032867376710965  0.4967748197362664  0.7411450231398194
  0.2503103315260257  0.4993551985589843  0.7240211804790088
  0.0968975252022080  0.4998475384635376  0.7401873728174027
  0.4067701349503264  0.5000757976620134  0.3012934244680158
  0.2500557736476069  0.5000631431246887  0.2577564431764082
  0.0932302239112334  0.4999296143102560  0.3011600199706311
  0.1545572438776484  0.7500011483427483  0.4099562594341756
  0.0000669731753666  0.7500013023598313  0.3931476091214188
  0.3455813361229123  0.7500024611111508  0.4101319874490238
  0.4011222508439531  0.7500021414942252  0.5223204571838178
  0.2501081817296887  0.7500013980452970  0.5030197778675795
  0.0990716942063080  0.7499983480086819  0.5220717265190108
  0.1521225229725824  0.7499944272769558  0.6331758758839714
  0.0000420127246403  0.7500003738608273  0.6134853944429592
  0.3486063399100550  0.7500173826077644  0.6336093049117117
  0.4033581840090624  0.7500329983097155  0.7410959443074679
  0.2506953956305428  0.7500289996964422  0.7241087722526037
  0.0970008530228324  0.7500045726889086  0.7400688142078893
  0.4067899530971738  0.7500017799940124  0.3013592414519659
  0.2499973564532800  0.7500001799887567  0.2578800092029012
  0.0932404856147694  0.7500017825178970  0.3011893236297185
  0.1544596096544920  0.0000277328033188  0.4099531368281917
  0.0000757200624364 -0.0000125166236277  0.3931582659969518
  0.3455539189291971  0.9999740159072034  0.4100351837156941
  0.4010957075397136  0.9998981025582360  0.5222303020149578
  0.2500252499345530  0.9998517249097980  0.5029919072928385
  0.0990216173829694  0.0002577599389559  0.5219924796107686
  0.1519702454276865  0.9999138034919234  0.6331520848945489
  0.0000097878200011  0.0000468794641394  0.6135921457935921
  0.3488667937938980  0.0003022485259767  0.6336129416850023
  0.4033243709811768  0.0033512137949679  0.7412108827807580
  0.2502949602777897  0.0006450684158726  0.7240513215400507
  0.0968964589039407  0.0001584534138913  0.7401946638325061
  0.9068365260299006  0.0000576973751187  0.3011806357050698
  0.7499974268595651  0.9999081432489513  0.2576649794906978
  0.5931763861393891  0.9998870803229838  0.3011559513208480
  0.6545073314826241  0.2499993437204350  0.4096569532317260
  0.5000259417397839  0.2500004552773004  0.3929152949202233
  0.8457543397432785  0.2499994246671778  0.4098931538546818
  0.9010275708590361  0.2499955718531462  0.5219739561576827
  0.7501138751753639  0.2500040174394592  0.5026095475365132
  0.5993719930784607  0.2500052093361412  0.5213219508353791
  0.6518231389493651  0.2499955640463203  0.6328258709881440
  0.5003063082383582  0.2499809564694718  0.6116011664208677
  0.8480881854460779  0.2499989155714149  0.6333043280931275
  0.9029458472624091  0.2499911876956501  0.7403116945642005
  0.7491029204460268  0.2500036786376225  0.7243501119100556
  0.5953867220018751  0.2499875288419785  0.7387722144394160
  0.9068834088467654  0.2500015665721529  0.3011505494753385
  0.7498778146177405  0.2500015335298205  0.2575280785168597
  0.5932340980644508  0.2500021665679745  0.3010710508003464
  0.6544849094351601  0.5001089777730450  0.4098299756227250
  0.5000213757304542  0.5000681008244190  0.3931092528163312
  0.8456634214063137  0.5000015466910446  0.4099478919664529
  0.9010569568384466  0.4998485516358838  0.5220134107385914
  0.7500045935716236  0.5002446663149896  0.5028868852568685
  0.5989991059771482  0.5002566364187656  0.5219449829179942
  0.6511760132919208  0.4998985973666942  0.6333165025617270
  0.5001387986919159  0.4981312629621406  0.6142629275418114
  0.8479999065802069  0.5002053961594726  0.6331573510828231
  0.9030027953896219  0.4996133858179482  0.7401854326115925
  0.7496035274409892  0.4997974473217235  0.7240487299140337
  0.5960840422138739  0.4974763777112609  0.7407535042611710
  0.9068354843312142  0.4999453031306496  0.3011800051042877
  0.7499967872953287  0.5000945336315481  0.2576664104684516
  0.5931756577069125  0.5001143695930628  0.3011560144074427
  0.6544499879776684  0.7500000301957790  0.4099611582428280
  0.5000047297404751  0.7500009479953833  0.3932410307489025
  0.8455495092014731  0.7499999428772147  0.4099697048675672
  0.9010289548021907  0.7500019417510843  0.5220902250086350
  0.7499194595786493  0.7500015315599781  0.5029171355068917
  0.5989015900922638  0.7500008707160756  0.5221578652451428
  0.6515176675262366  0.7499941869197493  0.6334391290516127
  0.5000923396828689  0.7499983139942074  0.6140313452463128
  0.8479280906377357  0.7500000670123372  0.6331546683012185
  0.9028715732807073  0.7500004014519990  0.7402742724455897
  0.7491850894082807  0.7500068455323552  0.7239223093658843
  0.5965709148889382  0.7500010661850970  0.7407662671677294
  0.9068251386344477  0.7500025358489133  0.3012259704635149
  0.7500470712326317  0.7500027025143573  0.2578380082142869
  0.5931620999163461  0.7500019380247820  0.3012327228933196
  0.6544844238658885  0.9998962206327303  0.4098297167425581
  0.5000207671914537  0.9999347868562976  0.3931087582435067
  0.8456627732543678  0.0000032192370682  0.4099473933560055
  0.9010574967250938  0.0001605666452140  0.5220132163583961
  0.7500040160336152  0.9997516008784811  0.5028885689740327
  0.5989999307272412  0.9997390372991810  0.5219440801279321
  0.6511692491537769  0.0001175579407100  0.6333229344110288
  0.5001378905521663  0.0018870941169174  0.6142629683418537
  0.8480007776404435  0.9998035900581297  0.6331586776459057
  0.9030057615069798  0.0003952202803171  0.7401870183628876
  0.7496078803931459  0.0001943740126403  0.7240515132279910
  0.5960922419675546  0.0025333459295752  0.7407728221790957
  0.4004079981142498  0.2457614174133078  0.8159712934386091
  0.5027531052650855  0.2498904618433891  0.6968044414733519
 
  0.00000000E+00  0.00000000E+00  0.00000000E+00
  0.00000000E+00  0.00000000E+00  0.00000000E+00
  0.00000000E+00  0.00000000E+00  0.00000000E+00
  0.00000000E+00  0.00000000E+00  0.00000000E+00
  0.00000000E+00  0.00000000E+00  0.00000000E+00
  0.00000000E+00  0.00000000E+00  0.00000000E+00
  0.00000000E+00  0.00000000E+00  0.00000000E+00
  0.00000000E+00  0.00000000E+00  0.00000000E+00
  0.00000000E+00  0.00000000E+00  0.00000000E+00
  0.00000000E+00  0.00000000E+00  0.00000000E+00
  0.00000000E+00  0.00000000E+00  0.00000000E+00
  0.00000000E+00  0.00000000E+00  0.00000000E+00
  0.00000000E+00  0.00000000E+00  0.00000000E+00
  0.00000000E+00  0.00000000E+00  0.00000000E+00
  0.00000000E+00  0.00000000E+00  0.00000000E+00
  0.00000000E+00  0.00000000E+00  0.00000000E+00
  0.00000000E+00  0.00000000E+00  0.00000000E+00
  0.00000000E+00  0.00000000E+00  0.00000000E+00
  0.00000000E+00  0.00000000E+00  0.00000000E+00
  0.00000000E+00  0.00000000E+00  0.00000000E+00
  0.00000000E+00  0.00000000E+00  0.00000000E+00
  0.00000000E+00  0.00000000E+00  0.00000000E+00
  0.00000000E+00  0.00000000E+00  0.00000000E+00
  0.00000000E+00  0.00000000E+00  0.00000000E+00
  0.00000000E+00  0.00000000E+00  0.00000000E+00
  0.00000000E+00  0.00000000E+00  0.00000000E+00
  0.00000000E+00  0.00000000E+00  0.00000000E+00
  0.00000000E+00  0.00000000E+00  0.00000000E+00
  0.00000000E+00  0.00000000E+00  0.00000000E+00
  0.00000000E+00  0.00000000E+00  0.00000000E+00
  0.00000000E+00  0.00000000E+00  0.00000000E+00
  0.00000000E+00  0.00000000E+00  0.00000000E+00
  0.00000000E+00  0.00000000E+00  0.00000000E+00
  0.00000000E+00  0.00000000E+00  0.00000000E+00
  0.00000000E+00  0.00000000E+00  0.00000000E+00
  0.00000000E+00  0.00000000E+00  0.00000000E+00
  0.00000000E+00  0.00000000E+00  0.00000000E+00
  0.00000000E+00  0.00000000E+00  0.00000000E+00
  0.00000000E+00  0.00000000E+00  0.00000000E+00
  0.00000000E+00  0.00000000E+00  0.00000000E+00
  0.00000000E+00  0.00000000E+00  0.00000000E+00
  0.00000000E+00  0.00000000E+00  0.00000000E+00
  0.00000000E+00  0.00000000E+00  0.00000000E+00
  0.00000000E+00  0.00000000E+00  0.00000000E+00
  0.00000000E+00  0.00000000E+00  0.00000000E+00
  0.00000000E+00  0.00000000E+00  0.00000000E+00
  0.00000000E+00  0.00000000E+00  0.00000000E+00
  0.00000000E+00  0.00000000E+00  0.00000000E+00
  0.00000000E+00  0.00000000E+00  0.00000000E+00
  0.00000000E+00  0.00000000E+00  0.00000000E+00
  0.00000000E+00  0.00000000E+00  0.00000000E+00
  0.00000000E+00  0.00000000E+00  0.00000000E+00
  0.00000000E+00  0.00000000E+00  0.00000000E+00
  0.00000000E+00  0.00000000E+00  0.00000000E+00
  0.00000000E+00  0.00000000E+00  0.00000000E+00
  0.00000000E+00  0.00000000E+00  0.00000000E+00
  0.00000000E+00  0.00000000E+00  0.00000000E+00
  0.00000000E+00  0.00000000E+00  0.00000000E+00
  0.00000000E+00  0.00000000E+00  0.00000000E+00
  0.00000000E+00  0.00000000E+00  0.00000000E+00
  0.00000000E+00  0.00000000E+00  0.00000000E+00
  0.00000000E+00  0.00000000E+00  0.00000000E+00
  0.00000000E+00  0.00000000E+00  0.00000000E+00
  0.00000000E+00  0.00000000E+00  0.00000000E+00
  0.00000000E+00  0.00000000E+00  0.00000000E+00
  0.00000000E+00  0.00000000E+00  0.00000000E+00
  0.00000000E+00  0.00000000E+00  0.00000000E+00
  0.00000000E+00  0.00000000E+00  0.00000000E+00
  0.00000000E+00  0.00000000E+00  0.00000000E+00
  0.00000000E+00  0.00000000E+00  0.00000000E+00
  0.00000000E+00  0.00000000E+00  0.00000000E+00
  0.00000000E+00  0.00000000E+00  0.00000000E+00
  0.00000000E+00  0.00000000E+00  0.00000000E+00
  0.00000000E+00  0.00000000E+00  0.00000000E+00
  0.00000000E+00  0.00000000E+00  0.00000000E+00
  0.00000000E+00  0.00000000E+00  0.00000000E+00
  0.00000000E+00  0.00000000E+00  0.00000000E+00
  0.00000000E+00  0.00000000E+00  0.00000000E+00
  0.00000000E+00  0.00000000E+00  0.00000000E+00
  0.00000000E+00  0.00000000E+00  0.00000000E+00
  0.00000000E+00  0.00000000E+00  0.00000000E+00
  0.00000000E+00  0.00000000E+00  0.00000000E+00
  0.00000000E+00  0.00000000E+00  0.00000000E+00
  0.00000000E+00  0.00000000E+00  0.00000000E+00
  0.00000000E+00  0.00000000E+00  0.00000000E+00
  0.00000000E+00  0.00000000E+00  0.00000000E+00
  0.00000000E+00  0.00000000E+00  0.00000000E+00
  0.00000000E+00  0.00000000E+00  0.00000000E+00
  0.00000000E+00  0.00000000E+00  0.00000000E+00
  0.00000000E+00  0.00000000E+00  0.00000000E+00
  0.00000000E+00  0.00000000E+00  0.00000000E+00
  0.00000000E+00  0.00000000E+00  0.00000000E+00
  0.00000000E+00  0.00000000E+00  0.00000000E+00
  0.00000000E+00  0.00000000E+00  0.00000000E+00
  0.00000000E+00  0.00000000E+00  0.00000000E+00
  0.00000000E+00  0.00000000E+00  0.00000000E+00
  0.00000000E+00  0.00000000E+00  0.00000000E+00
  0.00000000E+00  0.00000000E+00  0.00000000E+00
  0.00000000E+00  0.00000000E+00  0.00000000E+00
  0.00000000E+00  0.00000000E+00  0.00000000E+00
  0.00000000E+00  0.00000000E+00  0.00000000E+00
  0.00000000E+00  0.00000000E+00  0.00000000E+00
  0.00000000E+00  0.00000000E+00  0.00000000E+00
  0.00000000E+00  0.00000000E+00  0.00000000E+00
  0.00000000E+00  0.00000000E+00  0.00000000E+00
  0.00000000E+00  0.00000000E+00  0.00000000E+00
  0.00000000E+00  0.00000000E+00  0.00000000E+00
  0.00000000E+00  0.00000000E+00  0.00000000E+00
  0.00000000E+00  0.00000000E+00  0.00000000E+00
  0.00000000E+00  0.00000000E+00  0.00000000E+00
  0.00000000E+00  0.00000000E+00  0.00000000E+00
  0.00000000E+00  0.00000000E+00  0.00000000E+00
  0.00000000E+00  0.00000000E+00  0.00000000E+00
  0.00000000E+00  0.00000000E+00  0.00000000E+00
  0.00000000E+00  0.00000000E+00  0.00000000E+00
  0.00000000E+00  0.00000000E+00  0.00000000E+00
  0.00000000E+00  0.00000000E+00  0.00000000E+00
  0.00000000E+00  0.00000000E+00  0.00000000E+00
  0.00000000E+00  0.00000000E+00  0.00000000E+00
  0.00000000E+00  0.00000000E+00  0.00000000E+00
  0.00000000E+00  0.00000000E+00  0.00000000E+00
  0.00000000E+00  0.00000000E+00  0.00000000E+00
  0.00000000E+00  0.00000000E+00  0.00000000E+00
  0.00000000E+00  0.00000000E+00  0.00000000E+00
  0.00000000E+00  0.00000000E+00  0.00000000E+00
  0.00000000E+00  0.00000000E+00  0.00000000E+00
  0.00000000E+00  0.00000000E+00  0.00000000E+00
  0.00000000E+00  0.00000000E+00  0.00000000E+00
  0.00000000E+00  0.00000000E+00  0.00000000E+00
  0.00000000E+00  0.00000000E+00  0.00000000E+00
  0.00000000E+00  0.00000000E+00  0.00000000E+00
  0.00000000E+00  0.00000000E+00  0.00000000E+00
  0.00000000E+00  0.00000000E+00  0.00000000E+00
  0.00000000E+00  0.00000000E+00  0.00000000E+00
  0.00000000E+00  0.00000000E+00  0.00000000E+00
  0.00000000E+00  0.00000000E+00  0.00000000E+00
  0.00000000E+00  0.00000000E+00  0.00000000E+00
  0.00000000E+00  0.00000000E+00  0.00000000E+00
  0.00000000E+00  0.00000000E+00  0.00000000E+00
  0.00000000E+00  0.00000000E+00  0.00000000E+00
  0.00000000E+00  0.00000000E+00  0.00000000E+00
  0.00000000E+00  0.00000000E+00  0.00000000E+00
  0.00000000E+00  0.00000000E+00  0.00000000E+00
  0.00000000E+00  0.00000000E+00  0.00000000E+00
  0.00000000E+00  0.00000000E+00  0.00000000E+00
  0.00000000E+00  0.00000000E+00  0.00000000E+00
  0.00000000E+00  0.00000000E+00  0.00000000E+00
  0.00000000E+00  0.00000000E+00  0.00000000E+00
  0.00000000E+00  0.00000000E+00  0.00000000E+00
  0.00000000E+00  0.00000000E+00  0.00000000E+00
  0.00000000E+00  0.00000000E+00  0.00000000E+00
  0.00000000E+00  0.00000000E+00  0.00000000E+00
  0.00000000E+00  0.00000000E+00  0.00000000E+00
  0.00000000E+00  0.00000000E+00  0.00000000E+00
  0.00000000E+00  0.00000000E+00  0.00000000E+00
  0.00000000E+00  0.00000000E+00  0.00000000E+00
  0.00000000E+00  0.00000000E+00  0.00000000E+00
  0.00000000E+00  0.00000000E+00  0.00000000E+00
  0.00000000E+00  0.00000000E+00  0.00000000E+00
  0.00000000E+00  0.00000000E+00  0.00000000E+00
  0.00000000E+00  0.00000000E+00  0.00000000E+00
  0.00000000E+00  0.00000000E+00  0.00000000E+00
  0.00000000E+00  0.00000000E+00  0.00000000E+00
  0.00000000E+00  0.00000000E+00  0.00000000E+00
  0.00000000E+00  0.00000000E+00  0.00000000E+00
  0.00000000E+00  0.00000000E+00  0.00000000E+00
  0.00000000E+00  0.00000000E+00  0.00000000E+00
  0.00000000E+00  0.00000000E+00  0.00000000E+00
  0.00000000E+00  0.00000000E+00  0.00000000E+00
  0.00000000E+00  0.00000000E+00  0.00000000E+00
  0.00000000E+00  0.00000000E+00  0.00000000E+00
  0.00000000E+00  0.00000000E+00  0.00000000E+00
  0.00000000E+00  0.00000000E+00  0.00000000E+00
  0.00000000E+00  0.00000000E+00  0.00000000E+00
  0.00000000E+00  0.00000000E+00  0.00000000E+00
  0.00000000E+00  0.00000000E+00  0.00000000E+00
  0.00000000E+00  0.00000000E+00  0.00000000E+00
  0.00000000E+00  0.00000000E+00  0.00000000E+00
  0.00000000E+00  0.00000000E+00  0.00000000E+00
  0.00000000E+00  0.00000000E+00  0.00000000E+00
  0.00000000E+00  0.00000000E+00  0.00000000E+00
  0.00000000E+00  0.00000000E+00  0.00000000E+00
  0.00000000E+00  0.00000000E+00  0.00000000E+00
  0.00000000E+00  0.00000000E+00  0.00000000E+00
  0.00000000E+00  0.00000000E+00  0.00000000E+00
  0.00000000E+00  0.00000000E+00  0.00000000E+00
  0.00000000E+00  0.00000000E+00  0.00000000E+00
  0.00000000E+00  0.00000000E+00  0.00000000E+00
  0.00000000E+00  0.00000000E+00  0.00000000E+00
  0.00000000E+00  0.00000000E+00  0.00000000E+00
  0.00000000E+00  0.00000000E+00  0.00000000E+00
  0.00000000E+00  0.00000000E+00  0.00000000E+00
  0.00000000E+00  0.00000000E+00  0.00000000E+00
  0.00000000E+00  0.00000000E+00  0.00000000E+00
  0.00000000E+00  0.00000000E+00  0.00000000E+00
  0.00000000E+00  0.00000000E+00  0.00000000E+00
  0.00000000E+00  0.00000000E+00  0.00000000E+00
  0.00000000E+00  0.00000000E+00  0.00000000E+00
  0.00000000E+00  0.00000000E+00  0.00000000E+00
  0.00000000E+00  0.00000000E+00  0.00000000E+00
  0.00000000E+00  0.00000000E+00  0.00000000E+00
  0.00000000E+00  0.00000000E+00  0.00000000E+00
  0.00000000E+00  0.00000000E+00  0.00000000E+00
  0.00000000E+00  0.00000000E+00  0.00000000E+00
  0.00000000E+00  0.00000000E+00  0.00000000E+00
  0.00000000E+00  0.00000000E+00  0.00000000E+00
  0.00000000E+00  0.00000000E+00  0.00000000E+00
  0.00000000E+00  0.00000000E+00  0.00000000E+00
  0.00000000E+00  0.00000000E+00  0.00000000E+00
  0.00000000E+00  0.00000000E+00  0.00000000E+00
  0.00000000E+00  0.00000000E+00  0.00000000E+00
  0.00000000E+00  0.00000000E+00  0.00000000E+00
  0.00000000E+00  0.00000000E+00  0.00000000E+00
  0.00000000E+00  0.00000000E+00  0.00000000E+00
  0.00000000E+00  0.00000000E+00  0.00000000E+00
  0.00000000E+00  0.00000000E+00  0.00000000E+00
  0.00000000E+00  0.00000000E+00  0.00000000E+00
  0.00000000E+00  0.00000000E+00  0.00000000E+00
  0.00000000E+00  0.00000000E+00  0.00000000E+00
  0.00000000E+00  0.00000000E+00  0.00000000E+00
  0.00000000E+00  0.00000000E+00  0.00000000E+00
  0.00000000E+00  0.00000000E+00  0.00000000E+00
  0.00000000E+00  0.00000000E+00  0.00000000E+00
  0.00000000E+00  0.00000000E+00  0.00000000E+00
  0.00000000E+00  0.00000000E+00  0.00000000E+00
  0.00000000E+00  0.00000000E+00  0.00000000E+00
  0.00000000E+00  0.00000000E+00  0.00000000E+00
  0.00000000E+00  0.00000000E+00  0.00000000E+00
  0.00000000E+00  0.00000000E+00  0.00000000E+00
  0.00000000E+00  0.00000000E+00  0.00000000E+00
  0.00000000E+00  0.00000000E+00  0.00000000E+00
  0.00000000E+00  0.00000000E+00  0.00000000E+00
  0.00000000E+00  0.00000000E+00  0.00000000E+00
  0.00000000E+00  0.00000000E+00  0.00000000E+00
  0.00000000E+00  0.00000000E+00  0.00000000E+00
  0.00000000E+00  0.00000000E+00  0.00000000E+00
  0.00000000E+00  0.00000000E+00  0.00000000E+00
  0.00000000E+00  0.00000000E+00  0.00000000E+00
  0.00000000E+00  0.00000000E+00  0.00000000E+00
  0.00000000E+00  0.00000000E+00  0.00000000E+00
  0.00000000E+00  0.00000000E+00  0.00000000E+00
