Ta  N Co Cu                             
   1.00000000000000     
    18.1096308199999996    0.0000000000000000    0.0000000000000000
     0.0000000000000000   23.3551997799999995    0.0000000000000000
     0.0000000000000000    0.0000000000000000   30.4818171199999988
   Ta   N    Co   Cu
   216   240    24     1
Direct
  0.0012174700958951  0.9999956159192394  0.1972034383092733
  0.3351632587472295  0.0627190257950403  0.2026383296434204
  0.1670798723962434  0.0627249071114448  0.2025677790450118
  0.2514922707442437  0.1249851238906317  0.2780148465362089
  0.0842990277206681  0.0625064459092926  0.2838183920372259
  0.4188201179743487  0.0625174447768870  0.2838153077665595
  0.0022184705101580  0.1248110175647241  0.3692637978960391
  0.3344140730939102  0.0623721185009600  0.3683772864884602
  0.1698603332743573  0.0623841549629276  0.3682464873188280
  0.2538987503814951  0.1243215020003561  0.4558365921993186
  0.0858467404156187  0.0621363968734769  0.4538865683242648
  0.4211285857837836  0.0622293603131965  0.4533749637823377
  0.3408295662056631  0.0616326217851011  0.5413393338374135
  0.1675916217341538  0.0638837458496511  0.5418836995932779
  0.0011103422152630  0.1251813037938021  0.1973762798514969
  0.3345764753236082  0.1878087432333757  0.2031376079423097
  0.1673484282484239  0.1878193162164337  0.2030644120256255
  0.2508712736825629  0.2502771932770429  0.2786122070616130
  0.0839564451480754  0.1876494314725647  0.2842097710346039
  0.4184657205834554  0.1876480841996937  0.2842839540731674
  0.0015561615672013  0.2499690095875735  0.3700558301825438
  0.3340774923226704  0.1872638053148137  0.3687683513855617
  0.1693162376716302  0.1872634854221999  0.3685434453621923
  0.2526510351626499  0.2465421743593410  0.4551144556587587
  0.0853652139028256  0.1861248243055513  0.4536572219353232
  0.4200235734944826  0.1866257237971993  0.4536889159220650
  0.3472265850147735  0.1850761305189792  0.5429224902511010
  0.1703786041181985  0.1914434735987243  0.5412812706287227
  0.0007434128155452  0.2508038283742877  0.1980398866897346
  0.3351221038468211  0.3128859850866519  0.2034574474538076
  0.1662006985285984  0.3128982114522287  0.2034733952368413
  0.2501117177515653  0.3751518722317400  0.2796221008677549
  0.0834676692993312  0.3126452595902975  0.2849874506906431
  0.4178268377898746  0.3126721515039819  0.2850915776520395
  0.0004700916011231  0.3746127967263391  0.3707291332775995
  0.3325638035755176  0.3126364949772977  0.3693237147719159
  0.1681807733853233  0.3126239671357851  0.3695747229732120
  0.2461196172005842  0.3743854837585090  0.4628610711747001
  0.0845242677991749  0.3112370499568442  0.4567993794905263
  0.4179890950692595  0.3118909720976646  0.4543493242876409
  0.3403747643874553  0.3109276404637740  0.5430698613614950
  0.0005185249241109  0.3752746981203501  0.1986635650311470
  0.3344143059933273  0.4376514253886157  0.2040000219777767
  0.1663689522163381  0.4377478610681180  0.2040828707523374
  0.2517154145589018  0.9999874828307966  0.2781106697506814
  0.0832106563636117  0.4375563870853085  0.2855212610596141
  0.4171048093943313  0.4375496489941568  0.2856338118922253
  0.0025684558274151  0.9999900927750645  0.3691413933724164
  0.3305449127848448  0.4373980036692231  0.3704488887886939
  0.1680149549567602  0.4373791791749682  0.3706842487676241
  0.2533427771834624  0.0000438876477347  0.4558098854224397
  0.0801060550186108  0.4374258790768906  0.4547929803921988
  0.4167547437054253  0.4369456339408160  0.4538941525061588
  0.3321008127836222  0.4384559276623392  0.5397051065685901
  0.0003735797289792  0.4999964768388452  0.1988983113726022
  0.3344145763507598  0.5623440106806399  0.2039971015306747
  0.1663636033187359  0.5622566573272678  0.2040836071702330
  0.2501098224807663  0.6248219097259096  0.2796066284367882
  0.0832033373013203  0.5624444836690756  0.2855220479042941
  0.4171097622705489  0.5624470386144438  0.2856311458930065
  0.0004833204008179  0.6253854493526276  0.3707290387836579
  0.3305452707066721  0.5626149012645385  0.3704448907104307
  0.1680079079153316  0.5626263402753651  0.3706689987417064
  0.2461536255765040  0.6256270581826868  0.4629749031164678
  0.0800960697970368  0.5625727441094384  0.4548106572933435
  0.4167174617329508  0.5630791280821867  0.4539330104165487
  0.3322226189280286  0.5622731281467850  0.5397797234567747
  0.0005305027152502  0.6247286963067751  0.1986580991033762
  0.3351284919555511  0.6871189621909508  0.2034582533972937
  0.1661880918608674  0.6871069273769237  0.2034729835953328
  0.2508793250338783  0.7497261777604436  0.2786172488104555
  0.0834586548763383  0.6873532757388361  0.2849892225621105
  0.4178270443554766  0.6873248196062036  0.2851109836697745
  0.0015806557814599  0.7500208891259490  0.3700637272903720
  0.3325314155265460  0.6873878244983587  0.3693805277529236
  0.1682060384884707  0.6873859030600826  0.3696048541203538
  0.2528941261916628  0.7535021656482144  0.4555161398851268
  0.0844118096593363  0.6887351337410976  0.4568671999746243
  0.4179530952535799  0.6880703313423098  0.4544223565591707
  0.3388830397521474  0.6903824721529617  0.5434199218291269
  0.0007436194255490  0.7491867269166619  0.1980375455719212
  0.3345745210000644  0.8121953844494030  0.2031426041431885
  0.1673487446832524  0.8121775603704648  0.2030778596007821
  0.2514935638861431  0.8750299525644252  0.2780333830537529
  0.0839635285321734  0.8123566601624930  0.2842132633959551
  0.4184588309466974  0.8123558894086855  0.2842869758831199
  0.0022049703733771  0.8751917129866413  0.3692473977354922
  0.3340069187563302  0.8127235516209907  0.3687998767113072
  0.1692916982114028  0.8127180328212518  0.3685708995707984
  0.2537935970134981  0.8757562143778514  0.4559496213257148
  0.0853331771068540  0.8140963233520750  0.4537197566389679
  0.4202885630265101  0.8134523724020468  0.4536767862356115
  0.3461625651657201  0.8140675210780941  0.5425900638488557
  0.1733655354375685  0.8060726718434665  0.5416898355629840
  0.0011083170718180  0.8748232808106096  0.1973736453660990
  0.3351570046125971  0.9372843584052433  0.2026417731537009
  0.1670817230919184  0.9372709045724008  0.2025669885252270
  0.2498856995769856  0.4999969343270152  0.2798338193246011
  0.0842957019371298  0.9374893885535585  0.2838112093172995
  0.4188217549635027  0.9374849852063250  0.2838129979580799
  0.9995552727329482  0.4999994271424697  0.3705919478970685
  0.3344635932260260  0.9376155083474771  0.3683736744998072
  0.1698185148825928  0.9376090978552725  0.3682216898030930
  0.2435839416372545  0.4999723248113739  0.4632740269487243
  0.0858664164907808  0.9378975869750974  0.4538622257273062
  0.4210447460804829  0.9377875494801415  0.4533911535816770
  0.3410732031948172  0.9376572240397607  0.5413769552629049
  0.1670830728101507  0.9353354346561886  0.5420320638399971
  0.5012227296254110  0.0000002385745788  0.1971974427241889
  0.8351680958040362  0.0627263807715650  0.2026304956240992
  0.6670848075334703  0.0627287641742811  0.2025587719127060
  0.7514946660301121  0.1249921969568675  0.2780172383763428
  0.5842920556022477  0.0625167912170213  0.2838105054621778
  0.9188171811934396  0.0625229505739640  0.2838004689680034
  0.5022176335557020  0.1248185298968352  0.3692554746392815
  0.8344708999130646  0.0623840594309684  0.3683591756713156
  0.6697984428165711  0.0623860109081136  0.3682094376689875
  0.7537871724785532  0.1243261071361204  0.4559703730126543
  0.5858279775253905  0.0620814827592255  0.4538470773301384
  0.9210995847781049  0.0621911417056822  0.4534045899744328
  0.8410580205034606  0.0620480496325584  0.5414323936621841
  0.6672142880481502  0.0644955488586731  0.5420245075510266
  0.5011079135713175  0.1251789515510708  0.1973753185050597
  0.8345790841275189  0.1878090192382516  0.2031325116140650
  0.6673572540534209  0.1878245350889145  0.2030580395675088
  0.7508741068682809  0.2502702932643217  0.2786255328215432
  0.5839581863228389  0.1876448418088543  0.2842051925971134
  0.9184516244116097  0.1876453069654147  0.2842817273681604
  0.5015734056514916  0.2499565192969584  0.3700682224284648
  0.8340097236081832  0.1872774369802528  0.3688030367990720
  0.6693158639400991  0.1872777454097445  0.3685634823621271
  0.7528952687873982  0.2464904752443857  0.4555032033839197
  0.5852552169012952  0.1859022441587186  0.4537254693532446
  0.9203498156479313  0.1865540366054432  0.4536778725896156
  0.8461611860949318  0.1859446573261110  0.5425813848672831
  0.6733773542406993  0.1939745352534459  0.5416622620664597
  0.5007427645958273  0.2507966802668307  0.1980386976232182
  0.8351326189826693  0.3128879495267398  0.2034503054463315
  0.6662055900592208  0.3128814687662356  0.2034614046268501
  0.7501178279993468  0.3751624988733653  0.2796066529146799
  0.5834540850264460  0.3126478097948038  0.2849865116152017
  0.9178382186123955  0.3126749187959561  0.2851031990149338
  0.5004715164907907  0.3746132996709619  0.3707225668206462
  0.8325461531026903  0.3126092241455467  0.3693774315782363
  0.6681923725748007  0.3125987083118460  0.3695964997106032
  0.7461446755034231  0.3743555208310809  0.4629260817851844
  0.5843827964166195  0.3112584186580563  0.4568503450945300
  0.9179888226378026  0.3119328895052575  0.4544571281456413
  0.8388367372941516  0.3096767085546759  0.5433878020368184
  0.5005268561495839  0.3752755792189859  0.1986611634280138
  0.8344312208057119  0.4376558171846554  0.2039955318659281
  0.6663647324487130  0.4377410139478854  0.2040737161452029
  0.7517093035786928  0.0000103714520918  0.2780902275018917
  0.5831981226068095  0.4375521925372823  0.2855176389509779
  0.9171322337089052  0.4375465155032643  0.2856277498735551
  0.5025522058477563  0.9999971457962573  0.3691390426194374
  0.8305608432114511  0.4373876857912578  0.3704334438032717
  0.6680113648798596  0.4373769510964394  0.3706792690036451
  0.7533370978437191  0.9999581439692733  0.4558526041496620
  0.5801261684916028  0.4374318658102112  0.4547965414513939
  0.9166873050573514  0.4369474721111217  0.4539512011194162
  0.8320591912352242  0.4379214550040942  0.5397853726910498
  0.5003716857867957  0.4999958372273099  0.1988988106775054
  0.8344289774013447  0.5623403166866652  0.2040037601569296
  0.6663747459237328  0.5622512803402628  0.2040796002986340
  0.7501164950460648  0.6248279242415222  0.2795991420764565
  0.5831991538231733  0.5624428916461142  0.2855143351019862
  0.9171184366991696  0.5624516883682134  0.2856310222880865
  0.5004730886861779  0.6253871529129071  0.3707101098322596
  0.8305585509065807  0.5626120530732166  0.3704432507614825
  0.6680306313268645  0.5626257426837853  0.3706753044691098
  0.7461420353398012  0.6256561368879119  0.4629688860604162
  0.5801046050366310  0.5625764546663845  0.4547896055883598
  0.9166835723404603  0.5630602003024450  0.4539584390271045
  0.8321084594156218  0.5620913037400683  0.5397908144085477
  0.5005234966786034  0.6247259906189058  0.1986586276154583
  0.8351378815386639  0.6871130046249547  0.2034583795058964
  0.6662018197764468  0.6871103086405483  0.2034714667049826
  0.7508822452130630  0.7497212337385903  0.2786128504734222
  0.5834614904016746  0.6873535172116760  0.2849782195464101
  0.9178379008330495  0.6873211542397328  0.2851046240579933
  0.5015648692295045  0.7500294899732296  0.3700546037836077
  0.8325348937900756  0.6873905537722464  0.3693733073959038
  0.6682091272096713  0.6873943306864092  0.3696002004579242
  0.7528989625538927  0.7534884768467265  0.4555131283146210
  0.5844327477497728  0.6887532144279547  0.4568433912322121
  0.9179547703196604  0.6880596357557067  0.4544315098009406
  0.8388718642345196  0.6903750764438570  0.5434289572395912
  0.5007460905186250  0.7491983036230607  0.1980373159925080
  0.8345860658742694  0.8121905199872970  0.2031417706342822
  0.6673566845377081  0.8121880365564067  0.2030757833109291
  0.7514945308028516  0.8750250495603353  0.2780134321604919
  0.5839706803755575  0.8123568223923172  0.2842062907844110
  0.9184554766927278  0.8123534332841515  0.2842800205601037
  0.5022234619156407  0.8751909730970340  0.3692408985568179
  0.8340120573573202  0.8127171962019588  0.3688117627646719
  0.6692849679161057  0.8127189104113342  0.3685846711844007
  0.7537886611534432  0.8757098332918787  0.4559439658332849
  0.5853227723361414  0.8140937572445921  0.4537272901414369
  0.9203128824678046  0.8134415878960297  0.4536867713193331
  0.8461706889903198  0.8140752610835449  0.5425841271693059
  0.6733615934536061  0.8060761455017982  0.5416895634169379
  0.5011097391419952  0.8748287562174539  0.1973741640981928
  0.8351704460374521  0.9372694459309727  0.2026396749409969
  0.6670767246391449  0.9372697832004206  0.2025648273064391
  0.7498875816811150  0.4999993386784354  0.2798311448487354
  0.5842990696496813  0.9374875422400919  0.2837991579708472
  0.9188168565710839  0.9374797181072481  0.2837999648257536
  0.4995592757789424  0.5000000947535028  0.3705773321623127
  0.8344953838929712  0.9376150956538041  0.3683701809416888
  0.6697829041406322  0.9376200363337972  0.3682211572228340
  0.7435940513932877  0.4999932717377575  0.4633116160504258
  0.5858534564872429  0.9379162326813315  0.4538535886866484
  0.9210516938258166  0.9378048197516620  0.4534054201846800
  0.8411070834844523  0.9378723352093132  0.5413944251964296
  0.6671367926353895  0.9354077475437776  0.5420187234485709
  0.4068996178772721  0.0000057265690856  0.2320675027187846
  0.2510884903976915  0.0000057736878105  0.1999532419256624
  0.0956777645396230  0.0000044221982236  0.2320707967001283
  0.1564643614297765  0.1249951837492489  0.3157327272069708
  0.0014878840073251  0.1250545238701619  0.3026591230328961
  0.3466333565790265  0.1249586930915854  0.3157952523234044
  0.4035999570280779  0.1246639691065994  0.4018036863112258
  0.2520447511208488  0.1245376124460194  0.3878233537287201
  0.1008936687518585  0.1244793065618452  0.4018894801019712
  0.1541549381609642  0.1249461412821944  0.4868521511102699
  0.0032442213407506  0.1241871535601078  0.4748503621254159
  0.3543998041700931  0.1235121261225913  0.4870601866478381
  0.4128106729359331  0.1219997276693761  0.5661727911630692
  0.2554243220799748  0.1228321505466496  0.5560892350357420
  0.1024767610968240  0.1304101849561974  0.5656598451301207
  0.4068004944960890  0.1252556790625405  0.2322545364378641
  0.2510179949533367  0.1251567221246148  0.1986406666730574
  0.0954663062090475  0.1252486519058991  0.2322318348498555
  0.1560023713546883  0.2501643848423782  0.3164162758476508
  0.0009907110657252  0.2500717872687801  0.3034281210646981
  0.3458553195813394  0.2500538149784717  0.3163942226290430
  0.4023335060084889  0.2498950291945050  0.4022489187740419
  0.2511753350145653  0.2499814632559421  0.3880780457164619
  0.1003833915798324  0.2497041335669294  0.4024347116920097
  0.1548418458991705  0.2451914195703111  0.4851184170518508
  0.0020202394803164  0.2484463937069563  0.4747333598439738
  0.3516414083664543  0.2483107028788325  0.4877667751666692
  0.4150749664262889  0.2473753775845822  0.5657827453663771
  0.2630002030220382  0.2404897367222603  0.5633509534663901
  0.0972264351732690  0.2601946058958688  0.5614168943290423
  0.4064313436340470  0.2504434963822675  0.2329591092015235
  0.2508070964936877  0.2506815943649769  0.1998791067716894
  0.0951892445877220  0.2503962690653267  0.2328760058099064
  0.1552767097331369  0.3751956751703887  0.3173896915918064
  0.0004592096564693  0.3750904936843966  0.3041088599721391
  0.3450420593844896  0.3752122725772011  0.3171725139141941
  0.4008654304061565  0.3744654736482573  0.4024918093878682
  0.2496190088884589  0.3747399793988819  0.3912621574997885
  0.0992291596574546  0.3737270391061074  0.4034164369981070
  0.1425402532377618  0.3764128040715917  0.4883595185009568
  0.9978768750087639  0.3740842274521228  0.4747862106425487
  0.3514678527791872  0.3747315920252134  0.4871867330728819
  0.3923896602496839  0.3745979841777896  0.5712966388757721
  0.2442436323066204  0.3580279492519836  0.5367737650939048
  0.0685093638248162  0.3798110536634383  0.5638488952998628
  0.4060617314983190  0.3752432046521079  0.2335954098884514
  0.2505125986843169  0.3751590768483126  0.2011843289355255
  0.0949047394309375  0.3752141372005013  0.2335848719156814
  0.1565760920961026  0.0000007869622820  0.3156363371342366
  0.0016587734618980  0.9999993383039794  0.3025124284334026
  0.3468910797550535  0.0000050958601605  0.3156875263219732
  0.4039583765966483  0.0000236340453128  0.4017219087297050
  0.2522208485788298  0.9999648792024090  0.3877524758552369
  0.1012258954237524  0.0000213332623531  0.4019301808463140
  0.1537161075708937  0.0000325469144329  0.4871709599754368
  0.0034802384307611  0.0000176749604535  0.4750523229080628
  0.3538300301126824  0.0000004528903830  0.4868066003472507
  0.4123378478344861  0.0001119009716248  0.5646079876185794
  0.2544826211354305  0.0002122540659570  0.5563060240098210
  0.0991005026193506  0.0000902839416739  0.5652601776317923
  0.4058065061956384  0.4999983407164095  0.2337654393087902
  0.2504835296214551  0.4999914486715937  0.2001767135324926
  0.0947722619892986  0.5000008234880156  0.2338168638255809
  0.1552859587552931  0.6248186256063732  0.3173959227960168
  0.0004439010862143  0.6249065385664210  0.3041095610486551
  0.3450372952035750  0.6248007088507634  0.3171789319851825
  0.4008533808276056  0.6255336595010732  0.4025109441332120
  0.2496055171909077  0.6252837493360488  0.3912524097848333
  0.0992297516581857  0.6262686484051585  0.4034455281307814
  0.1425267264655190  0.6236489494180830  0.4883778411883455
  0.9978857204185587  0.6259327103519183  0.4747847640347800
  0.3514626033196890  0.6254718879415293  0.4872122932445748
  0.3918856675142237  0.6257428308705286  0.5710165805131737
  0.2440099359619907  0.6418195977217351  0.5366362591961007
  0.0686433879505373  0.6202528854390721  0.5637349250888164
  0.4060584886703609  0.6247548232168398  0.2335983130324735
  0.2505151629716096  0.6248379768830361  0.2011857282586291
  0.0948988729917843  0.6247815533863488  0.2335927261807527
  0.1560182161624084  0.7498245940748660  0.3164248573566013
  0.0009868711318504  0.7499259267083147  0.3034240623086859
  0.3458298269073552  0.7499452243404932  0.3164089604578493
  0.4023990917284337  0.7501159308171808  0.4022693980238117
  0.2511443464607623  0.7500104998893491  0.3882387683011004
  0.1003862448118511  0.7502880014934874  0.4025008470938403
  0.1545769459860225  0.7551447830899036  0.4851248656423905
  0.0020062306945832  0.7515685097909781  0.4747562043520261
  0.3524126840184607  0.7516450958834469  0.4875801586451090
  0.4150723255187003  0.7526414703003823  0.5654888868893408
  0.2625099323917084  0.7598079773930948  0.5610592545052597
  0.0967782733466720  0.7395167540269938  0.5611328772878323
  0.4064365839446467  0.7495513219766323  0.2329615930091791
  0.2508086780842689  0.7493147663956137  0.1998674476915454
  0.0951870598388922  0.7495994204137872  0.2328802207163818
  0.1564548045242731  0.8750033739044554  0.3157287385030827
  0.0014776878595768  0.8749471032126692  0.3026483767278165
  0.3466384372013849  0.8750221236344728  0.3157987392146424
  0.4035916453637540  0.8753203213900846  0.4018561792933966
  0.2520240361621617  0.8754446769149880  0.3878455016126168
  0.1008708311648192  0.8755397283250517  0.4019104150433819
  0.1539207731981520  0.8751614820722082  0.4866907508975515
  0.0032082640907305  0.8758526229277521  0.4750027845908207
  0.3544837857717980  0.8763603467587160  0.4871656369964512
  0.4130767619524889  0.8783303258461146  0.5660977834521219
  0.2554077637139400  0.8779490495285458  0.5559002405272793
  0.1026282843674480  0.8697570381988413  0.5653768879473873
  0.4068013911229542  0.8747461034906365  0.2322509772589498
  0.2510186717043226  0.8748480671276297  0.1986400899726632
  0.0954621725897979  0.8747592342370041  0.2322283371985137
  0.1551535415695895  0.4999994193764365  0.3177212180182281
  0.0001046842865549  0.4999999003740072  0.3041093023635710
  0.3445229084394867  0.5000002280832874  0.3175064327364296
  0.3998855616978219  0.5000048965202026  0.4022469629692509
  0.2489723973494904  0.5000142134891377  0.3918240066145131
  0.0986675525403840  0.5000160659866779  0.4029605416238198
  0.1402591780425979  0.4999788999874468  0.4895607313004078
  0.9963198290474864  0.4999980893868639  0.4733794289479079
  0.3506970070844275  0.5000190935434148  0.4858544483745320
  0.3943793956234956  0.5000037568728715  0.5684530526242426
  0.2515081629993645  0.4999265234912045  0.5424473286563156
  0.0641926410833307  0.5000964539819392  0.5667229655058819
  0.9068966190282524  0.0000054156018621  0.2320674005383410
  0.7510958098569205  0.0000086395095096  0.1999695835314199
  0.5956755266691047  0.0000117724962081  0.2320710207689771
  0.6564626256496240  0.1249997949634434  0.3157216848089348
  0.5014723191956278  0.1250510851267634  0.3026547840117146
  0.8466212214780384  0.1249749419793460  0.3158000892530453
  0.9035609978133223  0.1246737599708041  0.4018555854703223
  0.7520221745613327  0.1245332891694773  0.3878527521559718
  0.6009005117734674  0.1244623333691877  0.4018935020701164
  0.6538902152470385  0.1248439031168260  0.4866634110157193
  0.5031556558781745  0.1241914036206992  0.4748319845159159
  0.8545055192951523  0.1236711388949274  0.4871503248127524
  0.9129598635824010  0.1216786310044284  0.5661820853883555
  0.7554121375518292  0.1220739587049735  0.5558352883673479
  0.6027481968431871  0.1302174277401136  0.5654456484400043
  0.9068040840578533  0.1252577444144620  0.2322565800875083
  0.7510204541533980  0.1251614484881358  0.1986380459229338
  0.5954657986392036  0.1252427635553275  0.2322283789162611
  0.6560172283336740  0.2501710559224577  0.3164180018625373
  0.5009918489524594  0.2500749459200691  0.3034260661278481
  0.8458474841324488  0.2500558883727493  0.3163945562595813
  0.9023812147259633  0.2498846800497105  0.4022675423927637
  0.7511399580470766  0.2499830109555958  0.3882356663685442
  0.6003827851271808  0.2496849276929254  0.4024977991205176
  0.6545639619453780  0.2448459602851329  0.4851219684672401
  0.5019779431040163  0.2484105952560327  0.4748061971935726
  0.8524351498866451  0.2483453953078936  0.4875840157356421
  0.9150670954536295  0.2473465562593091  0.5655426408247664
  0.7624793801579415  0.2401514319070301  0.5610527319869902
  0.5966452601739576  0.2604732985445537  0.5611245352487444
  0.9064228760192492  0.2504499079801548  0.2329623438501258
  0.7508161989953734  0.2506804989994933  0.1998672294505397
  0.5951974894790908  0.2503972989696024  0.2328723169820535
  0.6552910330166526  0.3751828962308252  0.3173847972121067
  0.5004268760518684  0.3750874924551155  0.3041009415450660
  0.8450327173678502  0.3752004546369534  0.3171784019653714
  0.9008490269134626  0.3744575298127160  0.4025229687493734
  0.7496316299673751  0.3746962202620594  0.3912458908047611
  0.5992355636004518  0.3737250544196939  0.4034238055172281
  0.6425525120952997  0.3762954125683251  0.4883581096875673
  0.4979339400646907  0.3740836081042431  0.4747313129967097
  0.8514103459972659  0.3745475199775612  0.4872068355206096
  0.8919038110868058  0.3742310410429184  0.5710222616761058
  0.7439804710913762  0.3581516822532436  0.5366761207326860
  0.5687022486256339  0.3797880300759857  0.5637683339190502
  0.9060640534450926  0.3752437514086964  0.2336085713615788
  0.7505196573948325  0.3751558093738367  0.2011890504904699
  0.5949047490947379  0.3752117411200686  0.2335850717658943
  0.6565952522584766  0.9999967733972071  0.3156300624575863
  0.5016629505958079  0.0000034026580664  0.3025119337926157
  0.8468730533156332  0.9999986086183696  0.3156803567269435
  0.9039482980020708  0.0000185782049442  0.4017128612752288
  0.7522195253155175  0.0000028067462594  0.3877739136836524
  0.6012396842811540  0.0000194386358530  0.4019111099820236
  0.6536621571962442  0.0000203916164807  0.4871426258158920
  0.5034613158309114  0.9999924289947231  0.4750704458130599
  0.8538768020599434  0.0000051606383948  0.4868296018334632
  0.9125129875136224  0.9999547393969834  0.5645881007623288
  0.7545355341174371  0.0000500031412685  0.5562575958824283
  0.5989523820890099  0.9999985559927751  0.5651919172750723
  0.9058172448265793  0.4999973004373359  0.2337688898916284
  0.7504892843150515  0.4999919121978209  0.2001764056475253
  0.5947774022313439  0.4999949802419437  0.2338062087119752
  0.6552893122763024  0.6248167554146278  0.3173879422190566
  0.5004421396940018  0.6249059254861393  0.3040951709615740
  0.8450400284656752  0.6248014027583437  0.3171809162082795
  0.9008571481201244  0.6255379153898275  0.4025176161963131
  0.7496210681802680  0.6252916082629909  0.3912423536561676
  0.5992287908929157  0.6262818185730765  0.4034158419371892
  0.6425260672552255  0.6236574878620900  0.4883562669055408
  0.4978969812338079  0.6259334083042916  0.4747448883427126
  0.8514380067997891  0.6254630948477882  0.4872120364981569
  0.8919203164327740  0.6257428499366426  0.5710210668905731
  0.7440082005121695  0.6418504889677052  0.5366270270699189
  0.5685914464119222  0.6202490457894214  0.5637408293150870
  0.9060709940664253  0.6247490941236720  0.2335994263889560
  0.7505217004869706  0.6248327557899103  0.2011815691403172
  0.5949026053704358  0.6247786795296832  0.2335776071334479
  0.6560250331742026  0.7498289162921736  0.3164229550771012
  0.5009946071031095  0.7499262053189355  0.3034164495236880
  0.8458321884439641  0.7499473608937777  0.3164057356039223
  0.9024034040436533  0.7501107136047409  0.4022694096058927
  0.7511453678950630  0.7500219209165522  0.3882310429678810
  0.6003738575832855  0.7502962852473729  0.4024928814819049
  0.6545784453539198  0.7551219581104078  0.4851248820148513
  0.5020134162792331  0.7515745626227925  0.4747501395063409
  0.8524070114874078  0.7516247605122146  0.4875801239005142
  0.9150938133029243  0.7526209345611079  0.5654795946762263
  0.7625158346182062  0.7598101810674507  0.5610610251150376
  0.5967643075703961  0.7395386058185167  0.5611122707552170
  0.9064389956896335  0.7495476639950382  0.2329599695981770
  0.7508164305881166  0.7493194284956601  0.1998644162423346
  0.5951892655201405  0.7496015339087805  0.2328713354209029
  0.6564678101566130  0.8750073253377906  0.3157271618992183
  0.5014850419689125  0.8749496393482801  0.3026447643716779
  0.8466256034698034  0.8750221812241818  0.3158017036443468
  0.9035802529944945  0.8753166414948694  0.4018561315392262
  0.7520218065411228  0.8754636978511243  0.3878446779596061
  0.6008763070846115  0.8755359180539415  0.4019060166491428
  0.6538972100713352  0.8751520398166406  0.4866813028902044
  0.5032100006595357  0.8758498240997596  0.4750009570627824
  0.8544979290832515  0.8763320283304239  0.4871476639023058
  0.9130650607788340  0.8782991296513742  0.5660921493458062
  0.7554024812851381  0.8779285618024133  0.5558728036411296
  0.6026403614466673  0.8697624496002945  0.5653862372383358
  0.9068096665592336  0.8747447800136428  0.2322519160047207
  0.7510259754802746  0.8748533690415101  0.1986337723031042
  0.5954614342753572  0.8747621721146785  0.2322273605260321
  0.6551530786516082  0.4999949656364393  0.3177108568289171
  0.5001041806532811  0.4999988446287418  0.3040958741992768
  0.8445303589443327  0.4999971990758141  0.3174988802434200
  0.8998850949800641  0.4999959530525615  0.4022576397565913
  0.7489918813201655  0.4999984379792295  0.3918181044409508
  0.5986649851151853  0.4999999643849407  0.4029471188613698
  0.6402460364174871  0.4999988680236385  0.4895453942532910
  0.4963185781597446  0.4999930548841718  0.4733551085400762
  0.8506735650970043  0.4999975874869023  0.4858855635891643
  0.8944078734380696  0.4999969322971438  0.5684535163511910
  0.7514755366828894  0.5000008293679699  0.5424052523364082
  0.5641334905939388  0.4999561285745955  0.5666737966443307
  0.0061759605390463  0.1275686141034313  0.5425261016550564
  0.0067566078748840  0.2474348786499121  0.5399824038055101
  0.9810795379795891  0.3814140022524057  0.5395408724506510
  0.1319061887155613  0.3294788035755261  0.5425350620013631
  0.0050774912946565  0.0000455341712637  0.5418958850455198
  0.1043974035148736  0.4422213402123276  0.5386309693334681
  0.9810706835388885  0.6185317654961224  0.5395368824611637
  0.1045033748511059  0.5578647528798442  0.5386316094621648
  0.0066636121515558  0.7526055363822053  0.5399417222323706
  0.1320621438152401  0.6706143826572983  0.5425496020071776
  0.0067236344900294  0.8725831038018725  0.5427664377416193
  0.9800988613463062  0.5000369842123149  0.5376149675912032
  0.5073340849792274  0.1276955386189726  0.5426172296748604
  0.5064420841053376  0.2473340805661053  0.5399586135461476
  0.4814273888130671  0.3812540929490638  0.5393643538593693
  0.6320539936693379  0.3294590714707937  0.5425052291961805
  0.5051111495195642  0.0000777377865049  0.5419353821913049
  0.6045824874201742  0.4422056806390486  0.5386770837525461
  0.4811474701826128  0.6185844287042528  0.5395351271211482
  0.6044723787587074  0.5577915677857845  0.5386284001937298
  0.5066392556951769  0.7526142007426415  0.5399460934102862
  0.6320167142903230  0.6705867464911535  0.5425027624437178
  0.5067387548137603  0.8725403712636961  0.5427682079274874
  0.4801190122701726  0.4999857305909501  0.5375269132703622
  0.2500088001867908  0.2664088657030632  0.6189894689591497
 
  0.00000000E+00  0.00000000E+00  0.00000000E+00
  0.00000000E+00  0.00000000E+00  0.00000000E+00
  0.00000000E+00  0.00000000E+00  0.00000000E+00
  0.00000000E+00  0.00000000E+00  0.00000000E+00
  0.00000000E+00  0.00000000E+00  0.00000000E+00
  0.00000000E+00  0.00000000E+00  0.00000000E+00