Ta  N Cu                                
   1.00000000000000     
     9.0548154099999998    0.0000000000000000    0.0000000000000000
     0.0000000000000000   11.6775998899999998    0.0000000000000000
     0.0000000000000000    0.0000000000000000   23.4818170799999990
   Ta   N    Cu
    60    60     2
Selective dynamics
Direct
  0.0000000000000000  0.0000000000000000  0.2546926809530987   F   F   F
  0.6670845899906297  0.1250000003211298  0.2638822399803757   F   F   F
  0.3329153514769843  0.1250000003211298  0.2638822399803757   F   F   F
  0.4999999994478088  0.2499999997859135  0.3618861993156202   F   F   F
  0.1650707596845180  0.1250000003211298  0.3684425577811794   F   F   F
  0.8349292403154820  0.1250000003211298  0.3684425577811794   F   F   F
  0.0000322173292886  0.2499768407395792  0.4798299797439408   T   T   T
  0.6648535406357352  0.1249546915758916  0.4780717281813723   T   T   T
  0.3342817975081754  0.1249835431936965  0.4783154955721938   T   T   T
  0.4995648116323197  0.2499542866907251  0.5910235536676449   T   T   T
  0.1678665694109638  0.1248321367111632  0.5906364509178562   T   T   T
  0.8317888338370777  0.1248285332387466  0.5898399440551817   T   T   T
  0.9997498797486121  0.2499892864467822  0.7015570047060841   T   T   T
  0.6740475844295434  0.1249694131882111  0.7032906542126779   T   T   T
  0.3384175540150290  0.1234795419898844  0.7027584407176204   T   T   T
  0.0000000000000000  0.2499999997859135  0.2546926809530987   F   F   F
  0.6670845899906297  0.3750000001070433  0.2638822399803757   F   F   F
  0.3329153514769843  0.3750000001070433  0.2638822399803757   F   F   F
  0.4999999994478088  0.5000000004281731  0.3618861993156202   F   F   F
  0.1650707596845180  0.3750000001070433  0.3684425577811794   F   F   F
  0.8349292403154820  0.3750000001070433  0.3684425577811794   F   F   F
  0.0000638448683893  0.5001197677259241  0.4798237434755195   T   T   T
  0.6648624186508871  0.3750013163922682  0.4780721268805672   T   T   T
  0.3342868116514135  0.3749701116632679  0.4783136661903520   T   T   T
  0.4994781793304647  0.5003728057964841  0.5910168316501817   T   T   T
  0.1678915194617219  0.3750833752001870  0.5906357398818616   T   T   T
  0.8318041407046208  0.3750714662486527  0.5898403762829192   T   T   T
  0.0009488244063686  0.4991225027939623  0.7017711365394378   T   T   T
  0.6740932102210200  0.3748877641756539  0.7032974756109024   T   T   T
  0.3384757215840581  0.3764893656455420  0.7027435158978838   T   T   T
  0.0000000000000000  0.5000000004281731  0.2546926809530987   F   F   F
  0.6670845899906297  0.6249999998929567  0.2638822399803757   F   F   F
  0.3329153514769843  0.6249999998929567  0.2638822399803757   F   F   F
  0.4999999994478088  0.7500000002140865  0.3618861993156202   F   F   F
  0.1650707596845180  0.6249999998929567  0.3684425577811794   F   F   F
  0.8349292403154820  0.6249999998929567  0.3684425577811794   F   F   F
  0.9999950839526022  0.7499758332231846  0.4798129389377927   T   T   T
  0.6646412701972383  0.6249755836930756  0.4780928629955763   T   T   T
  0.3344506023890469  0.6249723902933654  0.4783140296051418   T   T   T
  0.4995347120678037  0.7499499779208377  0.5909369348826440   T   T   T
  0.1677632674226365  0.6251046457272312  0.5905710962611409   T   T   T
  0.8317150834404938  0.6250787165953861  0.5898502016495335   T   T   T
  0.0022425075808570  0.7499582239537417  0.7021884280856145   T   T   T
  0.6731707401534578  0.6249373028169851  0.7038603322597402   T   T   T
  0.3306771196589069  0.6265605673593486  0.7050843581754439   T   T   T
  0.0000000000000000  0.7500000002140865  0.2546926809530987   F   F   F
  0.6670845899906297  0.8750000005352163  0.2638822399803757   F   F   F
  0.3329153514769843  0.8750000005352163  0.2638822399803757   F   F   F
  0.4999999994478088  0.0000000000000000  0.3618861993156202   F   F   F
  0.1650707596845180  0.8750000005352163  0.3684425577811794   F   F   F
  0.8349292403154820  0.8750000005352163  0.3684425577811794   F   F   F
  0.0000562652786192  0.9998312308205124  0.4798233312312971   T   T   T
  0.6646353131563222  0.8749925070670744  0.4780988034522790   T   T   T
  0.3344442188429300  0.8749813559064956  0.4783161677961510   T   T   T
  0.4994332017650622  0.9995281877418225  0.5910199703614590   T   T   T
  0.1677586690338412  0.8748188624264404  0.5905749584100346   T   T   T
  0.8317027721950621  0.8748198282203660  0.5898519323832009   T   T   T
  0.0008766739267560  0.0008079998301586  0.7017796947285416   T   T   T
  0.6731024905215524  0.8749033920108711  0.7038557778693937   T   T   T
  0.3306077118251010  0.8733717104586997  0.7050904681284470   T   T   T
  0.8141011533980276  0.0000000000000000  0.3013105672926031   F   F   F
  0.4999999994478088  0.0000000000000000  0.2564174481620327   F   F   F
  0.1858988466019724  0.0000000000000000  0.3013105672926031   F   F   F
  0.3088456122590841  0.2499999997859135  0.4099867722441957   F   F   F
  0.0000000000000000  0.2499999997859135  0.3930971035158137   F   F   F
  0.6911543877409159  0.2499999997859135  0.4099867722441957   F   F   F
  0.8021671001780786  0.2499637113833588  0.5219304687509974   T   T   T
  0.4995307804956016  0.2499723238037712  0.5030442106520735   T   T   T
  0.1974381197488813  0.2499716888794831  0.5224408433426717   T   T   T
  0.3029762853085281  0.2499586023834960  0.6343896957401676   T   T   T
  0.9995217656626862  0.2499572573115654  0.6135384517782863   T   T   T
  0.6964568059700346  0.2499377717958276  0.6328658362785983   T   T   T
  0.8078905892573526  0.2499190049523773  0.7401328754973898   T   T   T
  0.5039010445291233  0.2499406350034932  0.7239277923797839   T   T   T
  0.2019350658754507  0.2500569155925583  0.7446627413068994   T   T   T
  0.8141011533980276  0.2499999997859135  0.3013105672926031   F   F   F
  0.4999999994478088  0.2499999997859135  0.2564174481620327   F   F   F
  0.1858988466019724  0.2499999997859135  0.3013105672926031   F   F   F
  0.3088456122590841  0.5000000004281731  0.4099867722441957   F   F   F
  0.0000000000000000  0.5000000004281731  0.3930971035158137   F   F   F
  0.6911543877409159  0.5000000004281731  0.4099867722441957   F   F   F
  0.8021646063046167  0.5000705328467328  0.5219801450979227   T   T   T
  0.4995529220913333  0.4999024552807462  0.5029587999611944   T   T   T
  0.1974499334340836  0.4999971389237062  0.5224854497257019   T   T   T
  0.3033301295389464  0.5008709130589261  0.6343320152753600   T   T   T
  0.9995635063307354  0.5002216229617074  0.6135886058989143   T   T   T
  0.6960030079371645  0.5004458078236274  0.6330420016333729   T   T   T
  0.8084357808343375  0.4997433717590524  0.7402494693617128   T   T   T
  0.5025735120473073  0.4993139491099776  0.7242625478630008   T   T   T
  0.1970072486629256  0.5006327419471694  0.7440291733594723   T   T   T
  0.8141011533980276  0.5000000004281731  0.3013105672926031   F   F   F
  0.4999999994478088  0.5000000004281731  0.2564174481620327   F   F   F
  0.1858988466019724  0.5000000004281731  0.3013105672926031   F   F   F
  0.3088456122590841  0.7500000002140865  0.4099867722441957   F   F   F
  0.0000000000000000  0.7500000002140865  0.3930971035158137   F   F   F
  0.6911543877409159  0.7500000002140865  0.4099867722441957   F   F   F
  0.8021267730221288  0.7499687206177763  0.5220368730902578   T   T   T
  0.4995986913755364  0.7499771675196063  0.5028605347524858   T   T   T
  0.1974123014941686  0.7499699887735456  0.5224962288433487   T   T   T
  0.3039369580884926  0.7499596797252502  0.6338933639480006   T   T   T
  0.9996143066428517  0.7499540946307598  0.6138158946026632   T   T   T
  0.6954761028322963  0.7499369249379785  0.6331685539625593   T   T   T
  0.8080206108539246  0.7499367317982667  0.7403029246864886   T   T   T
  0.5003486309333911  0.7499483651956150  0.7239439510320526   T   T   T
  0.1956473780455335  0.7499479320482367  0.7418193453262544   T   T   T
  0.8141011533980276  0.7500000002140865  0.3013105672926031   F   F   F
  0.4999999994478088  0.7500000002140865  0.2564174481620327   F   F   F
  0.1858988466019724  0.7500000002140865  0.3013105672926031   F   F   F
  0.3088456122590841  0.0000000000000000  0.4099867722441957   F   F   F
  0.0000000000000000  0.0000000000000000  0.3930971035158137   F   F   F
  0.6911543877409159  0.0000000000000000  0.4099867722441957   F   F   F
  0.8021580853093833  0.9998632611873989  0.5219803165689270   T   T   T
  0.4995380979445051  0.0000486326949815  0.5029627429749199   T   T   T
  0.1974392548566587  0.9999438818108789  0.5224884468200187   T   T   T
  0.3032845460925010  0.9990533130740575  0.6343418977608087   T   T   T
  0.9995362407260840  0.9996894447048918  0.6135945587156553   T   T   T
  0.6959619963149519  0.9994294213528928  0.6330380299240812   T   T   T
  0.8083526413978463  0.0001120419171401  0.7402506938443515   T   T   T
  0.5025054335564842  0.0005763835884749  0.7242557579069029   T   T   T
  0.1969192499505857  0.9993355620933864  0.7440413154492194   T   T   T
  0.1363020480650461  0.1252562928665273  0.7929220799724532   T   T   T
  0.1363946501531505  0.3748863892435578  0.7929960761522961   T   T   T
 
  0.00000000E+00  0.00000000E+00  0.00000000E+00
  0.00000000E+00  0.00000000E+00  0.00000000E+00
  0.00000000E+00  0.00000000E+00  0.00000000E+00
  0.00000000E+00  0.00000000E+00  0.00000000E+00
  0.00000000E+00  0.00000000E+00  0.00000000E+00
  0.00000000E+00  0.00000000E+00  0.00000000E+00
  0.00000000E+00  0.00000000E+00  0.00000000E+00
  0.00000000E+00  0.00000000E+00  0.00000000E+00
  0.00000000E+00  0.00000000E+00  0.00000000E+00
  0.00000000E+00  0.00000000E+00  0.00000000E+00
  0.00000000E+00  0.00000000E+00  0.00000000E+00
  0.00000000E+00  0.00000000E+00  0.00000000E+00
  0.00000000E+00  0.00000000E+00  0.00000000E+00
  0.00000000E+00  0.00000000E+00  0.00000000E+00
  0.00000000E+00  0.00000000E+00  0.00000000E+00
  0.00000000E+00  0.00000000E+00  0.00000000E+00
  0.00000000E+00  0.00000000E+00  0.00000000E+00
  0.00000000E+00  0.00000000E+00  0.00000000E+00
  0.00000000E+00  0.00000000E+00  0.00000000E+00
  0.00000000E+00  0.00000000E+00  0.00000000E+00
  0.00000000E+00  0.00000000E+00  0.00000000E+00
  0.00000000E+00  0.00000000E+00  0.00000000E+00
  0.00000000E+00  0.00000000E+00  0.00000000E+00
  0.00000000E+00  0.00000000E+00  0.00000000E+00
  0.00000000E+00  0.00000000E+00  0.00000000E+00
  0.00000000E+00  0.00000000E+00  0.00000000E+00
  0.00000000E+00  0.00000000E+00  0.00000000E+00
  0.00000000E+00  0.00000000E+00  0.00000000E+00
  0.00000000E+00  0.00000000E+00  0.00000000E+00
  0.00000000E+00  0.00000000E+00  0.00000000E+00
  0.00000000E+00  0.00000000E+00  0.00000000E+00
  0.00000000E+00  0.00000000E+00  0.00000000E+00
  0.00000000E+00  0.00000000E+00  0.00000000E+00
  0.00000000E+00  0.00000000E+00  0.00000000E+00
  0.00000000E+00  0.00000000E+00  0.00000000E+00
  0.00000000E+00  0.00000000E+00  0.00000000E+00
  0.00000000E+00  0.00000000E+00  0.00000000E+00
  0.00000000E+00  0.00000000E+00  0.00000000E+00
  0.00000000E+00  0.00000000E+00  0.00000000E+00
  0.00000000E+00  0.00000000E+00  0.00000000E+00
  0.00000000E+00  0.00000000E+00  0.00000000E+00
  0.00000000E+00  0.00000000E+00  0.00000000E+00
  0.00000000E+00  0.00000000E+00  0.00000000E+00
  0.00000000E+00  0.00000000E+00  0.00000000E+00
  0.00000000E+00  0.00000000E+00  0.00000000E+00
  0.00000000E+00  0.00000000E+00  0.00000000E+00
  0.00000000E+00  0.00000000E+00  0.00000000E+00
  0.00000000E+00  0.00000000E+00  0.00000000E+00
  0.00000000E+00  0.00000000E+00  0.00000000E+00
  0.00000000E+00  0.00000000E+00  0.00000000E+00
  0.00000000E+00  0.00000000E+00  0.00000000E+00
  0.00000000E+00  0.00000000E+00  0.00000000E+00
  0.00000000E+00  0.00000000E+00  0.00000000E+00
  0.00000000E+00  0.00000000E+00  0.00000000E+00
  0.00000000E+00  0.00000000E+00  0.00000000E+00
  0.00000000E+00  0.00000000E+00  0.00000000E+00
  0.00000000E+00  0.00000000E+00  0.00000000E+00
  0.00000000E+00  0.00000000E+00  0.00000000E+00
  0.00000000E+00  0.00000000E+00  0.00000000E+00
  0.00000000E+00  0.00000000E+00  0.00000000E+00
  0.00000000E+00  0.00000000E+00  0.00000000E+00
  0.00000000E+00  0.00000000E+00  0.00000000E+00
  0.00000000E+00  0.00000000E+00  0.00000000E+00
  0.00000000E+00  0.00000000E+00  0.00000000E+00
  0.00000000E+00  0.00000000E+00  0.00000000E+00
  0.00000000E+00  0.00000000E+00  0.00000000E+00
  0.00000000E+00  0.00000000E+00  0.00000000E+00
  0.00000000E+00  0.00000000E+00  0.00000000E+00
  0.00000000E+00  0.00000000E+00  0.00000000E+00
  0.00000000E+00  0.00000000E+00  0.00000000E+00
  0.00000000E+00  0.00000000E+00  0.00000000E+00
  0.00000000E+00  0.00000000E+00  0.00000000E+00
  0.00000000E+00  0.00000000E+00  0.00000000E+00
  0.00000000E+00  0.00000000E+00  0.00000000E+00
  0.00000000E+00  0.00000000E+00  0.00000000E+00
  0.00000000E+00  0.00000000E+00  0.00000000E+00
  0.00000000E+00  0.00000000E+00  0.00000000E+00
  0.00000000E+00  0.00000000E+00  0.00000000E+00
  0.00000000E+00  0.00000000E+00  0.00000000E+00
  0.00000000E+00  0.00000000E+00  0.00000000E+00
  0.00000000E+00  0.00000000E+00  0.00000000E+00
  0.00000000E+00  0.00000000E+00  0.00000000E+00
  0.00000000E+00  0.00000000E+00  0.00000000E+00
  0.00000000E+00  0.00000000E+00  0.00000000E+00
  0.00000000E+00  0.00000000E+00  0.00000000E+00
  0.00000000E+00  0.00000000E+00  0.00000000E+00
  0.00000000E+00  0.00000000E+00  0.00000000E+00
  0.00000000E+00  0.00000000E+00  0.00000000E+00
  0.00000000E+00  0.00000000E+00  0.00000000E+00
  0.00000000E+00  0.00000000E+00  0.00000000E+00
  0.00000000E+00  0.00000000E+00  0.00000000E+00
  0.00000000E+00  0.00000000E+00  0.00000000E+00
  0.00000000E+00  0.00000000E+00  0.00000000E+00
  0.00000000E+00  0.00000000E+00  0.00000000E+00
  0.00000000E+00  0.00000000E+00  0.00000000E+00
  0.00000000E+00  0.00000000E+00  0.00000000E+00
  0.00000000E+00  0.00000000E+00  0.00000000E+00
  0.00000000E+00  0.00000000E+00  0.00000000E+00
  0.00000000E+00  0.00000000E+00  0.00000000E+00
  0.00000000E+00  0.00000000E+00  0.00000000E+00
  0.00000000E+00  0.00000000E+00  0.00000000E+00
  0.00000000E+00  0.00000000E+00  0.00000000E+00
  0.00000000E+00  0.00000000E+00  0.00000000E+00
  0.00000000E+00  0.00000000E+00  0.00000000E+00
  0.00000000E+00  0.00000000E+00  0.00000000E+00
  0.00000000E+00  0.00000000E+00  0.00000000E+00
  0.00000000E+00  0.00000000E+00  0.00000000E+00
  0.00000000E+00  0.00000000E+00  0.00000000E+00
  0.00000000E+00  0.00000000E+00  0.00000000E+00
  0.00000000E+00  0.00000000E+00  0.00000000E+00
  0.00000000E+00  0.00000000E+00  0.00000000E+00
  0.00000000E+00  0.00000000E+00  0.00000000E+00
  0.00000000E+00  0.00000000E+00  0.00000000E+00
  0.00000000E+00  0.00000000E+00  0.00000000E+00
  0.00000000E+00  0.00000000E+00  0.00000000E+00
  0.00000000E+00  0.00000000E+00  0.00000000E+00
  0.00000000E+00  0.00000000E+00  0.00000000E+00
  0.00000000E+00  0.00000000E+00  0.00000000E+00
  0.00000000E+00  0.00000000E+00  0.00000000E+00
  0.00000000E+00  0.00000000E+00  0.00000000E+00
  0.00000000E+00  0.00000000E+00  0.00000000E+00
  0.00000000E+00  0.00000000E+00  0.00000000E+00
