Mo  S Ru                                
   1.00000000000000     
    15.9214998300000001    0.0000000000000000    0.0000000000000000
    -7.9622501300000001   13.7910221699999997    0.0000000000000000
     0.0000000000000000    0.0000000000000000   13.5821998300000004
   Mo   S    Ru
    25    50     4
Direct
  0.1316954782105313  0.0651415522272032  0.6792825241058367
  0.1317715675335904  0.2642744213565962  0.6810892924722864
  0.1322539093346720  0.4647360627376713  0.6810162059009457
  0.1320568951358467  0.6645523116717769  0.6795074451376379
  0.1319110924890126  0.8643145690795748  0.6784583460592302
  0.3311097908190490  0.0626826279072148  0.6788930154420427
  0.3324005699417043  0.2633969119180932  0.6781646877823633
  0.3328961547571510  0.4654850892232432  0.6812694039863914
  0.3322733703778127  0.6650232835853487  0.6792355886092167
  0.3319675587966202  0.8643254212984033  0.6784596553735227
  0.5329991511766963  0.0651648719451927  0.6793622755871667
  0.5304930067446563  0.2634088388006788  0.6782511446214698
  0.5353287250305101  0.4711345696460256  0.6771501343529351
  0.5325610328803734  0.6665379549529291  0.6780216858438166
  0.5323983110753829  0.8653674135573937  0.6782723047424355
  0.7324531467131976  0.0653398406946692  0.6798050932003292
  0.7320226102795004  0.2642756293918609  0.6812073151852758
  0.7321105434294140  0.4654640257904177  0.6813749170898333
  0.7335305851950338  0.6665250799301035  0.6780529724894322
  0.7327214620282874  0.8658748055845180  0.6781479504208647
  0.9324418371428749  0.0653359098214850  0.6797729299473048
  0.9323749515758166  0.2652162011570951  0.6810531744728152
  0.9320234717981180  0.4647283223672858  0.6810674035019275
  0.9322996295315136  0.6650055645509667  0.6792876676186737
  0.9325249317190440  0.8653498733132210  0.6782727166499356
  0.0658543164483092  0.1324447053556028  0.5647392401659630
  0.0653127256085781  0.1309919971783557  0.7955427462915097
  0.0656517231758755  0.3315384394806031  0.5660381657070417
  0.0656131297018021  0.3315381984484773  0.7963634846393575
  0.0650298561814537  0.5305401488317756  0.5655485937214664
  0.0657877289839561  0.5319825732924812  0.7956807687651235
  0.0652268417683217  0.7306820866194954  0.5638569814320036
  0.0655730231265892  0.7316660393740690  0.7942171399956379
  0.0660549726953974  0.9321364121222189  0.5634917839129656
  0.0651770165489367  0.9310767462342469  0.7935221135446184
  0.2659034424797042  0.1310914500690146  0.5646809266282915
  0.2633320329854030  0.1258422332343869  0.8003247154238053
  0.2656502182350877  0.3313853071264816  0.5669279793243689
  0.2664164854397484  0.3312816530969300  0.7995937363437520
  0.2650718373720125  0.5306876045949309  0.5654875462198561
  0.2661094704286739  0.5325563637251989  0.7955047420922341
  0.2650178098139619  0.7307078297259366  0.5638381430929513
  0.2656779423566391  0.7316644321421890  0.7941980057059510
  0.2649539460958508  0.9303460874114577  0.5626233138380172
  0.2644022977694434  0.9292494604343773  0.7937608262467180
  0.4647714231039330  0.1311191692272473  0.5647405629619229
  0.4619931768773284  0.1258401875590778  0.8003761958077362
  0.4665088346069268  0.3334566514554425  0.5649169986829961
  0.4718054719795504  0.3442169100482602  0.7941149085038433
  0.4642867212607058  0.5331931620331289  0.5627432018757901
  0.4672461117994544  0.5349676055049599  0.7940325067097760
  0.4650836714163304  0.7322325598093826  0.5631583468927275
  0.4660684811240117  0.7326809738528013  0.7936990527474777
  0.4656739549500770  0.9321928853430776  0.5635235541904322
  0.4654581748010926  0.9310624218865442  0.7935509288655851
  0.6661465224869687  0.1324778358066041  0.5648237893249259
  0.6652416808484176  0.1309702110812268  0.7956359592692763
  0.6652664608424246  0.3313744944582595  0.5670418179895833
  0.6643217614781989  0.3312601219680431  0.7997407550582878
  0.6684739467078131  0.5331662054715238  0.5627947101364441
  0.6672261973109528  0.5349625632883033  0.7940868939277621
  0.6661707733147537  0.7327395997217891  0.5628490778219799
  0.6662367643800664  0.7329175433057742  0.7929545470294102
  0.6661077072664057  0.9329474177854209  0.5635230431668958
  0.6655327936538882  0.9314854365207594  0.7937718038873953
  0.8661028996750346  0.1326740525064380  0.5651114879011203
  0.8654386469714552  0.1312949121328302  0.7953062855416775
  0.8653709682429422  0.3315262153594674  0.5661023680152013
  0.8654937777783189  0.3315315726213797  0.7964277710974130
  0.8651252227027157  0.5306537552661794  0.5655685080112960
  0.8660039816544796  0.5325458736155682  0.7955823135593150
  0.8667039437941710  0.7321932168299981  0.5631925192607241
  0.8661733119686374  0.7326835462197536  0.7937318325968832
  0.8664001050269903  0.9329209296591898  0.5635140468183621
  0.8655324298991616  0.9314936273470948  0.7937609937164680
  0.3453154513000953  0.2641396884566305  0.8910463739458834
  0.5180825939732259  0.2641387070814218  0.8912205993913531
  0.5083479334962036  0.2844859220296243  0.0577298861580147
  0.3750307850268655  0.2845112076525993  0.0576328535104054
 
  0.00000000E+00  0.00000000E+00  0.00000000E+00
  0.00000000E+00  0.00000000E+00  0.00000000E+00
  0.00000000E+00  0.00000000E+00  0.00000000E+00
  0.00000000E+00  0.00000000E+00  0.00000000E+00
  0.00000000E+00  0.00000000E+00  0.00000000E+00
  0.00000000E+00  0.00000000E+00  0.00000000E+00
  0.00000000E+00  0.00000000E+00  0.00000000E+00
  0.00000000E+00  0.00000000E+00  0.00000000E+00
  0.00000000E+00  0.00000000E+00  0.00000000E+00
  0.00000000E+00  0.00000000E+00  0.00000000E+00
  0.00000000E+00  0.00000000E+00  0.00000000E+00
  0.00000000E+00  0.00000000E+00  0.00000000E+00
  0.00000000E+00  0.00000000E+00  0.00000000E+00
  0.00000000E+00  0.00000000E+00  0.00000000E+00
  0.00000000E+00  0.00000000E+00  0.00000000E+00
  0.00000000E+00  0.00000000E+00  0.00000000E+00
  0.00000000E+00  0.00000000E+00  0.00000000E+00
  0.00000000E+00  0.00000000E+00  0.00000000E+00
  0.00000000E+00  0.00000000E+00  0.00000000E+00
  0.00000000E+00  0.00000000E+00  0.00000000E+00
  0.00000000E+00  0.00000000E+00  0.00000000E+00
  0.00000000E+00  0.00000000E+00  0.00000000E+00
  0.00000000E+00  0.00000000E+00  0.00000000E+00
  0.00000000E+00  0.00000000E+00  0.00000000E+00
  0.00000000E+00  0.00000000E+00  0.00000000E+00
  0.00000000E+00  0.00000000E+00  0.00000000E+00
  0.00000000E+00  0.00000000E+00  0.00000000E+00
  0.00000000E+00  0.00000000E+00  0.00000000E+00
  0.00000000E+00  0.00000000E+00  0.00000000E+00
  0.00000000E+00  0.00000000E+00  0.00000000E+00
  0.00000000E+00  0.00000000E+00  0.00000000E+00
  0.00000000E+00  0.00000000E+00  0.00000000E+00
  0.00000000E+00  0.00000000E+00  0.00000000E+00
  0.00000000E+00  0.00000000E+00  0.00000000E+00
  0.00000000E+00  0.00000000E+00  0.00000000E+00
  0.00000000E+00  0.00000000E+00  0.00000000E+00
  0.00000000E+00  0.00000000E+00  0.00000000E+00
  0.00000000E+00  0.00000000E+00  0.00000000E+00
  0.00000000E+00  0.00000000E+00  0.00000000E+00
  0.00000000E+00  0.00000000E+00  0.00000000E+00
  0.00000000E+00  0.00000000E+00  0.00000000E+00
  0.00000000E+00  0.00000000E+00  0.00000000E+00
  0.00000000E+00  0.00000000E+00  0.00000000E+00
  0.00000000E+00  0.00000000E+00  0.00000000E+00
  0.00000000E+00  0.00000000E+00  0.00000000E+00
  0.00000000E+00  0.00000000E+00  0.00000000E+00
  0.00000000E+00  0.00000000E+00  0.00000000E+00
  0.00000000E+00  0.00000000E+00  0.00000000E+00
  0.00000000E+00  0.00000000E+00  0.00000000E+00
  0.00000000E+00  0.00000000E+00  0.00000000E+00
  0.00000000E+00  0.00000000E+00  0.00000000E+00
  0.00000000E+00  0.00000000E+00  0.00000000E+00
  0.00000000E+00  0.00000000E+00  0.00000000E+00
  0.00000000E+00  0.00000000E+00  0.00000000E+00
  0.00000000E+00  0.00000000E+00  0.00000000E+00
  0.00000000E+00  0.00000000E+00  0.00000000E+00
  0.00000000E+00  0.00000000E+00  0.00000000E+00
  0.00000000E+00  0.00000000E+00  0.00000000E+00
  0.00000000E+00  0.00000000E+00  0.00000000E+00
  0.00000000E+00  0.00000000E+00  0.00000000E+00
  0.00000000E+00  0.00000000E+00  0.00000000E+00
  0.00000000E+00  0.00000000E+00  0.00000000E+00
  0.00000000E+00  0.00000000E+00  0.00000000E+00
  0.00000000E+00  0.00000000E+00  0.00000000E+00
  0.00000000E+00  0.00000000E+00  0.00000000E+00
  0.00000000E+00  0.00000000E+00  0.00000000E+00
  0.00000000E+00  0.00000000E+00  0.00000000E+00
  0.00000000E+00  0.00000000E+00  0.00000000E+00
  0.00000000E+00  0.00000000E+00  0.00000000E+00
  0.00000000E+00  0.00000000E+00  0.00000000E+00
  0.00000000E+00  0.00000000E+00  0.00000000E+00
  0.00000000E+00  0.00000000E+00  0.00000000E+00
  0.00000000E+00  0.00000000E+00  0.00000000E+00
  0.00000000E+00  0.00000000E+00  0.00000000E+00
  0.00000000E+00  0.00000000E+00  0.00000000E+00
  0.00000000E+00  0.00000000E+00  0.00000000E+00
  0.00000000E+00  0.00000000E+00  0.00000000E+00
  0.00000000E+00  0.00000000E+00  0.00000000E+00
  0.00000000E+00  0.00000000E+00  0.00000000E+00
