Ta  N Ru Cu                             
   1.00000000000000     
     9.0548154099999998    0.0000000000000000    0.0000000000000000
     0.0000000000000000   11.6775998899999998    0.0000000000000000
     0.0000000000000000    0.0000000000000000   23.4818170799999990
   Ta   N    Ru   Cu
    60    60    16     1
Selective dynamics
Direct
  0.0000000000000000  0.0000000000000000  0.2546926809530987   F   F   F
  0.6670845899906297  0.1250000003211298  0.2638822399803757   F   F   F
  0.3329153514769843  0.1250000003211298  0.2638822399803757   F   F   F
  0.4999999994478088  0.2499999997859135  0.3618861993156202   F   F   F
  0.1650707596845180  0.1250000003211298  0.3684425577811794   F   F   F
  0.8349292403154820  0.1250000003211298  0.3684425577811794   F   F   F
  0.0007201105098097  0.2500070680266512  0.4799139850427555   T   T   T
  0.6642752516590764  0.1249543179335933  0.4779663669574823   T   T   T
  0.3353802505894602  0.1249827313150590  0.4779625724969995   T   T   T
  0.4987254404740354  0.2500037873540394  0.5903815702400950   T   T   T
  0.1689592394920700  0.1250385548017761  0.5901225362586306   T   T   T
  0.8325128958539840  0.1249083862215475  0.5894573443176119   T   T   T
  0.9938652323569610  0.2502113089366770  0.6993487307257544   T   T   T
  0.6652238974210876  0.1246125273512795  0.7013791225568263   T   T   T
  0.3304362205628494  0.1251032759810911  0.7048739929865167   T   T   T
  0.0000000000000000  0.2499999997859135  0.2546926809530987   F   F   F
  0.6670845899906297  0.3750000001070433  0.2638822399803757   F   F   F
  0.3329153514769843  0.3750000001070433  0.2638822399803757   F   F   F
  0.4999999994478088  0.5000000004281731  0.3618861993156202   F   F   F
  0.1650707596845180  0.3750000001070433  0.3684425577811794   F   F   F
  0.8349292403154820  0.3750000001070433  0.3684425577811794   F   F   F
  0.0008295082934455  0.4999174947129293  0.4799182763613572   T   T   T
  0.6643921507336217  0.3749617641960087  0.4780109197159293   T   T   T
  0.3354480710035716  0.3749805860221490  0.4779840635606799   T   T   T
  0.4989794723957952  0.4999051999323618  0.5903495010795914   T   T   T
  0.1688590550528577  0.3750761699722012  0.5903153242344691   T   T   T
  0.8327292025636599  0.3749554024718607  0.5891863919693135   T   T   T
  0.9960699381873787  0.4989841046675188  0.6994935401330393   T   T   T
  0.6660756195445882  0.3750824733879393  0.7003257279490730   T   T   T
  0.3287776362281081  0.3751901709744889  0.7055784830842851   T   T   T
  0.0000000000000000  0.5000000004281731  0.2546926809530987   F   F   F
  0.6670845899906297  0.6249999998929567  0.2638822399803757   F   F   F
  0.3329153514769843  0.6249999998929567  0.2638822399803757   F   F   F
  0.4999999994478088  0.7500000002140865  0.3618861993156202   F   F   F
  0.1650707596845180  0.6249999998929567  0.3684425577811794   F   F   F
  0.8349292403154820  0.6249999998929567  0.3684425577811794   F   F   F
  0.0008068628984498  0.7500512562117145  0.4799207827310151   T   T   T
  0.6643465485120881  0.6249712831327223  0.4779456768419864   T   T   T
  0.3353707730077270  0.6249918220476854  0.4779494737528144   T   T   T
  0.4990420939237863  0.7501183036973238  0.5903618220378970   T   T   T
  0.1692567651376872  0.6250382136011572  0.5901743732353842   T   T   T
  0.8328507807818296  0.6249410028364014  0.5893324860103721   T   T   T
  0.9961724790651546  0.7503672182275456  0.6992914550083266   T   T   T
  0.6660845862580345  0.6247334734464965  0.7014181042030839   T   T   T
  0.3332896515591745  0.6251857688346596  0.7044348432539760   T   T   T
  0.0000000000000000  0.7500000002140865  0.2546926809530987   F   F   F
  0.6670845899906297  0.8750000005352163  0.2638822399803757   F   F   F
  0.3329153514769843  0.8750000005352163  0.2638822399803757   F   F   F
  0.4999999994478088  0.0000000000000000  0.3618861993156202   F   F   F
  0.1650707596845180  0.8750000005352163  0.3684425577811794   F   F   F
  0.8349292403154820  0.8750000005352163  0.3684425577811794   F   F   F
  0.0007013470252287  0.9999169878530887  0.4799299826798973   T   T   T
  0.6643371215760148  0.8749616271604632  0.4780036545196238   T   T   T
  0.3354108809109735  0.8750114349650159  0.4779850617032770   T   T   T
  0.4987482939044464  0.9999128206338546  0.5904049980767746   T   T   T
  0.1689324873053052  0.8750902462605410  0.5903290522366902   T   T   T
  0.8327087945192347  0.8749189517942851  0.5891911880142537   T   T   T
  0.9944429251519266  0.9992128293335706  0.6993735580249021   T   T   T
  0.6660096194877114  0.8741127860758117  0.7005281137365920   T   T   T
  0.3288394948413024  0.8753069321920395  0.7056277529472519   T   T   T
  0.8141011533980276  0.0000000000000000  0.3013105672926031   F   F   F
  0.4999999994478088  0.0000000000000000  0.2564174481620327   F   F   F
  0.1858988466019724  0.0000000000000000  0.3013105672926031   F   F   F
  0.3088456122590841  0.2499999997859135  0.4099867722441957   F   F   F
  0.0000000000000000  0.2499999997859135  0.3930971035158137   F   F   F
  0.6911543877409159  0.2499999997859135  0.4099867722441957   F   F   F
  0.8016156880212260  0.2498786064806744  0.5216389779283397   T   T   T
  0.4997356382858586  0.2499663002988928  0.5026970942850481   T   T   T
  0.1991720139125735  0.2500799999988534  0.5222604111551179   T   T   T
  0.3038669333132345  0.2502700417538594  0.6350700634667810   T   T   T
  0.9999141762248873  0.2500653849294572  0.6114981890807049   T   T   T
  0.6956173909546982  0.2495062036122409  0.6329563251304611   T   T   T
  0.8020538643806384  0.2538132795772681  0.7444459166203499   T   T   T
  0.5019866497200988  0.2504854608700627  0.7253831189402312   T   T   T
  0.1901499844475718  0.2492006170249686  0.7384570641862025   T   T   T
  0.8141011533980276  0.2499999997859135  0.3013105672926031   F   F   F
  0.4999999994478088  0.2499999997859135  0.2564174481620327   F   F   F
  0.1858988466019724  0.2499999997859135  0.3013105672926031   F   F   F
  0.3088456122590841  0.5000000004281731  0.4099867722441957   F   F   F
  0.0000000000000000  0.5000000004281731  0.3930971035158137   F   F   F
  0.6911543877409159  0.5000000004281731  0.4099867722441957   F   F   F
  0.8017067909175043  0.5000115271198544  0.5216074606191058   T   T   T
  0.4997706547992763  0.4999832883749685  0.5026803761433810   T   T   T
  0.1992878145156505  0.4999029037198991  0.5222735295615301   T   T   T
  0.3043632937677045  0.4998617044193290  0.6350226061198184   T   T   T
  0.0001095175101103  0.4998889612745272  0.6116555666417632   T   T   T
  0.6957582169773259  0.5006128645249592  0.6329535671687736   T   T   T
  0.8032130965204162  0.4997364942477160  0.7440339423860234   T   T   T
  0.5025322640541938  0.4989894472150349  0.7252536752344586   T   T   T
  0.1922333338849579  0.5025077883875471  0.7390329024656910   T   T   T
  0.8141011533980276  0.5000000004281731  0.3013105672926031   F   F   F
  0.4999999994478088  0.5000000004281731  0.2564174481620327   F   F   F
  0.1858988466019724  0.5000000004281731  0.3013105672926031   F   F   F
  0.3088456122590841  0.7500000002140865  0.4099867722441957   F   F   F
  0.0000000000000000  0.7500000002140865  0.3930971035158137   F   F   F
  0.6911543877409159  0.7500000002140865  0.4099867722441957   F   F   F
  0.8016348078218140  0.7499106671738857  0.5216207553729577   T   T   T
  0.4997701397952635  0.7499712852684257  0.5026792519155835   T   T   T
  0.1992902253645758  0.7501322170511908  0.5222645255937485   T   T   T
  0.3044839448355413  0.7504422198807509  0.6350419723292114   T   T   T
  0.0000784117359412  0.7500631179207543  0.6115214425472697   T   T   T
  0.6957905560868676  0.7494047949467992  0.6330378326631525   T   T   T
  0.8042374735565091  0.7498155018695403  0.7440907773643843   T   T   T
  0.5029954150803555  0.7514863536243670  0.7261335621674115   T   T   T
  0.1926688429676249  0.7483286431992546  0.7385608609779653   T   T   T
  0.8141011533980276  0.7500000002140865  0.3013105672926031   F   F   F
  0.4999999994478088  0.7500000002140865  0.2564174481620327   F   F   F
  0.1858988466019724  0.7500000002140865  0.3013105672926031   F   F   F
  0.3088456122590841  0.0000000000000000  0.4099867722441957   F   F   F
  0.0000000000000000  0.0000000000000000  0.3930971035158137   F   F   F
  0.6911543877409159  0.0000000000000000  0.4099867722441957   F   F   F
  0.8015599832544019 -0.0000329085505872  0.5216439218744608   T   T   T
  0.4997174918473467 -0.0000362803827479  0.5027024348153863   T   T   T
  0.1991779122096869 -0.0000516015773923  0.5222671761437165   T   T   T
  0.3039566660294836  0.9999645156539948  0.6351604464525398   T   T   T
  0.9999421518131126  0.9998185500313360  0.6114900781813922   T   T   T
  0.6954849291881715  0.0002205992849109  0.6330589309584328   T   T   T
  0.8027876212853268  0.9957612732371478  0.7443655676817319   T   T   T
  0.5018028322797968  0.0000933499346716  0.7254417879474166   T   T   T
  0.1897321606081395  0.0018777111467027  0.7389459467713927   T   T   T
  0.1250592190898121  0.0206649644352007  0.8163663928354409   T   T   T
  0.5618659202959774  0.0015342461562002  0.8065559759132290   T   T   T
  0.8692171402642919  0.1240367544264060  0.7973623890754878   T   T   T
  0.1380880848102245  0.5210937920179292  0.8174120977991056   T   T   T
  0.5574481316306164  0.4840424361631113  0.8070426660632612   T   T   T
  0.8853515343779358  0.6238380158005236  0.7986560368345007   T   T   T
  0.1242587611868371  0.2425404861337521  0.8160833818288895   T   T   T
  0.5612851676861451  0.2578699370631477  0.8064343676806816   T   T   T
  0.8854066365038233  0.3754406518209682  0.7994880734873745   T   T   T
  0.1350028848140759  0.7412226193150254  0.8169469896975436   T   T   T
  0.5560332154934128  0.7755099300672457  0.8080911698460077   T   T   T
  0.8833556124988733  0.8732552434960543  0.7996039699554882   T   T   T
  0.3349059757095499  0.8764856092647814  0.8376710877284778   T   T   T
  0.3769410862319081  0.6217261894478676  0.8422028546147790   T   T   T
  0.3380015047012050  0.3672297967008429  0.8376800145262392   T   T   T
  0.3613613213243445  0.1225672238841041  0.8383563185513428   T   T   T
  0.6795767631388938  0.6311019222077552  0.8709894667254938   T   T   T
 
  0.00000000E+00  0.00000000E+00  0.00000000E+00
  0.00000000E+00  0.00000000E+00  0.00000000E+00
  0.00000000E+00  0.00000000E+00  0.00000000E+00
  0.00000000E+00  0.00000000E+00  0.00000000E+00
  0.00000000E+00  0.00000000E+00  0.00000000E+00
  0.00000000E+00  0.00000000E+00  0.00000000E+00
  0.00000000E+00  0.00000000E+00  0.00000000E+00
  0.00000000E+00  0.00000000E+00  0.00000000E+00
  0.00000000E+00  0.00000000E+00  0.00000000E+00
  0.00000000E+00  0.00000000E+00  0.00000000E+00
  0.00000000E+00  0.00000000E+00  0.00000000E+00
  0.00000000E+00  0.00000000E+00  0.00000000E+00
  0.00000000E+00  0.00000000E+00  0.00000000E+00
  0.00000000E+00  0.00000000E+00  0.00000000E+00
  0.00000000E+00  0.00000000E+00  0.00000000E+00
  0.00000000E+00  0.00000000E+00  0.00000000E+00
  0.00000000E+00  0.00000000E+00  0.00000000E+00
  0.00000000E+00  0.00000000E+00  0.00000000E+00
  0.00000000E+00  0.00000000E+00  0.00000000E+00
  0.00000000E+00  0.00000000E+00  0.00000000E+00
  0.00000000E+00  0.00000000E+00  0.00000000E+00
  0.00000000E+00  0.00000000E+00  0.00000000E+00
  0.00000000E+00  0.00000000E+00  0.00000000E+00
  0.00000000E+00  0.00000000E+00  0.00000000E+00
  0.00000000E+00  0.00000000E+00  0.00000000E+00
  0.00000000E+00  0.00000000E+00  0.00000000E+00
  0.00000000E+00  0.00000000E+00  0.00000000E+00
  0.00000000E+00  0.00000000E+00  0.00000000E+00
  0.00000000E+00  0.00000000E+00  0.00000000E+00
  0.00000000E+00  0.00000000E+00  0.00000000E+00
  0.00000000E+00  0.00000000E+00  0.00000000E+00
  0.00000000E+00  0.00000000E+00  0.00000000E+00
  0.00000000E+00  0.00000000E+00  0.00000000E+00
  0.00000000E+00  0.00000000E+00  0.00000000E+00
  0.00000000E+00  0.00000000E+00  0.00000000E+00
  0.00000000E+00  0.00000000E+00  0.00000000E+00
  0.00000000E+00  0.00000000E+00  0.00000000E+00
  0.00000000E+00  0.00000000E+00  0.00000000E+00
  0.00000000E+00  0.00000000E+00  0.00000000E+00
  0.00000000E+00  0.00000000E+00  0.00000000E+00
  0.00000000E+00  0.00000000E+00  0.00000000E+00
  0.00000000E+00  0.00000000E+00  0.00000000E+00
  0.00000000E+00  0.00000000E+00  0.00000000E+00
  0.00000000E+00  0.00000000E+00  0.00000000E+00
  0.00000000E+00  0.00000000E+00  0.00000000E+00
  0.00000000E+00  0.00000000E+00  0.00000000E+00
  0.00000000E+00  0.00000000E+00  0.00000000E+00
  0.00000000E+00  0.00000000E+00  0.00000000E+00
  0.00000000E+00  0.00000000E+00  0.00000000E+00
  0.00000000E+00  0.00000000E+00  0.00000000E+00
  0.00000000E+00  0.00000000E+00  0.00000000E+00
  0.00000000E+00  0.00000000E+00  0.00000000E+00
  0.00000000E+00  0.00000000E+00  0.00000000E+00
  0.00000000E+00  0.00000000E+00  0.00000000E+00
  0.00000000E+00  0.00000000E+00  0.00000000E+00
  0.00000000E+00  0.00000000E+00  0.00000000E+00
  0.00000000E+00  0.00000000E+00  0.00000000E+00
  0.00000000E+00  0.00000000E+00  0.00000000E+00
  0.00000000E+00  0.00000000E+00  0.00000000E+00
  0.00000000E+00  0.00000000E+00  0.00000000E+00
  0.00000000E+00  0.00000000E+00  0.00000000E+00
  0.00000000E+00  0.00000000E+00  0.00000000E+00
  0.00000000E+00  0.00000000E+00  0.00000000E+00
  0.00000000E+00  0.00000000E+00  0.00000000E+00
  0.00000000E+00  0.00000000E+00  0.00000000E+00
  0.00000000E+00  0.00000000E+00  0.00000000E+00
  0.00000000E+00  0.00000000E+00  0.00000000E+00
  0.00000000E+00  0.00000000E+00  0.00000000E+00
  0.00000000E+00  0.00000000E+00  0.00000000E+00
  0.00000000E+00  0.00000000E+00  0.00000000E+00
  0.00000000E+00  0.00000000E+00  0.00000000E+00
  0.00000000E+00  0.00000000E+00  0.00000000E+00
  0.00000000E+00  0.00000000E+00  0.00000000E+00
  0.00000000E+00  0.00000000E+00  0.00000000E+00
  0.00000000E+00  0.00000000E+00  0.00000000E+00
  0.00000000E+00  0.00000000E+00  0.00000000E+00
  0.00000000E+00  0.00000000E+00  0.00000000E+00
  0.00000000E+00  0.00000000E+00  0.00000000E+00
  0.00000000E+00  0.00000000E+00  0.00000000E+00
  0.00000000E+00  0.00000000E+00  0.00000000E+00
  0.00000000E+00  0.00000000E+00  0.00000000E+00
  0.00000000E+00  0.00000000E+00  0.00000000E+00
  0.00000000E+00  0.00000000E+00  0.00000000E+00
  0.00000000E+00  0.00000000E+00  0.00000000E+00
  0.00000000E+00  0.00000000E+00  0.00000000E+00
  0.00000000E+00  0.00000000E+00  0.00000000E+00
  0.00000000E+00  0.00000000E+00  0.00000000E+00
  0.00000000E+00  0.00000000E+00  0.00000000E+00
  0.00000000E+00  0.00000000E+00  0.00000000E+00
  0.00000000E+00  0.00000000E+00  0.00000000E+00
  0.00000000E+00  0.00000000E+00  0.00000000E+00
  0.00000000E+00  0.00000000E+00  0.00000000E+00
  0.00000000E+00  0.00000000E+00  0.00000000E+00
  0.00000000E+00  0.00000000E+00  0.00000000E+00
  0.00000000E+00  0.00000000E+00  0.00000000E+00
  0.00000000E+00  0.00000000E+00  0.00000000E+00
  0.00000000E+00  0.00000000E+00  0.00000000E+00
  0.00000000E+00  0.00000000E+00  0.00000000E+00
  0.00000000E+00  0.00000000E+00  0.00000000E+00
  0.00000000E+00  0.00000000E+00  0.00000000E+00
  0.00000000E+00  0.00000000E+00  0.00000000E+00
  0.00000000E+00  0.00000000E+00  0.00000000E+00
  0.00000000E+00  0.00000000E+00  0.00000000E+00
  0.00000000E+00  0.00000000E+00  0.00000000E+00
  0.00000000E+00  0.00000000E+00  0.00000000E+00
  0.00000000E+00  0.00000000E+00  0.00000000E+00
  0.00000000E+00  0.00000000E+00  0.00000000E+00
  0.00000000E+00  0.00000000E+00  0.00000000E+00
  0.00000000E+00  0.00000000E+00  0.00000000E+00
  0.00000000E+00  0.00000000E+00  0.00000000E+00
  0.00000000E+00  0.00000000E+00  0.00000000E+00
  0.00000000E+00  0.00000000E+00  0.00000000E+00
  0.00000000E+00  0.00000000E+00  0.00000000E+00
  0.00000000E+00  0.00000000E+00  0.00000000E+00
  0.00000000E+00  0.00000000E+00  0.00000000E+00
  0.00000000E+00  0.00000000E+00  0.00000000E+00
  0.00000000E+00  0.00000000E+00  0.00000000E+00
  0.00000000E+00  0.00000000E+00  0.00000000E+00
  0.00000000E+00  0.00000000E+00  0.00000000E+00
  0.00000000E+00  0.00000000E+00  0.00000000E+00
  0.00000000E+00  0.00000000E+00  0.00000000E+00
  0.00000000E+00  0.00000000E+00  0.00000000E+00
  0.00000000E+00  0.00000000E+00  0.00000000E+00
  0.00000000E+00  0.00000000E+00  0.00000000E+00
  0.00000000E+00  0.00000000E+00  0.00000000E+00
  0.00000000E+00  0.00000000E+00  0.00000000E+00
  0.00000000E+00  0.00000000E+00  0.00000000E+00
  0.00000000E+00  0.00000000E+00  0.00000000E+00
  0.00000000E+00  0.00000000E+00  0.00000000E+00
  0.00000000E+00  0.00000000E+00  0.00000000E+00
  0.00000000E+00  0.00000000E+00  0.00000000E+00
  0.00000000E+00  0.00000000E+00  0.00000000E+00
  0.00000000E+00  0.00000000E+00  0.00000000E+00
  0.00000000E+00  0.00000000E+00  0.00000000E+00
  0.00000000E+00  0.00000000E+00  0.00000000E+00
  0.00000000E+00  0.00000000E+00  0.00000000E+00
  0.00000000E+00  0.00000000E+00  0.00000000E+00
