Ta  N Ru Cu                             
   1.00000000000000     
     9.0548154099999998    0.0000000000000000    0.0000000000000000
     0.0000000000000000   11.6775998899999998    0.0000000000000000
     0.0000000000000000    0.0000000000000000   26.4818170799999990
   Ta   N    Ru   Cu
    60    60    32     1
Selective dynamics
Direct
  0.0000000000000000  0.0000000000000000  0.2258397498815228   F   F   F
  0.6670845899906297  0.1250000003211298  0.2339882671631202   F   F   F
  0.3329153514769843  0.1250000003211298  0.2339882671631202   F   F   F
  0.4999999994478088  0.2499999997859135  0.3208898207564346   F   F   F
  0.1650707596845180  0.1250000003211298  0.3267034403329916   F   F   F
  0.8349292403154820  0.1250000003211298  0.3267034403329916   F   F   F
  0.0011516453222547  0.2503077883757547  0.4254747596336900   T   T   T
  0.6650389308131627  0.1253302791972002  0.4239700046652652   T   T   T
  0.3353546565259605  0.1252991821459221  0.4239221488607127   T   T   T
  0.4981116102038676  0.2506988922681200  0.5232243000347676   T   T   T
  0.1678164949475310  0.1256506241553604  0.5234811102273296   T   T   T
  0.8343561149577016  0.1257887955591814  0.5227462106528383   T   T   T
  0.0045541981007453  0.2511140137634651  0.6223042039025446   T   T   T
  0.6653730921186491  0.1264368091490062  0.6207303461613275   T   T   T
  0.3292138445960402  0.1259618852864311  0.6245768781542713   T   T   T
  0.0000000000000000  0.2499999997859135  0.2258397498815228   F   F   F
  0.6670845899906297  0.3750000001070433  0.2339882671631202   F   F   F
  0.3329153514769843  0.3750000001070433  0.2339882671631202   F   F   F
  0.4999999994478088  0.5000000004281731  0.3208898207564346   F   F   F
  0.1650707596845180  0.3750000001070433  0.3267034403329916   F   F   F
  0.8349292403154820  0.3750000001070433  0.3267034403329916   F   F   F
  0.0010906860518991  0.5003572743269944  0.4254810059621668   T   T   T
  0.6651999745560653  0.3752924689450132  0.4239777059506582   T   T   T
  0.3354035451200968  0.3753009404282085  0.4239191208236109   T   T   T
  0.4981247409705422  0.5007275382656708  0.5232695501689801   T   T   T
  0.1675007124349021  0.3756831766071944  0.5234158881716415   T   T   T
  0.8343368481806738  0.3758177927508191  0.5227347945693260   T   T   T
  0.9995801697990511  0.5007940734355729  0.6234357894019927   T   T   T
  0.6658041664500742  0.3763835828435513  0.6202309312016940   T   T   T
  0.3299763524208368  0.3755289114250004  0.6234128696550768   T   T   T
  0.0000000000000000  0.5000000004281731  0.2258397498815228   F   F   F
  0.6670845899906297  0.6249999998929567  0.2339882671631202   F   F   F
  0.3329153514769843  0.6249999998929567  0.2339882671631202   F   F   F
  0.4999999994478088  0.7500000002140865  0.3208898207564346   F   F   F
  0.1650707596845180  0.6249999998929567  0.3267034403329916   F   F   F
  0.8349292403154820  0.6249999998929567  0.3267034403329916   F   F   F
  0.0011288140769886  0.7502800290043761  0.4254565916720222   T   T   T
  0.6650977188838194  0.6252725884379264  0.4239744710843392   T   T   T
  0.3353713008276905  0.6252607740219369  0.4239382497639838   T   T   T
  0.4981736072051757  0.7505762739288920  0.5231528161420148   T   T   T
  0.1676137599874875  0.6256107524592893  0.5234678563445936   T   T   T
  0.8343352526581762  0.6257044098890829  0.5227655040998597   T   T   T
  0.0043374821440313  0.7514032644083593  0.6222551376955915   T   T   T
  0.6648188472985338  0.6264360962216241  0.6206422566691455   T   T   T
  0.3288377734182038  0.6258631346163425  0.6244979943614376   T   T   T
  0.0000000000000000  0.7500000002140865  0.2258397498815228   F   F   F
  0.6670845899906297  0.8750000005352163  0.2339882671631202   F   F   F
  0.3329153514769843  0.8750000005352163  0.2339882671631202   F   F   F
  0.4999999994478088  0.0000000000000000  0.3208898207564346   F   F   F
  0.1650707596845180  0.8750000005352163  0.3267034403329916   F   F   F
  0.8349292403154820  0.8750000005352163  0.3267034403329916   F   F   F
  0.0011624719112436  0.0004101010968753  0.4254708715717079   T   T   T
  0.6651615198193601  0.8752878847273112  0.4239508283623790   T   T   T
  0.3354356424661873  0.8752737071648715  0.4239125364478925   T   T   T
  0.4980838135397815  0.0007419077851955  0.5232415773488548   T   T   T
  0.1675380799046284  0.8756358285689002  0.5233687798809955   T   T   T
  0.8343702371871085  0.8758649209686822  0.5226106094225940   T   T   T
  0.0015219908349489  0.0009103294700797  0.6230183431623226   T   T   T
  0.6661446964884675  0.8766074049297168  0.6199317214545418   T   T   T
  0.3305291956931241  0.8756875161773547  0.6232981864979781   T   T   T
  0.8141011533980276  0.0000000000000000  0.2671765160246267   F   F   F
  0.4999999994478088  0.0000000000000000  0.2273691263583544   F   F   F
  0.1858988466019724  0.0000000000000000  0.2671765160246267   F   F   F
  0.3088456122590841  0.2499999997859135  0.3635413069267344   F   F   F
  0.0000000000000000  0.2499999997859135  0.3485649890092901   F   F   F
  0.6911543877409159  0.2499999997859135  0.3635413069267344   F   F   F
  0.8028622761045715  0.2504886609747389  0.4626617657512934   T   T   T
  0.5000873563779711  0.2504273335968167  0.4456732680672604   T   T   T
  0.1990983303277865  0.2505072341650986  0.4632529985626436   T   T   T
  0.3026623548048611  0.2504271912935775  0.5629757969516909   T   T   T
  0.0010235057595343  0.2508138130904333  0.5438387327444661   T   T   T
  0.6959426513590191  0.2506069616137661  0.5603059217224704   T   T   T
  0.8054358648268162  0.2517818741542416  0.6552337058308120   T   T   T
  0.5029643896948461  0.2514714961724903  0.6432354524473834   T   T   T
  0.1986322315747998  0.2517896684579152  0.6603784792327611   T   T   T
  0.8141011533980276  0.2499999997859135  0.2671765160246267   F   F   F
  0.4999999994478088  0.2499999997859135  0.2273691263583544   F   F   F
  0.1858988466019724  0.2499999997859135  0.2671765160246267   F   F   F
  0.3088456122590841  0.5000000004281731  0.3635413069267344   F   F   F
  0.0000000000000000  0.5000000004281731  0.3485649890092901   F   F   F
  0.6911543877409159  0.5000000004281731  0.3635413069267344   F   F   F
  0.8029399889004729  0.5005078013657758  0.4626793879810405   T   T   T
  0.5000929870786476  0.5003495123569203  0.4457028962491837   T   T   T
  0.1988578818634025  0.5004106589949642  0.4632399777873784   T   T   T
  0.3020834845060845  0.5009655332983253  0.5625302423994567   T   T   T
  0.0005348674198617  0.5007917881136249  0.5444457879148696   T   T   T
  0.6963790584265419  0.5012449867124097  0.5603632079363371   T   T   T
  0.7995447241913659  0.5020489231428945  0.6582989040729456   T   T   T
  0.5004236535286508  0.5006556481632206  0.6397787364119081   T   T   T
  0.1979804733957452  0.4997950607258951  0.6594583247403062   T   T   T
  0.8141011533980276  0.5000000004281731  0.2671765160246267   F   F   F
  0.4999999994478088  0.5000000004281731  0.2273691263583544   F   F   F
  0.1858988466019724  0.5000000004281731  0.2671765160246267   F   F   F
  0.3088456122590841  0.7500000002140865  0.3635413069267344   F   F   F
  0.0000000000000000  0.7500000002140865  0.3485649890092901   F   F   F
  0.6911543877409159  0.7500000002140865  0.3635413069267344   F   F   F
  0.8028827241406237  0.7504544622274235  0.4626189034418355   T   T   T
  0.5001020433503066  0.7503429317250065  0.4456349395340626   T   T   T
  0.1990558565068084  0.7504289985364053  0.4632301622593588   T   T   T
  0.3025714279570001  0.7503530834383038  0.5628844944093914   T   T   T
  0.0009479815636636  0.7507518185232441  0.5437988145970426   T   T   T
  0.6961488088753960  0.7506440485148109  0.5601238300376034   T   T   T
  0.8050440381094818  0.7527544741776164  0.6552492325999192   T   T   T
  0.5025259483079174  0.7512151882299750  0.6425899417323742   T   T   T
  0.1983112271863066  0.7514927118066672  0.6602329292573011   T   T   T
  0.8141011533980276  0.7500000002140865  0.2671765160246267   F   F   F
  0.4999999994478088  0.7500000002140865  0.2273691263583544   F   F   F
  0.1858988466019724  0.7500000002140865  0.2671765160246267   F   F   F
  0.3088456122590841  0.0000000000000000  0.3635413069267344   F   F   F
  0.0000000000000000  0.0000000000000000  0.3485649890092901   F   F   F
  0.6911543877409159  0.0000000000000000  0.3635413069267344   F   F   F
  0.8029393917301800  0.0006138283424369  0.4626259075892436   T   T   T
  0.5000783347107440  0.0003571993641201  0.4456912929730215   T   T   T
  0.1989541202773034  0.0004523283844417  0.4632270004931777   T   T   T
  0.3022914480117533  0.0008464471732998  0.5625921722143270   T   T   T
  0.0007278140346653  0.0008348387303897  0.5441906151131271   T   T   T
  0.6963446244882746  0.0014695348075517  0.5603037692552775   T   T   T
  0.8019810348194074  0.0014292791197648  0.6575935998264661   T   T   T
  0.5013211756601164  0.0008910902862548  0.6401351575622070   T   T   T
  0.1990554304372663  0.9996488170411444  0.6598939343274476   T   T   T
  0.0946313097671129  0.0106077309105678  0.7313881995458426   T   T   T
  0.5694794475191047  0.9861224094251816  0.7138262848143767   T   T   T
  0.8494097027502621  0.1328107224984342  0.7127573793251113   T   T   T
  0.0968276325259379  0.5100573985791612  0.7312163305140180   T   T   T
  0.5703129525744873  0.4970671132563515  0.7134846417509358   T   T   T
  0.8522013356788151  0.6348201657573167  0.7129530342237178   T   T   T
  0.1063854748169781  0.2458332787305717  0.7328028642689988   T   T   T
  0.5538655128007280  0.2624016630108450  0.7204920940024542   T   T   T
  0.8493215855045945  0.3691506752350258  0.7126634833689468   T   T   T
  0.1088378020475234  0.7431310793786535  0.7328292387474851   T   T   T
  0.5513438707459922  0.7572493155941760  0.7200165046093944   T   T   T
  0.8476306669488067  0.8702524498898447  0.7131243578045922   T   T   T
  0.3286033499657885  0.8913378465934747  0.7376392397223698   T   T   T
  0.3489889819875184  0.6128548472025933  0.7450448013640428   T   T   T
  0.3313411024577127  0.3909755927711827  0.7388210362931673   T   T   T
  0.3486395195553864  0.1145873418209225  0.7436005043192506   T   T   T
  0.1405636911232593  0.8814781178914545  0.8061978788719931   T   T   T
  0.6602047342341815  0.8820724944589050  0.7941439650136158   T   T   T
  0.8929657792648334  0.0197948779101464  0.7966466791699168   T   T   T
  0.1424456945477502  0.3810059079320386  0.8067795811507816   T   T   T
  0.6591581234145003  0.3935062252019620  0.7937371575911828   T   T   T
  0.8931569752173998  0.5184569132315966  0.7957495641437675   T   T   T
  0.1464323588433663  0.1225994552130622  0.8101770648623521   T   T   T
  0.6374635669608206  0.1101498009244117  0.7886670340906895   T   T   T
  0.8884931066665763  0.2435600840449772  0.7952116598084391   T   T   T
  0.1449785280564142  0.6217860266058105  0.8108811920218856   T   T   T
  0.6383995308059055  0.6159641612374741  0.7908335537545438   T   T   T
  0.8920810514602673  0.7426826953194628  0.7950671045490599   T   T   T
  0.4200269891313939  0.7673046766606165  0.8078658200237933   T   T   T
  0.4004045837688461  0.4819446297900245  0.8204349374156013   T   T   T
  0.4230284825534657  0.2631423702795173  0.8088008973165652   T   T   T
  0.3980329092111074  0.9829696965744310  0.8189883259288870   T   T   T
  0.6647909831487266  0.2429332047576269  0.8634467693725255   T   T   T
 
  0.00000000E+00  0.00000000E+00  0.00000000E+00
  0.00000000E+00  0.00000000E+00  0.00000000E+00
  0.00000000E+00  0.00000000E+00  0.00000000E+00
  0.00000000E+00  0.00000000E+00  0.00000000E+00
  0.00000000E+00  0.00000000E+00  0.00000000E+00
  0.00000000E+00  0.00000000E+00  0.00000000E+00
  0.00000000E+00  0.00000000E+00  0.00000000E+00
  0.00000000E+00  0.00000000E+00  0.00000000E+00
  0.00000000E+00  0.00000000E+00  0.00000000E+00
  0.00000000E+00  0.00000000E+00  0.00000000E+00
  0.00000000E+00  0.00000000E+00  0.00000000E+00
  0.00000000E+00  0.00000000E+00  0.00000000E+00
  0.00000000E+00  0.00000000E+00  0.00000000E+00
  0.00000000E+00  0.00000000E+00  0.00000000E+00
  0.00000000E+00  0.00000000E+00  0.00000000E+00
  0.00000000E+00  0.00000000E+00  0.00000000E+00
  0.00000000E+00  0.00000000E+00  0.00000000E+00
  0.00000000E+00  0.00000000E+00  0.00000000E+00
  0.00000000E+00  0.00000000E+00  0.00000000E+00
  0.00000000E+00  0.00000000E+00  0.00000000E+00
  0.00000000E+00  0.00000000E+00  0.00000000E+00
  0.00000000E+00  0.00000000E+00  0.00000000E+00
  0.00000000E+00  0.00000000E+00  0.00000000E+00
  0.00000000E+00  0.00000000E+00  0.00000000E+00
  0.00000000E+00  0.00000000E+00  0.00000000E+00
  0.00000000E+00  0.00000000E+00  0.00000000E+00
  0.00000000E+00  0.00000000E+00  0.00000000E+00
  0.00000000E+00  0.00000000E+00  0.00000000E+00
  0.00000000E+00  0.00000000E+00  0.00000000E+00
  0.00000000E+00  0.00000000E+00  0.00000000E+00
  0.00000000E+00  0.00000000E+00  0.00000000E+00
  0.00000000E+00  0.00000000E+00  0.00000000E+00
  0.00000000E+00  0.00000000E+00  0.00000000E+00
  0.00000000E+00  0.00000000E+00  0.00000000E+00
  0.00000000E+00  0.00000000E+00  0.00000000E+00
  0.00000000E+00  0.00000000E+00  0.00000000E+00
  0.00000000E+00  0.00000000E+00  0.00000000E+00
  0.00000000E+00  0.00000000E+00  0.00000000E+00
  0.00000000E+00  0.00000000E+00  0.00000000E+00
  0.00000000E+00  0.00000000E+00  0.00000000E+00
  0.00000000E+00  0.00000000E+00  0.00000000E+00
  0.00000000E+00  0.00000000E+00  0.00000000E+00
  0.00000000E+00  0.00000000E+00  0.00000000E+00
  0.00000000E+00  0.00000000E+00  0.00000000E+00
  0.00000000E+00  0.00000000E+00  0.00000000E+00
  0.00000000E+00  0.00000000E+00  0.00000000E+00
  0.00000000E+00  0.00000000E+00  0.00000000E+00
  0.00000000E+00  0.00000000E+00  0.00000000E+00
  0.00000000E+00  0.00000000E+00  0.00000000E+00
  0.00000000E+00  0.00000000E+00  0.00000000E+00
  0.00000000E+00  0.00000000E+00  0.00000000E+00
  0.00000000E+00  0.00000000E+00  0.00000000E+00
  0.00000000E+00  0.00000000E+00  0.00000000E+00
  0.00000000E+00  0.00000000E+00  0.00000000E+00
  0.00000000E+00  0.00000000E+00  0.00000000E+00
  0.00000000E+00  0.00000000E+00  0.00000000E+00
  0.00000000E+00  0.00000000E+00  0.00000000E+00
  0.00000000E+00  0.00000000E+00  0.00000000E+00
  0.00000000E+00  0.00000000E+00  0.00000000E+00
  0.00000000E+00  0.00000000E+00  0.00000000E+00
  0.00000000E+00  0.00000000E+00  0.00000000E+00
  0.00000000E+00  0.00000000E+00  0.00000000E+00
  0.00000000E+00  0.00000000E+00  0.00000000E+00
  0.00000000E+00  0.00000000E+00  0.00000000E+00
  0.00000000E+00  0.00000000E+00  0.00000000E+00
  0.00000000E+00  0.00000000E+00  0.00000000E+00
  0.00000000E+00  0.00000000E+00  0.00000000E+00
  0.00000000E+00  0.00000000E+00  0.00000000E+00
  0.00000000E+00  0.00000000E+00  0.00000000E+00
  0.00000000E+00  0.00000000E+00  0.00000000E+00
  0.00000000E+00  0.00000000E+00  0.00000000E+00
  0.00000000E+00  0.00000000E+00  0.00000000E+00
  0.00000000E+00  0.00000000E+00  0.00000000E+00
  0.00000000E+00  0.00000000E+00  0.00000000E+00
  0.00000000E+00  0.00000000E+00  0.00000000E+00
  0.00000000E+00  0.00000000E+00  0.00000000E+00
  0.00000000E+00  0.00000000E+00  0.00000000E+00
  0.00000000E+00  0.00000000E+00  0.00000000E+00
  0.00000000E+00  0.00000000E+00  0.00000000E+00
  0.00000000E+00  0.00000000E+00  0.00000000E+00
  0.00000000E+00  0.00000000E+00  0.00000000E+00
  0.00000000E+00  0.00000000E+00  0.00000000E+00
  0.00000000E+00  0.00000000E+00  0.00000000E+00
  0.00000000E+00  0.00000000E+00  0.00000000E+00
  0.00000000E+00  0.00000000E+00  0.00000000E+00
  0.00000000E+00  0.00000000E+00  0.00000000E+00
  0.00000000E+00  0.00000000E+00  0.00000000E+00
  0.00000000E+00  0.00000000E+00  0.00000000E+00
  0.00000000E+00  0.00000000E+00  0.00000000E+00
  0.00000000E+00  0.00000000E+00  0.00000000E+00
  0.00000000E+00  0.00000000E+00  0.00000000E+00
  0.00000000E+00  0.00000000E+00  0.00000000E+00
  0.00000000E+00  0.00000000E+00  0.00000000E+00
  0.00000000E+00  0.00000000E+00  0.00000000E+00
  0.00000000E+00  0.00000000E+00  0.00000000E+00
  0.00000000E+00  0.00000000E+00  0.00000000E+00
  0.00000000E+00  0.00000000E+00  0.00000000E+00
  0.00000000E+00  0.00000000E+00  0.00000000E+00
  0.00000000E+00  0.00000000E+00  0.00000000E+00
  0.00000000E+00  0.00000000E+00  0.00000000E+00
  0.00000000E+00  0.00000000E+00  0.00000000E+00
  0.00000000E+00  0.00000000E+00  0.00000000E+00
  0.00000000E+00  0.00000000E+00  0.00000000E+00
  0.00000000E+00  0.00000000E+00  0.00000000E+00
  0.00000000E+00  0.00000000E+00  0.00000000E+00
  0.00000000E+00  0.00000000E+00  0.00000000E+00
  0.00000000E+00  0.00000000E+00  0.00000000E+00
  0.00000000E+00  0.00000000E+00  0.00000000E+00
  0.00000000E+00  0.00000000E+00  0.00000000E+00
  0.00000000E+00  0.00000000E+00  0.00000000E+00
  0.00000000E+00  0.00000000E+00  0.00000000E+00
  0.00000000E+00  0.00000000E+00  0.00000000E+00
  0.00000000E+00  0.00000000E+00  0.00000000E+00
  0.00000000E+00  0.00000000E+00  0.00000000E+00
  0.00000000E+00  0.00000000E+00  0.00000000E+00
  0.00000000E+00  0.00000000E+00  0.00000000E+00
  0.00000000E+00  0.00000000E+00  0.00000000E+00
  0.00000000E+00  0.00000000E+00  0.00000000E+00
  0.00000000E+00  0.00000000E+00  0.00000000E+00
  0.00000000E+00  0.00000000E+00  0.00000000E+00
  0.00000000E+00  0.00000000E+00  0.00000000E+00
  0.00000000E+00  0.00000000E+00  0.00000000E+00
  0.00000000E+00  0.00000000E+00  0.00000000E+00
  0.00000000E+00  0.00000000E+00  0.00000000E+00
  0.00000000E+00  0.00000000E+00  0.00000000E+00
  0.00000000E+00  0.00000000E+00  0.00000000E+00
  0.00000000E+00  0.00000000E+00  0.00000000E+00
  0.00000000E+00  0.00000000E+00  0.00000000E+00
  0.00000000E+00  0.00000000E+00  0.00000000E+00
  0.00000000E+00  0.00000000E+00  0.00000000E+00
  0.00000000E+00  0.00000000E+00  0.00000000E+00
  0.00000000E+00  0.00000000E+00  0.00000000E+00
  0.00000000E+00  0.00000000E+00  0.00000000E+00
  0.00000000E+00  0.00000000E+00  0.00000000E+00
  0.00000000E+00  0.00000000E+00  0.00000000E+00
  0.00000000E+00  0.00000000E+00  0.00000000E+00
  0.00000000E+00  0.00000000E+00  0.00000000E+00
  0.00000000E+00  0.00000000E+00  0.00000000E+00
  0.00000000E+00  0.00000000E+00  0.00000000E+00
  0.00000000E+00  0.00000000E+00  0.00000000E+00
  0.00000000E+00  0.00000000E+00  0.00000000E+00
  0.00000000E+00  0.00000000E+00  0.00000000E+00
  0.00000000E+00  0.00000000E+00  0.00000000E+00
  0.00000000E+00  0.00000000E+00  0.00000000E+00
  0.00000000E+00  0.00000000E+00  0.00000000E+00
  0.00000000E+00  0.00000000E+00  0.00000000E+00
  0.00000000E+00  0.00000000E+00  0.00000000E+00
  0.00000000E+00  0.00000000E+00  0.00000000E+00
  0.00000000E+00  0.00000000E+00  0.00000000E+00
  0.00000000E+00  0.00000000E+00  0.00000000E+00
  0.00000000E+00  0.00000000E+00  0.00000000E+00
  0.00000000E+00  0.00000000E+00  0.00000000E+00
  0.00000000E+00  0.00000000E+00  0.00000000E+00
