Mo  S Co                                
   1.00000000000000     
    15.9215000000000000    0.0000000000000000    0.0000000000000000
    -7.9622500000000000   13.7910219999999999    0.0000000000000000
     0.0000000000000000    0.0000000000000000   13.5822000000000003
   Mo   S    Ru
    25    49     1
Direct
  0.1293221027901126  0.0679349673416780  0.6755800608816003
  0.1341888471082058  0.2674861130679034  0.6742716441911227
  0.1332953221482711  0.4652311564005487  0.6769092923609037
  0.1321266425780152  0.6661868774681281  0.6789690441367071
  0.1315341965548527  0.8665937244988342  0.6798932969284550
  0.3319148829020691  0.0676710710172443  0.6887937330590077
  0.3299485111365854  0.2688826673024280  0.6847419509288244
  0.3310721183112832  0.4643614372380824  0.6743614000321472
  0.3316329699817118  0.6653653936232331  0.6786876007195701
  0.3317492809573608  0.8658072391823239  0.6819057846915939
  0.5335003698958403  0.0651900837353878  0.6817263860491352
  0.5304857249906476  0.2665676430708501  0.6890274818681519
  0.5306770733236874  0.4692714584575768  0.6757700449034090
  0.5311618482574616  0.6666160334286459  0.6770449674999242
  0.5318659881361540  0.8659417270001271  0.6788977203929250
  0.7325751539147376  0.0666454756732264  0.6789023154725911
  0.7326798091606435  0.2667061876625141  0.6821061880268147
  0.7318211754186450  0.4669352677591974  0.6802197922321298
  0.7319074624499038  0.6671295123331973  0.6764530544868776
  0.7318990362131785  0.8666202388071866  0.6770362497163944
  0.9319397513875671  0.0673609571148432  0.6768357728231820
  0.9331719224794099  0.2668902509047015  0.6787459028261367
  0.9322994131692397  0.4663684746695367  0.6791259596699604
  0.9318900883228736  0.6665823198703578  0.6775211230738094
  0.9313937481167116  0.8666144976085661  0.6762283483175082
  0.0648061077606314  0.1354486359378129  0.5599330334031549
  0.0663320682538071  0.1368866525328585  0.7915509262114071
  0.0654490460681032  0.3320384413808100  0.5612662333257035
  0.0704942211783575  0.3333664800023683  0.7920931958911623
  0.0654604819406472  0.5329323218575226  0.5636695338430755
  0.0665131307487243  0.5320937426767003  0.7929639359646288
  0.0663764256746120  0.7339395024114808  0.5637050028486996
  0.0642654491770287  0.7323041377721395  0.7935450270915041
  0.0660462163672335  0.9331583702414505  0.5622912306813888
  0.0629340649690704  0.9336782465796745  0.7917320843915192
  0.2698477148802354  0.1367090324685378  0.5698804204484276
  0.2493428698908389  0.1309770968146537  0.8025390213235255
  0.2671888753995830  0.3314742928384007  0.5635341193604901
  0.2665158199515787  0.5330551322281636  0.5612745809198572
  0.2651635411453199  0.5281140365955395  0.7920974512027428
  0.2658440356093337  0.7340670692564686  0.5648514026560179
  0.2644777865823045  0.7307507897038050  0.7950537492786864
  0.2676331188791252  0.9367925339621053  0.5694170190697889
  0.2626958440235612  0.9305045890929406  0.7980917839997659
  0.4642718640064842  0.1344133302923680  0.5736524852953266
  0.4716142518953390  0.1260153795926513  0.8076863059713091
  0.4620365247154510  0.3289745867494034  0.5698988405506284
  0.4670322340079167  0.3490542200525653  0.8026376773573531
  0.4632099800008120  0.5338128188695066  0.5601439678991582
  0.4616318608857313  0.5322200410387907  0.7917518644908554
  0.4643879185899422  0.7334033740957224  0.5631257678620045
  0.4651104935949064  0.7322730073395576  0.7934917236753449
  0.4643459541626243  0.9332048977409073  0.5656659456886501
  0.4658155782102895  0.9304565659331985  0.7960689121953379
  0.6654559939648763  0.1343397404931252  0.5657003656793904
  0.6680751406294974  0.1326463143842034  0.7961846192071818
  0.6616062782582901  0.3308514283529718  0.5697424885348141
  0.6677331994405620  0.3356121530726170  0.7983186386222059
  0.6654334435676077  0.5324896102934957  0.5625675882161474
  0.6648483445644828  0.5356348664271025  0.7920696802445235
  0.6646781786860956  0.7334564817567397  0.5616427884984674
  0.6650003769968365  0.7331229835837334  0.7918929539000956
  0.6648427952636666  0.9336755708882620  0.5630738821322154
  0.6659516321333712  0.9325770074915951  0.7932885443284903
  0.8650912979384273  0.1342039572627058  0.5630820780649017
  0.8663063887339533  0.1333266998991149  0.7934223751083209
  0.8643953295293514  0.3326886627970964  0.5650257607749225
  0.8678095984542296  0.3340172602746421  0.7952170433592940
  0.8643809121665669  0.5319659879416179  0.5639047080914636
  0.8662544717691247  0.5343171714076718  0.7937173696537059
  0.8653698664932179  0.7329849954881027  0.5613794965160466
  0.8649874679580947  0.7337003144024337  0.7915201513988279
  0.8649614722739756  0.9337952040553361  0.5614641470574355
  0.8655163851901122  0.9335832483296116  0.7917099640600611
  0.3966070623102169  0.2017546978497933  0.8609806462542906
 
  0.00000000E+00  0.00000000E+00  0.00000000E+00
  0.00000000E+00  0.00000000E+00  0.00000000E+00
  0.00000000E+00  0.00000000E+00  0.00000000E+00
  0.00000000E+00  0.00000000E+00  0.00000000E+00
  0.00000000E+00  0.00000000E+00  0.00000000E+00
  0.00000000E+00  0.00000000E+00  0.00000000E+00
  0.00000000E+00  0.00000000E+00  0.00000000E+00
  0.00000000E+00  0.00000000E+00  0.00000000E+00
  0.00000000E+00  0.00000000E+00  0.00000000E+00
  0.00000000E+00  0.00000000E+00  0.00000000E+00
  0.00000000E+00  0.00000000E+00  0.00000000E+00
  0.00000000E+00  0.00000000E+00  0.00000000E+00
  0.00000000E+00  0.00000000E+00  0.00000000E+00
  0.00000000E+00  0.00000000E+00  0.00000000E+00
  0.00000000E+00  0.00000000E+00  0.00000000E+00
  0.00000000E+00  0.00000000E+00  0.00000000E+00
  0.00000000E+00  0.00000000E+00  0.00000000E+00
  0.00000000E+00  0.00000000E+00  0.00000000E+00
  0.00000000E+00  0.00000000E+00  0.00000000E+00
  0.00000000E+00  0.00000000E+00  0.00000000E+00
  0.00000000E+00  0.00000000E+00  0.00000000E+00
  0.00000000E+00  0.00000000E+00  0.00000000E+00
  0.00000000E+00  0.00000000E+00  0.00000000E+00
  0.00000000E+00  0.00000000E+00  0.00000000E+00
  0.00000000E+00  0.00000000E+00  0.00000000E+00
  0.00000000E+00  0.00000000E+00  0.00000000E+00
  0.00000000E+00  0.00000000E+00  0.00000000E+00
  0.00000000E+00  0.00000000E+00  0.00000000E+00
  0.00000000E+00  0.00000000E+00  0.00000000E+00
  0.00000000E+00  0.00000000E+00  0.00000000E+00
  0.00000000E+00  0.00000000E+00  0.00000000E+00
  0.00000000E+00  0.00000000E+00  0.00000000E+00
  0.00000000E+00  0.00000000E+00  0.00000000E+00
  0.00000000E+00  0.00000000E+00  0.00000000E+00
  0.00000000E+00  0.00000000E+00  0.00000000E+00
  0.00000000E+00  0.00000000E+00  0.00000000E+00
  0.00000000E+00  0.00000000E+00  0.00000000E+00
  0.00000000E+00  0.00000000E+00  0.00000000E+00
  0.00000000E+00  0.00000000E+00  0.00000000E+00
  0.00000000E+00  0.00000000E+00  0.00000000E+00
  0.00000000E+00  0.00000000E+00  0.00000000E+00
  0.00000000E+00  0.00000000E+00  0.00000000E+00
  0.00000000E+00  0.00000000E+00  0.00000000E+00
  0.00000000E+00  0.00000000E+00  0.00000000E+00
  0.00000000E+00  0.00000000E+00  0.00000000E+00
  0.00000000E+00  0.00000000E+00  0.00000000E+00
  0.00000000E+00  0.00000000E+00  0.00000000E+00
  0.00000000E+00  0.00000000E+00  0.00000000E+00
  0.00000000E+00  0.00000000E+00  0.00000000E+00
  0.00000000E+00  0.00000000E+00  0.00000000E+00
  0.00000000E+00  0.00000000E+00  0.00000000E+00
  0.00000000E+00  0.00000000E+00  0.00000000E+00
  0.00000000E+00  0.00000000E+00  0.00000000E+00
  0.00000000E+00  0.00000000E+00  0.00000000E+00
  0.00000000E+00  0.00000000E+00  0.00000000E+00
  0.00000000E+00  0.00000000E+00  0.00000000E+00
  0.00000000E+00  0.00000000E+00  0.00000000E+00
  0.00000000E+00  0.00000000E+00  0.00000000E+00
  0.00000000E+00  0.00000000E+00  0.00000000E+00
  0.00000000E+00  0.00000000E+00  0.00000000E+00
  0.00000000E+00  0.00000000E+00  0.00000000E+00
  0.00000000E+00  0.00000000E+00  0.00000000E+00
  0.00000000E+00  0.00000000E+00  0.00000000E+00
  0.00000000E+00  0.00000000E+00  0.00000000E+00
  0.00000000E+00  0.00000000E+00  0.00000000E+00
  0.00000000E+00  0.00000000E+00  0.00000000E+00
  0.00000000E+00  0.00000000E+00  0.00000000E+00
  0.00000000E+00  0.00000000E+00  0.00000000E+00
  0.00000000E+00  0.00000000E+00  0.00000000E+00
  0.00000000E+00  0.00000000E+00  0.00000000E+00
  0.00000000E+00  0.00000000E+00  0.00000000E+00
  0.00000000E+00  0.00000000E+00  0.00000000E+00
  0.00000000E+00  0.00000000E+00  0.00000000E+00
  0.00000000E+00  0.00000000E+00  0.00000000E+00
  0.00000000E+00  0.00000000E+00  0.00000000E+00
