Ta  N Cu                                
   1.00000000000000     
    18.1096308199999996    0.0000000000000000    0.0000000000000000
     0.0000000000000000   11.6775998899999998    0.0000000000000000
     0.0000000000000000    0.0000000000000000   23.4818170799999990
   Ta   N    Cu
   120   120     2
Direct
  0.9998646477848019  0.0005518649089301  0.2550432579136653
  0.3331873023795553  0.1255406614517373  0.2638219952666741
  0.1658216855082059  0.1254802892970684  0.2639765184488430
  0.2495686910786663  0.2504184361805010  0.3615990896763417
  0.0822839647603102  0.1253761284772258  0.3688060638342601
  0.4168937944628492  0.1254637373715848  0.3685544145122139
  0.9998669470170873  0.2505536046913717  0.4801377354074213
  0.3322463407548630  0.1254361516332275  0.4784235119159497
  0.1672515418012796  0.1254923476135153  0.4785908888469967
  0.2499628364103257  0.2507456268644412  0.5915790621972128
  0.0833532394996235  0.1256247806320289  0.5906017493608686
  0.4165838648428098  0.1254342045285857  0.5902758002827631
  0.9989761685406282  0.2495815537623577  0.7021153998012174
  0.3331884270328338  0.1253719200622717  0.7022453214376096
  0.1672085770377605  0.1256321470476988  0.7023792786647960
  0.9997586421853215  0.2503305832918079  0.2550514057011938
  0.3329421185316633  0.3753020934140286  0.2639076277665011
  0.1660028462201502  0.3752715292767083  0.2640316909283167
  0.2495640548219892  0.5004026458761486  0.3615742092385831
  0.0822233132064340  0.3753620252347203  0.3687448679339758
  0.4169346815569489  0.3754443039421648  0.3685085239511022
  0.9998823733533673  0.5005211468634851  0.4800038312525834
  0.3320754899443502  0.3753711915741377  0.4785011693882342
  0.1674306539926668  0.3754148754557658  0.4786576159589236
  0.2499590581198417  0.5006919958792764  0.5911436877516942
  0.0836646058929910  0.3757858226133075  0.5902454392373889
  0.4162772753160758  0.3756145604816753  0.5899711184622236
  0.0000305245452290  0.5006351393623879  0.7022866878534380
  0.3353709092918157  0.3767263440615329  0.7047295598208013
  0.1649388410000686  0.3770667523998518  0.7049134574660781
  0.9998484971344314  0.5004471391376129  0.2549529368825252
  0.3329081875607994  0.6255424165325437  0.2638308120185428
  0.1660417708575347  0.6254888467798172  0.2639592757505360
  0.2495745489393534  0.7504146757953689  0.3615233660437518
  0.0822141253711433  0.6253830316717159  0.3687171944415574
  0.4169336467543602  0.6254715248916932  0.3684664566919468
  0.9998732317314093  0.7505412320733421  0.4799897101691010
  0.3321505640829568  0.6254645795436806  0.4782541392181607
  0.1673388621575493  0.6255093615471000  0.4784004569213316
  0.2499740705481232  0.7503045821610778  0.5911546832694514
  0.0835821377448729  0.6256204984572009  0.5901971970679948
  0.4163543412611361  0.6254300493761377  0.5899309931647456
  0.0000560212942326  0.7508203931438270  0.7022829800748754
  0.3359785886160298  0.6253754426330641  0.7042617045565920
  0.1643118356185576  0.6256937916166120  0.7044057591901620
  0.9997338919304692  0.7504541091074255  0.2549470318934097
  0.3329477353765889  0.8753801643160510  0.2639101352646485
  0.1660005961625912  0.8753649026705943  0.2640269185163224
  0.2495660298627261  0.0004110174091673  0.3616354278293317
  0.0822259066950470  0.8754015857197744  0.3687286926589883
  0.4169314555883374  0.8754854692231167  0.3684878666547364
  0.9998621550165900  0.0005141937066598  0.4801251709518023
  0.3320707284423365  0.8755325614598364  0.4784855118138229
  0.1674150364400798  0.8755509777766687  0.4786466086005146
  0.2499903373757131  0.0002083798832907  0.5915778240530943
  0.0836490890020357  0.8754571492545622  0.5902319253216400
  0.4162861265394691  0.8752808193610899  0.5899567377620152
  0.9990331451914588  0.0019370571758674  0.7021089178680330
  0.3354076390106256  0.8740316662325516  0.7047255961946557
  0.1649574594568984  0.8743294883757092  0.7048892663256702
  0.4991938086705603  0.0006321493700149  0.2548563129540609
  0.8333135558582649  0.1254217377379778  0.2637797266745814
  0.6660990096594597  0.1254685480676156  0.2636837912423228
  0.7496823747965964  0.2505575136476694  0.3613677417038900
  0.5820764246634127  0.1255809262518227  0.3682592523072068
  0.9171517943815325  0.1254444728306311  0.3685218480916991
  0.4997013430702389  0.2505321540227042  0.4798498149086507
  0.8322391400929915  0.1255660293495206  0.4780352394411477
  0.6673151642267076  0.1256039848765532  0.4778254010015479
  0.7500052665089995  0.2509413959281725  0.5906220414976445
  0.5837155968508803  0.1255424883484311  0.5897635129574876
  0.9162232501847358  0.1256750763694479  0.5899812495673019
  0.5014041322310205  0.2493123565739311  0.7017693289830549
  0.8348380713622920  0.1258217430841833  0.7035020526595694
  0.6653798546729689  0.1257019960929081  0.7033466619150569
  0.4992976268272658  0.2503837358798898  0.2548826331282253
  0.8331301910509490  0.3755269220601705  0.2638541728112014
  0.6662734011340850  0.3755806302598455  0.2637467725439959
  0.7496811423033316  0.5004570663103937  0.3613235230631986
  0.5820419125594627  0.3755753350888204  0.3682197571889612
  0.9171823926767703  0.3754262404805225  0.3684698021276296
  0.4996799301765089  0.5004979874211023  0.4797166016970006
  0.8321542151949033  0.3755687206884835  0.4780926811144126
  0.6673764413569108  0.3756006444523113  0.4778841485830800
  0.7500092130903194  0.5006323959371117  0.5906131226491405
  0.5838558140073261  0.3756330884985994  0.5895736360375434
  0.9160761686289025  0.3757710597176542  0.5897847900345365
  0.5002876723080139  0.5004024784412280  0.7019993228198176
  0.8352547762658641  0.3756828575016567  0.7039223247208704
  0.6649022547126937  0.3755438325195913  0.7037850227889094
  0.4991993517071261  0.5005145342728109  0.2547937267660560
  0.8331212642153573  0.6253713869738003  0.2637977677089953
  0.6662972691987002  0.6254635914758241  0.2636834651881969
  0.7496864119677138  0.7505572389783517  0.3613571050926919
  0.5820258151838528  0.6255833228746923  0.3682119873325351
  0.9172127346716474  0.6254377585520682  0.3684570656695455
  0.4996763828002413  0.7505145151972360  0.4797036543445218
  0.8322082525419748  0.6255657424647521  0.4780386719983130
  0.6673339039997791  0.6256167727187625  0.4778241277959423
  0.7500039256931034  0.7506326465051226  0.5906088065975774
  0.5835942352156577  0.6255146833389357  0.5896413006780892
  0.9163274717452446  0.6256682447364612  0.5898549913211451
  0.5002771447442579  0.7505470441764471  0.7020004497217577
  0.8351585738926002  0.6258998766770305  0.7042014757143283
  0.6650068507353087  0.6257274118700551  0.7040542939595058
  0.4993104473859635  0.7504741615305959  0.2547755984378987
  0.8331436743447531  0.8755941701653313  0.2638455840449036
  0.6662901232590102  0.8756765054839081  0.2637366332634737
  0.7496843481982960  0.0004664889994719  0.3613309810921971
  0.5820482978599482  0.8756056586818355  0.3682102271412004
  0.9171809618009525  0.8754773143934571  0.3684570866968575
  0.4996980334959022  0.0004858568910361  0.4798397408166867
  0.8321620823317504  0.8755811869866779  0.4780948390114778
  0.6673762237235898  0.8756198018393998  0.4778784733515554
  0.7499979998094727  0.0003338496054461  0.5906186850284614
  0.5838500202183383  0.8754049602819646  0.5895590659367855
  0.9160755244031364  0.8755461069260131  0.5897643255368974
  0.5014234919122904  0.0016260627495885  0.7017423170872652
  0.8352662668646187  0.8760528641260310  0.7039205991936315
  0.6648969047371643  0.8758831212874377  0.7037768233193207
  0.4061698100619355  0.0005072535521823  0.3013639807851734
  0.2494910164022278  0.0005616546721929  0.2584530367579448
  0.0928697893621568  0.0004375903007356  0.3016028964786486
  0.1541986385419945  0.2504192139660706  0.4103936293761756
  0.9996734707141253  0.2504156566755177  0.3934303635265183
  0.3450609262480112  0.2504371869182812  0.4102245716957973
  0.4007947378618132  0.2504622095792877  0.5222516638615223
  0.2497972917843860  0.2500512273425710  0.5034315796934971
  0.0988544196020372  0.2505562186747962  0.5225137193212707
  0.1512976240933807  0.2517086665155910  0.6342902307482293
  0.9996808117950644  0.2510791069727052  0.6135356491965087
  0.3487606069940820  0.2514701006850781  0.6340723914133906
  0.4033905675059988  0.2519491434688882  0.7432833567288744
  0.2502151381492959  0.2496636138297495  0.7246871689447342
  0.0970743381462599  0.2524510129772427  0.7436081162679423
  0.4062346037067621  0.2504229828835175  0.3013644577392877
  0.2494790432348639  0.2502757343333001  0.2580465738949024
  0.0928004896990793  0.2503526429010023  0.3015895217116638
  0.1541229296080664  0.5003478152929912  0.4102817696283224
  0.9996886213513123  0.5004052123945089  0.3933057044143340
  0.3451312617384721  0.5003700293112683  0.4101179244231279
  0.4007814003767431  0.5003722432215756  0.5221494031843823
  0.2497940390963115  0.5006407636076589  0.5030773259441937
  0.0988720055832196  0.5004724913662230  0.5223940500357709
  0.1517829376816077  0.5007802566852482  0.6336466666403126
  0.9998769026916082  0.5006636488132736  0.6135940552098984
  0.3482598968959517  0.5005532601509161  0.6334558619598528
  0.4032342789686863  0.5004589793296303  0.7406702843713365
  0.2501932508701394  0.4990033872857284  0.7241831074263876
  0.0971549259626098  0.5008147116614382  0.7409566813235957
  0.4061685456823709  0.5004584538499847  0.3013167229495615
  0.2494701424728391  0.5003924480859117  0.2580626339122726
  0.0928348233295131  0.5003906536448348  0.3015434142959655
  0.1541220456763942  0.7505232676650164  0.4102713260390999
  0.9996723840749474  0.7504522632585543  0.3932936461265846
  0.3451251281575862  0.7505405600724847  0.4101024284427510
  0.4007818680764267  0.7505403028483532  0.5221408753621885
  0.2497931986862354  0.7503252374804200  0.5030786818390482
  0.0988552586836730  0.7506417228088733  0.5223799202894613
  0.1517804265288285  0.7504713205287606  0.6336238148864661
  0.9998713922023407  0.7506565932694896  0.6135849302446263
  0.3482884282438742  0.7502554492650219  0.6334569343591037
  0.4032358560210858  0.7502571219484266  0.7406859533001521
  0.2501966106038389  0.7520521629046127  0.7241357714018014
  0.0971788670422701  0.7505940420242861  0.7409378129068702
  0.4062645037779827  0.7504664876836862  0.3012830816643920
  0.2494648803461541  0.7504380988156145  0.2576447508739640
  0.0927551471033481  0.7504129872083182  0.3015147439423497
  0.1541925310720907  0.0004604933230415  0.4103963431390605
  0.9996898005631855  0.0004437401022904  0.3934167582323926
  0.3450591354948611  0.0004763605164681  0.4102172732941380
  0.4007832196449915  0.0004533207305189  0.5222352784140373
  0.2497926104280291  0.0008887219148047  0.5034218827190505
  0.0988502926698062  0.0005670429853952  0.5224964820758261
  0.1512986187877039  0.9995243589362847  0.6342807882152591
  0.9996825621165525  0.0002491969270173  0.6135208467848303
  0.3487822404574745  0.9993148175882002  0.6340704700040750
  0.4034102043168684  0.9987489528890500  0.7432728402937631
  0.2502285268503849  0.0012931541309109  0.7246515141530000
  0.0971118190419120  0.9991192502121307  0.7436433055664630
  0.9065932491714466  0.0005068388470312  0.3012590434505342
  0.7497131000570617  0.0006362013860928  0.2574793126673471
  0.5926239321494526  0.0005910157819905  0.3009621827632673
  0.6540208852168115  0.2506374482459328  0.4097182384257972
  0.4995494533810989  0.2505022491209654  0.3931406761819228
  0.8452554393256584  0.2505681246439937  0.4099134287830427
  0.9007026703033918  0.2506767377656573  0.5220465942716380
  0.7497597735460111  0.2504368212085806  0.5025401178388442
  0.5989101108259328  0.2506120598108831  0.5217998488750041
  0.6518705761765196  0.2509970219330402  0.6330105269814117
  0.5002630392648667  0.2508923821328796  0.6132039603981871
  0.8481149658582546  0.2511105608559904  0.6331768581153532
  0.9029492819322551  0.2501123123098551  0.7404017265420848
  0.7500707115029317  0.2509176434814800  0.7238790115645564
  0.5972963530309330  0.2499285586155911  0.7402721832782494
  0.9065152942394754  0.2504396455746079  0.3012837673145546
  0.7497028258968604  0.2503965818278632  0.2578343746604970
  0.5926996558117449  0.2505319272886452  0.3009894184764301
  0.6540007696225433  0.5005722007739613  0.4096753340336710
  0.4995303977450141  0.5005073611036803  0.3930137015561302
  0.8452782999063926  0.5004811044110566  0.4098711258162846
  0.9007975474055122  0.5006375922731926  0.5220169333420169
  0.7497611593430042  0.5007092919427678  0.5025226706626508
  0.5988072588199423  0.5005755734191293  0.5217689436909551
  0.6518580707225019  0.5009860430108755  0.6329193054911022
  0.5000591377886530  0.5004619506294092  0.6133001248307858
  0.8481158838790911  0.5011028741464072  0.6330946285674783
  0.9034046627314186  0.5006701162953043  0.7402967234203183
  0.7500541270001982  0.5007455427578217  0.7238412732707491
  0.5968100448839442  0.5005072979553526  0.7401490289074532
  0.9066260727269281  0.5004700855116777  0.3012227765262223
  0.7496951144648959  0.5004986241762616  0.2572369066347114
  0.5925969722309434  0.5005710203365120  0.3009265131018510
  0.6540054519506282  0.7506107090543165  0.4096726927476389
  0.4995433773197188  0.7505481000884452  0.3930031868686170
  0.8452810166159621  0.7505329046842479  0.4098729667678369
  0.9007943305365635  0.7505910490460868  0.5220095177507509
  0.7497599275318205  0.7504837694060792  0.5025231945578640
  0.5988015249717408  0.7505163882950088  0.5217606490689928
  0.6518615589590347  0.7501986720661961  0.6329241340778603
  0.5000634947364087  0.7504482061164565  0.6133021622015967
  0.8481236552459721  0.7503439136267572  0.6330884205298946
  0.9034231680166526  0.7510092539385378  0.7402895743660672
  0.7500662186578733  0.7508038259950462  0.7238357918660652
  0.5968103882420245  0.7508298453398865  0.7401686598987075
  0.9065364143797260  0.7504565304827250  0.3012339177105577
  0.7497118738607707  0.7505016009393136  0.2576332481554545
  0.5926675016945886  0.7505596676374896  0.3009287064832379
  0.6540255669092356  0.0005297231817175  0.4097103137522039
  0.4995306306466567  0.0005319635812771  0.3931301565821047
  0.8452558907049461  0.0004570439571068  0.4099061094844065
  0.9007087999003233  0.0005831365186015  0.5220422137803961
  0.7497567390813946  0.0007692199454119  0.5025343673125116
  0.5989059024462199  0.0005090178911766  0.5217886998442368
  0.6518648387252952  0.0001825357002098  0.6330027817480174
  0.5002648104205841  0.0000673656681390  0.6131653637043445
  0.8481204726473766  0.0003052621499258  0.6331669451223831
  0.9029978110278823  0.0015302289345892  0.7403820199096569
  0.7500747735925208  0.0005638564283527  0.7238758655036507
  0.5972833061505357  0.0014109241800164  0.7402624237161566
  0.0694617710593058  0.1259157994622676  0.7918786460650030
  0.4322880817681326  0.1252929731323245  0.7912640137489414
 
  0.00000000E+00  0.00000000E+00  0.00000000E+00
  0.00000000E+00  0.00000000E+00  0.00000000E+00
  0.00000000E+00  0.00000000E+00  0.00000000E+00
  0.00000000E+00  0.00000000E+00  0.00000000E+00
  0.00000000E+00  0.00000000E+00  0.00000000E+00
  0.00000000E+00  0.00000000E+00  0.00000000E+00
  0.00000000E+00  0.00000000E+00  0.00000000E+00
  0.00000000E+00  0.00000000E+00  0.00000000E+00
  0.00000000E+00  0.00000000E+00  0.00000000E+00
  0.00000000E+00  0.00000000E+00  0.00000000E+00
  0.00000000E+00  0.00000000E+00  0.00000000E+00
  0.00000000E+00  0.00000000E+00  0.00000000E+00
  0.00000000E+00  0.00000000E+00  0.00000000E+00
  0.00000000E+00  0.00000000E+00  0.00000000E+00
  0.00000000E+00  0.00000000E+00  0.00000000E+00
  0.00000000E+00  0.00000000E+00  0.00000000E+00
  0.00000000E+00  0.00000000E+00  0.00000000E+00
  0.00000000E+00  0.00000000E+00  0.00000000E+00
  0.00000000E+00  0.00000000E+00  0.00000000E+00
  0.00000000E+00  0.00000000E+00  0.00000000E+00
  0.00000000E+00  0.00000000E+00  0.00000000E+00
  0.00000000E+00  0.00000000E+00  0.00000000E+00
  0.00000000E+00  0.00000000E+00  0.00000000E+00
  0.00000000E+00  0.00000000E+00  0.00000000E+00
  0.00000000E+00  0.00000000E+00  0.00000000E+00
  0.00000000E+00  0.00000000E+00  0.00000000E+00
  0.00000000E+00  0.00000000E+00  0.00000000E+00
  0.00000000E+00  0.00000000E+00  0.00000000E+00
  0.00000000E+00  0.00000000E+00  0.00000000E+00
  0.00000000E+00  0.00000000E+00  0.00000000E+00
  0.00000000E+00  0.00000000E+00  0.00000000E+00
  0.00000000E+00  0.00000000E+00  0.00000000E+00
  0.00000000E+00  0.00000000E+00  0.00000000E+00
  0.00000000E+00  0.00000000E+00  0.00000000E+00
  0.00000000E+00  0.00000000E+00  0.00000000E+00
  0.00000000E+00  0.00000000E+00  0.00000000E+00
  0.00000000E+00  0.00000000E+00  0.00000000E+00
  0.00000000E+00  0.00000000E+00  0.00000000E+00
  0.00000000E+00  0.00000000E+00  0.00000000E+00
  0.00000000E+00  0.00000000E+00  0.00000000E+00
  0.00000000E+00  0.00000000E+00  0.00000000E+00
  0.00000000E+00  0.00000000E+00  0.00000000E+00
  0.00000000E+00  0.00000000E+00  0.00000000E+00
  0.00000000E+00  0.00000000E+00  0.00000000E+00
  0.00000000E+00  0.00000000E+00  0.00000000E+00
  0.00000000E+00  0.00000000E+00  0.00000000E+00
  0.00000000E+00  0.00000000E+00  0.00000000E+00
  0.00000000E+00  0.00000000E+00  0.00000000E+00
  0.00000000E+00  0.00000000E+00  0.00000000E+00
  0.00000000E+00  0.00000000E+00  0.00000000E+00
  0.00000000E+00  0.00000000E+00  0.00000000E+00
  0.00000000E+00  0.00000000E+00  0.00000000E+00
  0.00000000E+00  0.00000000E+00  0.00000000E+00
  0.00000000E+00  0.00000000E+00  0.00000000E+00
  0.00000000E+00  0.00000000E+00  0.00000000E+00
  0.00000000E+00  0.00000000E+00  0.00000000E+00
  0.00000000E+00  0.00000000E+00  0.00000000E+00
  0.00000000E+00  0.00000000E+00  0.00000000E+00
  0.00000000E+00  0.00000000E+00  0.00000000E+00
  0.00000000E+00  0.00000000E+00  0.00000000E+00
  0.00000000E+00  0.00000000E+00  0.00000000E+00
  0.00000000E+00  0.00000000E+00  0.00000000E+00
  0.00000000E+00  0.00000000E+00  0.00000000E+00
  0.00000000E+00  0.00000000E+00  0.00000000E+00
  0.00000000E+00  0.00000000E+00  0.00000000E+00
  0.00000000E+00  0.00000000E+00  0.00000000E+00
  0.00000000E+00  0.00000000E+00  0.00000000E+00
  0.00000000E+00  0.00000000E+00  0.00000000E+00
  0.00000000E+00  0.00000000E+00  0.00000000E+00
  0.00000000E+00  0.00000000E+00  0.00000000E+00
  0.00000000E+00  0.00000000E+00  0.00000000E+00
  0.00000000E+00  0.00000000E+00  0.00000000E+00
  0.00000000E+00  0.00000000E+00  0.00000000E+00
  0.00000000E+00  0.00000000E+00  0.00000000E+00
  0.00000000E+00  0.00000000E+00  0.00000000E+00
  0.00000000E+00  0.00000000E+00  0.00000000E+00
  0.00000000E+00  0.00000000E+00  0.00000000E+00
  0.00000000E+00  0.00000000E+00  0.00000000E+00
  0.00000000E+00  0.00000000E+00  0.00000000E+00
  0.00000000E+00  0.00000000E+00  0.00000000E+00
  0.00000000E+00  0.00000000E+00  0.00000000E+00
  0.00000000E+00  0.00000000E+00  0.00000000E+00
  0.00000000E+00  0.00000000E+00  0.00000000E+00
  0.00000000E+00  0.00000000E+00  0.00000000E+00
  0.00000000E+00  0.00000000E+00  0.00000000E+00
  0.00000000E+00  0.00000000E+00  0.00000000E+00
  0.00000000E+00  0.00000000E+00  0.00000000E+00
  0.00000000E+00  0.00000000E+00  0.00000000E+00
  0.00000000E+00  0.00000000E+00  0.00000000E+00
  0.00000000E+00  0.00000000E+00  0.00000000E+00
  0.00000000E+00  0.00000000E+00  0.00000000E+00
  0.00000000E+00  0.00000000E+00  0.00000000E+00
  0.00000000E+00  0.00000000E+00  0.00000000E+00
  0.00000000E+00  0.00000000E+00  0.00000000E+00
  0.00000000E+00  0.00000000E+00  0.00000000E+00
  0.00000000E+00  0.00000000E+00  0.00000000E+00
  0.00000000E+00  0.00000000E+00  0.00000000E+00
  0.00000000E+00  0.00000000E+00  0.00000000E+00
  0.00000000E+00  0.00000000E+00  0.00000000E+00
  0.00000000E+00  0.00000000E+00  0.00000000E+00
  0.00000000E+00  0.00000000E+00  0.00000000E+00
  0.00000000E+00  0.00000000E+00  0.00000000E+00
  0.00000000E+00  0.00000000E+00  0.00000000E+00
  0.00000000E+00  0.00000000E+00  0.00000000E+00
  0.00000000E+00  0.00000000E+00  0.00000000E+00
  0.00000000E+00  0.00000000E+00  0.00000000E+00
  0.00000000E+00  0.00000000E+00  0.00000000E+00
  0.00000000E+00  0.00000000E+00  0.00000000E+00
  0.00000000E+00  0.00000000E+00  0.00000000E+00
  0.00000000E+00  0.00000000E+00  0.00000000E+00
  0.00000000E+00  0.00000000E+00  0.00000000E+00
  0.00000000E+00  0.00000000E+00  0.00000000E+00
  0.00000000E+00  0.00000000E+00  0.00000000E+00
  0.00000000E+00  0.00000000E+00  0.00000000E+00
  0.00000000E+00  0.00000000E+00  0.00000000E+00
  0.00000000E+00  0.00000000E+00  0.00000000E+00
  0.00000000E+00  0.00000000E+00  0.00000000E+00
  0.00000000E+00  0.00000000E+00  0.00000000E+00
  0.00000000E+00  0.00000000E+00  0.00000000E+00
  0.00000000E+00  0.00000000E+00  0.00000000E+00
  0.00000000E+00  0.00000000E+00  0.00000000E+00
  0.00000000E+00  0.00000000E+00  0.00000000E+00
  0.00000000E+00  0.00000000E+00  0.00000000E+00
  0.00000000E+00  0.00000000E+00  0.00000000E+00
  0.00000000E+00  0.00000000E+00  0.00000000E+00
  0.00000000E+00  0.00000000E+00  0.00000000E+00
  0.00000000E+00  0.00000000E+00  0.00000000E+00
  0.00000000E+00  0.00000000E+00  0.00000000E+00
  0.00000000E+00  0.00000000E+00  0.00000000E+00
  0.00000000E+00  0.00000000E+00  0.00000000E+00
  0.00000000E+00  0.00000000E+00  0.00000000E+00
  0.00000000E+00  0.00000000E+00  0.00000000E+00
  0.00000000E+00  0.00000000E+00  0.00000000E+00
  0.00000000E+00  0.00000000E+00  0.00000000E+00
  0.00000000E+00  0.00000000E+00  0.00000000E+00
  0.00000000E+00  0.00000000E+00  0.00000000E+00
  0.00000000E+00  0.00000000E+00  0.00000000E+00
  0.00000000E+00  0.00000000E+00  0.00000000E+00
  0.00000000E+00  0.00000000E+00  0.00000000E+00
  0.00000000E+00  0.00000000E+00  0.00000000E+00
  0.00000000E+00  0.00000000E+00  0.00000000E+00
  0.00000000E+00  0.00000000E+00  0.00000000E+00
  0.00000000E+00  0.00000000E+00  0.00000000E+00
  0.00000000E+00  0.00000000E+00  0.00000000E+00
  0.00000000E+00  0.00000000E+00  0.00000000E+00
  0.00000000E+00  0.00000000E+00  0.00000000E+00
  0.00000000E+00  0.00000000E+00  0.00000000E+00
  0.00000000E+00  0.00000000E+00  0.00000000E+00
  0.00000000E+00  0.00000000E+00  0.00000000E+00
  0.00000000E+00  0.00000000E+00  0.00000000E+00
  0.00000000E+00  0.00000000E+00  0.00000000E+00
  0.00000000E+00  0.00000000E+00  0.00000000E+00
  0.00000000E+00  0.00000000E+00  0.00000000E+00
  0.00000000E+00  0.00000000E+00  0.00000000E+00
  0.00000000E+00  0.00000000E+00  0.00000000E+00
  0.00000000E+00  0.00000000E+00  0.00000000E+00
  0.00000000E+00  0.00000000E+00  0.00000000E+00
  0.00000000E+00  0.00000000E+00  0.00000000E+00
  0.00000000E+00  0.00000000E+00  0.00000000E+00
  0.00000000E+00  0.00000000E+00  0.00000000E+00
  0.00000000E+00  0.00000000E+00  0.00000000E+00
  0.00000000E+00  0.00000000E+00  0.00000000E+00
  0.00000000E+00  0.00000000E+00  0.00000000E+00
  0.00000000E+00  0.00000000E+00  0.00000000E+00
  0.00000000E+00  0.00000000E+00  0.00000000E+00
  0.00000000E+00  0.00000000E+00  0.00000000E+00
  0.00000000E+00  0.00000000E+00  0.00000000E+00
  0.00000000E+00  0.00000000E+00  0.00000000E+00
  0.00000000E+00  0.00000000E+00  0.00000000E+00
  0.00000000E+00  0.00000000E+00  0.00000000E+00
  0.00000000E+00  0.00000000E+00  0.00000000E+00
  0.00000000E+00  0.00000000E+00  0.00000000E+00
  0.00000000E+00  0.00000000E+00  0.00000000E+00
  0.00000000E+00  0.00000000E+00  0.00000000E+00
  0.00000000E+00  0.00000000E+00  0.00000000E+00
  0.00000000E+00  0.00000000E+00  0.00000000E+00
  0.00000000E+00  0.00000000E+00  0.00000000E+00
  0.00000000E+00  0.00000000E+00  0.00000000E+00
  0.00000000E+00  0.00000000E+00  0.00000000E+00
  0.00000000E+00  0.00000000E+00  0.00000000E+00
  0.00000000E+00  0.00000000E+00  0.00000000E+00
  0.00000000E+00  0.00000000E+00  0.00000000E+00
  0.00000000E+00  0.00000000E+00  0.00000000E+00
  0.00000000E+00  0.00000000E+00  0.00000000E+00
  0.00000000E+00  0.00000000E+00  0.00000000E+00
  0.00000000E+00  0.00000000E+00  0.00000000E+00
  0.00000000E+00  0.00000000E+00  0.00000000E+00
  0.00000000E+00  0.00000000E+00  0.00000000E+00
  0.00000000E+00  0.00000000E+00  0.00000000E+00
  0.00000000E+00  0.00000000E+00  0.00000000E+00
  0.00000000E+00  0.00000000E+00  0.00000000E+00
  0.00000000E+00  0.00000000E+00  0.00000000E+00
  0.00000000E+00  0.00000000E+00  0.00000000E+00
  0.00000000E+00  0.00000000E+00  0.00000000E+00
  0.00000000E+00  0.00000000E+00  0.00000000E+00
  0.00000000E+00  0.00000000E+00  0.00000000E+00
  0.00000000E+00  0.00000000E+00  0.00000000E+00
  0.00000000E+00  0.00000000E+00  0.00000000E+00
  0.00000000E+00  0.00000000E+00  0.00000000E+00
  0.00000000E+00  0.00000000E+00  0.00000000E+00
  0.00000000E+00  0.00000000E+00  0.00000000E+00
  0.00000000E+00  0.00000000E+00  0.00000000E+00
  0.00000000E+00  0.00000000E+00  0.00000000E+00
  0.00000000E+00  0.00000000E+00  0.00000000E+00
  0.00000000E+00  0.00000000E+00  0.00000000E+00
  0.00000000E+00  0.00000000E+00  0.00000000E+00
  0.00000000E+00  0.00000000E+00  0.00000000E+00
  0.00000000E+00  0.00000000E+00  0.00000000E+00
  0.00000000E+00  0.00000000E+00  0.00000000E+00
  0.00000000E+00  0.00000000E+00  0.00000000E+00
  0.00000000E+00  0.00000000E+00  0.00000000E+00
  0.00000000E+00  0.00000000E+00  0.00000000E+00
  0.00000000E+00  0.00000000E+00  0.00000000E+00
  0.00000000E+00  0.00000000E+00  0.00000000E+00
  0.00000000E+00  0.00000000E+00  0.00000000E+00
  0.00000000E+00  0.00000000E+00  0.00000000E+00
  0.00000000E+00  0.00000000E+00  0.00000000E+00
  0.00000000E+00  0.00000000E+00  0.00000000E+00
  0.00000000E+00  0.00000000E+00  0.00000000E+00
  0.00000000E+00  0.00000000E+00  0.00000000E+00
  0.00000000E+00  0.00000000E+00  0.00000000E+00
  0.00000000E+00  0.00000000E+00  0.00000000E+00
  0.00000000E+00  0.00000000E+00  0.00000000E+00
  0.00000000E+00  0.00000000E+00  0.00000000E+00
  0.00000000E+00  0.00000000E+00  0.00000000E+00
  0.00000000E+00  0.00000000E+00  0.00000000E+00
  0.00000000E+00  0.00000000E+00  0.00000000E+00
  0.00000000E+00  0.00000000E+00  0.00000000E+00
  0.00000000E+00  0.00000000E+00  0.00000000E+00
  0.00000000E+00  0.00000000E+00  0.00000000E+00
  0.00000000E+00  0.00000000E+00  0.00000000E+00
  0.00000000E+00  0.00000000E+00  0.00000000E+00
  0.00000000E+00  0.00000000E+00  0.00000000E+00
  0.00000000E+00  0.00000000E+00  0.00000000E+00
  0.00000000E+00  0.00000000E+00  0.00000000E+00
  0.00000000E+00  0.00000000E+00  0.00000000E+00
  0.00000000E+00  0.00000000E+00  0.00000000E+00
  0.00000000E+00  0.00000000E+00  0.00000000E+00
  0.00000000E+00  0.00000000E+00  0.00000000E+00
  0.00000000E+00  0.00000000E+00  0.00000000E+00
  0.00000000E+00  0.00000000E+00  0.00000000E+00
  0.00000000E+00  0.00000000E+00  0.00000000E+00
