Ta  N Ru Cu                             
   1.00000000000000     
     9.0548154099999998    0.0000000000000000    0.0000000000000000
     0.0000000000000000   11.6775998899999998    0.0000000000000000
     0.0000000000000000    0.0000000000000000   26.4818170799999990
   Ta   N    Ru   Cu
    60    60    32     2
Selective dynamics
Direct
  0.0000000000000000  0.0000000000000000  0.2258397498815228   F   F   F
  0.6670845899906297  0.1250000003211298  0.2339882671631202   F   F   F
  0.3329153514769843  0.1250000003211298  0.2339882671631202   F   F   F
  0.4999999994478088  0.2499999997859135  0.3208898207564346   F   F   F
  0.1650707596845180  0.1250000003211298  0.3267034403329916   F   F   F
  0.8349292403154820  0.1250000003211298  0.3267034403329916   F   F   F
  0.0009704448699376  0.2498842745283951  0.4254679322852808   T   T   T
  0.6649609459900873  0.1249861482714150  0.4239849250646933   T   T   T
  0.3352447870378674  0.1249714884387421  0.4239180365849130   T   T   T
  0.4983270706079156  0.2498300608361432  0.5232232699118433   T   T   T
  0.1676561774746005  0.1248390328105449  0.5234524735178466   T   T   T
  0.8342496131257429  0.1248958972328376  0.5229357997698912   T   T   T
  0.0039441284903168  0.2499557003406943  0.6223359849565623   T   T   T
  0.6645729170747372  0.1252143083005255  0.6210837663786584   T   T   T
  0.3289952333365467  0.1249584623984934  0.6244923303120303   T   T   T
  0.0000000000000000  0.2499999997859135  0.2258397498815228   F   F   F
  0.6670845899906297  0.3750000001070433  0.2339882671631202   F   F   F
  0.3329153514769843  0.3750000001070433  0.2339882671631202   F   F   F
  0.4999999994478088  0.5000000004281731  0.3208898207564346   F   F   F
  0.1650707596845180  0.3750000001070433  0.3267034403329916   F   F   F
  0.8349292403154820  0.3750000001070433  0.3267034403329916   F   F   F
  0.0008940995046398  0.4999672337409188  0.4254440115677938   T   T   T
  0.6651516210635724  0.3749579598622906  0.4239872208571785   T   T   T
  0.3353350967526669  0.3749767422260046  0.4238991928090996   T   T   T
  0.4981193504558449  0.4999514419232218  0.5231620189929367   T   T   T
  0.1671729125794729  0.3749081472395269  0.5233638912458896   T   T   T
  0.8342716825474729  0.3749924477894779  0.5227526152141297   T   T   T
  0.9975625510354830  0.4993551510065360  0.6238796085421289   T   T   T
  0.6653017057864443  0.3752202100740781  0.6199741613452979   T   T   T
  0.3298268739079341  0.3743599149463264  0.6231245618929543   T   T   T
  0.0000000000000000  0.5000000004281731  0.2258397498815228   F   F   F
  0.6670845899906297  0.6249999998929567  0.2339882671631202   F   F   F
  0.3329153514769843  0.6249999998929567  0.2339882671631202   F   F   F
  0.4999999994478088  0.7500000002140865  0.3208898207564346   F   F   F
  0.1650707596845180  0.6249999998929567  0.3267034403329916   F   F   F
  0.8349292403154820  0.6249999998929567  0.3267034403329916   F   F   F
  0.0009463844781911  0.7499691457851988  0.4254727176644214   T   T   T
  0.6649949082108317  0.6249809716087474  0.4239564457326342   T   T   T
  0.3351886203713148  0.6249496842352651  0.4239137082210473   T   T   T
  0.4981559773257008  0.7499624824382655  0.5230510685548003   T   T   T
  0.1673491004183994  0.6248434033474747  0.5233686334416552   T   T   T
  0.8342468032056173  0.6248986703725629  0.5227418837550757   T   T   T
  0.0037131736563922  0.7500612951353716  0.6222002042284838   T   T   T
  0.6641113614329996  0.6250814807483808  0.6203420814848333   T   T   T
  0.3285896975965456  0.6248729494010220  0.6241407282685741   T   T   T
  0.0000000000000000  0.7500000002140865  0.2258397498815228   F   F   F
  0.6670845899906297  0.8750000005352163  0.2339882671631202   F   F   F
  0.3329153514769843  0.8750000005352163  0.2339882671631202   F   F   F
  0.4999999994478088  0.0000000000000000  0.3208898207564346   F   F   F
  0.1650707596845180  0.8750000005352163  0.3267034403329916   F   F   F
  0.8349292403154820  0.8750000005352163  0.3267034403329916   F   F   F
  0.0008965256902435  0.0000478083311493  0.4254927028689615   T   T   T
  0.6651769666255215  0.8750164084805691  0.4239782935501963   T   T   T
  0.3353516795806434  0.8749675649342143  0.4238714224569777   T   T   T
  0.4985222323228786  0.0000111241137625  0.5232392894128512   T   T   T
  0.1672192977548064  0.8749620180872300  0.5233081083558242   T   T   T
  0.8342297122219543  0.8751156260148324  0.5227804303594498   T   T   T
 -0.0016541150212854 -0.0003403082561216  0.6236260456224960   T   T   T
  0.6659533718265762  0.8750783837278706  0.6201443094096707   T   T   T
  0.3307686224829761  0.8747456795062934  0.6229859128763084   T   T   T
  0.8141011533980276  0.0000000000000000  0.2671765160246267   F   F   F
  0.4999999994478088  0.0000000000000000  0.2273691263583544   F   F   F
  0.1858988466019724  0.0000000000000000  0.2671765160246267   F   F   F
  0.3088456122590841  0.2499999997859135  0.3635413069267344   F   F   F
  0.0000000000000000  0.2499999997859135  0.3485649890092901   F   F   F
  0.6911543877409159  0.2499999997859135  0.3635413069267344   F   F   F
  0.8027261342058648  0.2498510277587083  0.4627153308701801   T   T   T
  0.5000053542692663  0.2499939575520196  0.4456516216491370   T   T   T
  0.1988543898145222  0.2499663515278335  0.4632193059421902   T   T   T
  0.3027103782888257  0.2493564480103977  0.5627903141737904   T   T   T
  0.0009125926408263  0.2499380837424066  0.5439082166093951   T   T   T
  0.6960482816944059  0.2494829708208151  0.5603493221021841   T   T   T
  0.8049417589796062  0.2516337121264416  0.6554937177642548   T   T   T
  0.5027585223145452  0.2502868582418982  0.6432879944760672   T   T   T
  0.1985473752385242  0.2505155464218408  0.6599631815037713   T   T   T
  0.8141011533980276  0.2499999997859135  0.2671765160246267   F   F   F
  0.4999999994478088  0.2499999997859135  0.2273691263583544   F   F   F
  0.1858988466019724  0.2499999997859135  0.2671765160246267   F   F   F
  0.3088456122590841  0.5000000004281731  0.3635413069267344   F   F   F
  0.0000000000000000  0.5000000004281731  0.3485649890092901   F   F   F
  0.6911543877409159  0.5000000004281731  0.3635413069267344   F   F   F
  0.8027954422988417  0.4999903536322547  0.4626799358184382   T   T   T
  0.4999983728601500  0.4999445989145966  0.4456386062642619   T   T   T
  0.1986015191377430  0.4998605279690232  0.4631990028019477   T   T   T
  0.3020813051388880  0.5000443815201813  0.5622758380773177   T   T   T
  0.0002626681028468  0.4999307872724469  0.5447213392349671   T   T   T
  0.6964264474099444  0.5002504809205589  0.5603150917290654   T   T   T
  0.7969125055433622  0.5004412264531304  0.6594500475300447   T   T   T
  0.5000967258843645  0.4994484802404380  0.6394932811524501   T   T   T
  0.1973835764223705  0.4986358555889420  0.6586019205177295   T   T   T
  0.8141011533980276  0.5000000004281731  0.2671765160246267   F   F   F
  0.4999999994478088  0.5000000004281731  0.2273691263583544   F   F   F
  0.1858988466019724  0.5000000004281731  0.2671765160246267   F   F   F
  0.3088456122590841  0.7500000002140865  0.3635413069267344   F   F   F
  0.0000000000000000  0.7500000002140865  0.3485649890092901   F   F   F
  0.6911543877409159  0.7500000002140865  0.3635413069267344   F   F   F
  0.8027439811896743  0.7499732935335405  0.4626243986196062   T   T   T
  0.4999749478457383  0.7500109900016431  0.4455591835589822   T   T   T
  0.1988385722570523  0.7499919215675180  0.4631694638861037   T   T   T
  0.3026084394104267  0.7495536985501148  0.5626406294513484   T   T   T
  0.0008293321918818  0.7499125119461094  0.5437881988259747   T   T   T
  0.6960323379386060  0.7498611766322454  0.5599965977103974   T   T   T
  0.8039678459947593  0.7493326666601136  0.6548975537228062   T   T   T
  0.5026233377243299  0.7503162247120311  0.6427313575618004   T   T   T
  0.1989411201626865  0.7508987223072562  0.6595964618939961   T   T   T
  0.8141011533980276  0.7500000002140865  0.2671765160246267   F   F   F
  0.4999999994478088  0.7500000002140865  0.2273691263583544   F   F   F
  0.1858988466019724  0.7500000002140865  0.2671765160246267   F   F   F
  0.3088456122590841  0.0000000000000000  0.3635413069267344   F   F   F
  0.0000000000000000  0.0000000000000000  0.3485649890092901   F   F   F
  0.6911543877409159  0.0000000000000000  0.3635413069267344   F   F   F
  0.8027893260646478  0.0000937724711063  0.4627440386608438   T   T   T
  0.5000484617735053 -0.0000401815440822  0.4456736370952579   T   T   T
  0.1986709727455396 -0.0000525649795322  0.4631870223882859   T   T   T
  0.3026739262073970  0.0001489233162562  0.5623337258816148   T   T   T
  0.0004900181436044  0.0000144721213793  0.5445915918976056   T   T   T
  0.6964825894368327  0.0005389322550640  0.5606158841260165   T   T   T
  0.7987960701751333  0.0006217590590252  0.6596183891662646   T   T   T
  0.5010231663978501 -0.0003915564927009  0.6404351150213449   T   T   T
  0.1980267698502271  0.9987592191188714  0.6582821109342382   T   T   T
  0.1068619576281016  0.0094892803853575  0.7302904857261082   T   T   T
  0.5770075400147628  0.9904146262229453  0.7138587789922372   T   T   T
  0.8581350062750777  0.1345065334846281  0.7131077222179375   T   T   T
  0.1035460510338534  0.5092278621599915  0.7306361044605471   T   T   T
  0.5767441012411259  0.4949194809540208  0.7124240272013299   T   T   T
  0.8577834661686520  0.6348195793290067  0.7135139202443187   T   T   T
  0.1146839261799427  0.2403380506274304  0.7333402966347616   T   T   T
  0.5587640401175217  0.2589581104199676  0.7207166082964326   T   T   T
  0.8557831428969449  0.3644677289918769  0.7139239385334953   T   T   T
  0.1143792552674375  0.7418952655432728  0.7323692033872022   T   T   T
  0.5602968281895383  0.7596703140094024  0.7198619043410955   T   T   T
  0.8581006990037500  0.8653632393844498  0.7124843391972993   T   T   T
  0.3388656231478363  0.8876408156333387  0.7390750942736002   T   T   T
  0.3568873961750128  0.6134685167590656  0.7439370392334954   T   T   T
  0.3373166161919837  0.3912478300922036  0.7379952478459705   T   T   T
  0.3589836872253296  0.1109707938288585  0.7459990583775095   T   T   T
  0.1488390632962344  0.8791584470392585  0.8060686905033009   T   T   T
  0.6641703258448370  0.8853253541611440  0.7947365577063342   T   T   T
  0.9006738617519681  0.0066791878577904  0.7923780469265627   T   T   T
  0.1495717379652172  0.3803586832194381  0.8061672561954216   T   T   T
  0.6656310458373685  0.3927206272947766  0.7925458550033820   T   T   T
  0.9001256176787773  0.5171257382230625  0.7956175187205589   T   T   T
  0.1513877355982482  0.1167090211915719  0.8115437709179026   T   T   T
  0.6437855122973304  0.1116777683351857  0.7919898624171592   T   T   T
  0.8970182859415720  0.2410179594262799  0.7960594389539067   T   T   T
  0.1538854983067088  0.6199561361499306  0.8102507531071561   T   T   T
  0.6469466069706051  0.6144654744913949  0.7899373558961746   T   T   T
  0.8979452381647969  0.7426107587329566  0.7947807411155051   T   T   T
  0.4257552966158709  0.7604689612856220  0.8095779332776750   T   T   T
  0.4039289245739922  0.4843887756748803  0.8195460561157917   T   T   T
  0.4220116188207313  0.2660261775395699  0.8087670056932802   T   T   T
  0.4067784162058877  0.9743767344507561  0.8211531852657377   T   T   T
  0.6513203840441669  0.2596195462109880  0.8657767411378303   T   T   T
  0.8230257261636049  0.1019600379127700  0.8712246136154186   T   T   T
 
  0.00000000E+00  0.00000000E+00  0.00000000E+00
  0.00000000E+00  0.00000000E+00  0.00000000E+00
  0.00000000E+00  0.00000000E+00  0.00000000E+00
  0.00000000E+00  0.00000000E+00  0.00000000E+00
  0.00000000E+00  0.00000000E+00  0.00000000E+00
  0.00000000E+00  0.00000000E+00  0.00000000E+00
  0.00000000E+00  0.00000000E+00  0.00000000E+00
  0.00000000E+00  0.00000000E+00  0.00000000E+00
  0.00000000E+00  0.00000000E+00  0.00000000E+00
  0.00000000E+00  0.00000000E+00  0.00000000E+00
  0.00000000E+00  0.00000000E+00  0.00000000E+00
  0.00000000E+00  0.00000000E+00  0.00000000E+00
  0.00000000E+00  0.00000000E+00  0.00000000E+00
  0.00000000E+00  0.00000000E+00  0.00000000E+00
  0.00000000E+00  0.00000000E+00  0.00000000E+00
  0.00000000E+00  0.00000000E+00  0.00000000E+00
  0.00000000E+00  0.00000000E+00  0.00000000E+00
  0.00000000E+00  0.00000000E+00  0.00000000E+00
  0.00000000E+00  0.00000000E+00  0.00000000E+00
  0.00000000E+00  0.00000000E+00  0.00000000E+00
  0.00000000E+00  0.00000000E+00  0.00000000E+00
  0.00000000E+00  0.00000000E+00  0.00000000E+00
  0.00000000E+00  0.00000000E+00  0.00000000E+00
  0.00000000E+00  0.00000000E+00  0.00000000E+00
  0.00000000E+00  0.00000000E+00  0.00000000E+00
  0.00000000E+00  0.00000000E+00  0.00000000E+00
  0.00000000E+00  0.00000000E+00  0.00000000E+00
  0.00000000E+00  0.00000000E+00  0.00000000E+00
  0.00000000E+00  0.00000000E+00  0.00000000E+00
  0.00000000E+00  0.00000000E+00  0.00000000E+00
  0.00000000E+00  0.00000000E+00  0.00000000E+00
  0.00000000E+00  0.00000000E+00  0.00000000E+00
  0.00000000E+00  0.00000000E+00  0.00000000E+00
  0.00000000E+00  0.00000000E+00  0.00000000E+00
  0.00000000E+00  0.00000000E+00  0.00000000E+00
  0.00000000E+00  0.00000000E+00  0.00000000E+00
  0.00000000E+00  0.00000000E+00  0.00000000E+00
  0.00000000E+00  0.00000000E+00  0.00000000E+00
  0.00000000E+00  0.00000000E+00  0.00000000E+00
  0.00000000E+00  0.00000000E+00  0.00000000E+00
  0.00000000E+00  0.00000000E+00  0.00000000E+00
  0.00000000E+00  0.00000000E+00  0.00000000E+00
  0.00000000E+00  0.00000000E+00  0.00000000E+00
  0.00000000E+00  0.00000000E+00  0.00000000E+00
  0.00000000E+00  0.00000000E+00  0.00000000E+00
  0.00000000E+00  0.00000000E+00  0.00000000E+00
  0.00000000E+00  0.00000000E+00  0.00000000E+00
  0.00000000E+00  0.00000000E+00  0.00000000E+00
  0.00000000E+00  0.00000000E+00  0.00000000E+00
  0.00000000E+00  0.00000000E+00  0.00000000E+00
  0.00000000E+00  0.00000000E+00  0.00000000E+00
  0.00000000E+00  0.00000000E+00  0.00000000E+00
  0.00000000E+00  0.00000000E+00  0.00000000E+00
  0.00000000E+00  0.00000000E+00  0.00000000E+00
  0.00000000E+00  0.00000000E+00  0.00000000E+00
  0.00000000E+00  0.00000000E+00  0.00000000E+00
  0.00000000E+00  0.00000000E+00  0.00000000E+00
  0.00000000E+00  0.00000000E+00  0.00000000E+00
  0.00000000E+00  0.00000000E+00  0.00000000E+00
  0.00000000E+00  0.00000000E+00  0.00000000E+00
  0.00000000E+00  0.00000000E+00  0.00000000E+00
  0.00000000E+00  0.00000000E+00  0.00000000E+00
  0.00000000E+00  0.00000000E+00  0.00000000E+00
  0.00000000E+00  0.00000000E+00  0.00000000E+00
  0.00000000E+00  0.00000000E+00  0.00000000E+00
  0.00000000E+00  0.00000000E+00  0.00000000E+00
  0.00000000E+00  0.00000000E+00  0.00000000E+00
  0.00000000E+00  0.00000000E+00  0.00000000E+00
  0.00000000E+00  0.00000000E+00  0.00000000E+00
  0.00000000E+00  0.00000000E+00  0.00000000E+00
  0.00000000E+00  0.00000000E+00  0.00000000E+00
  0.00000000E+00  0.00000000E+00  0.00000000E+00
  0.00000000E+00  0.00000000E+00  0.00000000E+00
  0.00000000E+00  0.00000000E+00  0.00000000E+00
  0.00000000E+00  0.00000000E+00  0.00000000E+00
  0.00000000E+00  0.00000000E+00  0.00000000E+00
  0.00000000E+00  0.00000000E+00  0.00000000E+00
  0.00000000E+00  0.00000000E+00  0.00000000E+00
  0.00000000E+00  0.00000000E+00  0.00000000E+00
  0.00000000E+00  0.00000000E+00  0.00000000E+00
  0.00000000E+00  0.00000000E+00  0.00000000E+00
  0.00000000E+00  0.00000000E+00  0.00000000E+00
  0.00000000E+00  0.00000000E+00  0.00000000E+00
  0.00000000E+00  0.00000000E+00  0.00000000E+00
  0.00000000E+00  0.00000000E+00  0.00000000E+00
  0.00000000E+00  0.00000000E+00  0.00000000E+00
  0.00000000E+00  0.00000000E+00  0.00000000E+00
  0.00000000E+00  0.00000000E+00  0.00000000E+00
  0.00000000E+00  0.00000000E+00  0.00000000E+00
  0.00000000E+00  0.00000000E+00  0.00000000E+00
  0.00000000E+00  0.00000000E+00  0.00000000E+00
  0.00000000E+00  0.00000000E+00  0.00000000E+00
  0.00000000E+00  0.00000000E+00  0.00000000E+00
  0.00000000E+00  0.00000000E+00  0.00000000E+00
  0.00000000E+00  0.00000000E+00  0.00000000E+00
  0.00000000E+00  0.00000000E+00  0.00000000E+00
  0.00000000E+00  0.00000000E+00  0.00000000E+00
  0.00000000E+00  0.00000000E+00  0.00000000E+00
  0.00000000E+00  0.00000000E+00  0.00000000E+00
  0.00000000E+00  0.00000000E+00  0.00000000E+00
  0.00000000E+00  0.00000000E+00  0.00000000E+00
  0.00000000E+00  0.00000000E+00  0.00000000E+00
  0.00000000E+00  0.00000000E+00  0.00000000E+00
  0.00000000E+00  0.00000000E+00  0.00000000E+00
  0.00000000E+00  0.00000000E+00  0.00000000E+00
  0.00000000E+00  0.00000000E+00  0.00000000E+00
  0.00000000E+00  0.00000000E+00  0.00000000E+00
  0.00000000E+00  0.00000000E+00  0.00000000E+00
  0.00000000E+00  0.00000000E+00  0.00000000E+00
  0.00000000E+00  0.00000000E+00  0.00000000E+00
  0.00000000E+00  0.00000000E+00  0.00000000E+00
  0.00000000E+00  0.00000000E+00  0.00000000E+00
  0.00000000E+00  0.00000000E+00  0.00000000E+00
  0.00000000E+00  0.00000000E+00  0.00000000E+00
  0.00000000E+00  0.00000000E+00  0.00000000E+00
  0.00000000E+00  0.00000000E+00  0.00000000E+00
  0.00000000E+00  0.00000000E+00  0.00000000E+00
  0.00000000E+00  0.00000000E+00  0.00000000E+00
  0.00000000E+00  0.00000000E+00  0.00000000E+00
  0.00000000E+00  0.00000000E+00  0.00000000E+00
  0.00000000E+00  0.00000000E+00  0.00000000E+00
  0.00000000E+00  0.00000000E+00  0.00000000E+00
  0.00000000E+00  0.00000000E+00  0.00000000E+00
  0.00000000E+00  0.00000000E+00  0.00000000E+00
  0.00000000E+00  0.00000000E+00  0.00000000E+00
  0.00000000E+00  0.00000000E+00  0.00000000E+00
  0.00000000E+00  0.00000000E+00  0.00000000E+00
  0.00000000E+00  0.00000000E+00  0.00000000E+00
  0.00000000E+00  0.00000000E+00  0.00000000E+00
  0.00000000E+00  0.00000000E+00  0.00000000E+00
  0.00000000E+00  0.00000000E+00  0.00000000E+00
  0.00000000E+00  0.00000000E+00  0.00000000E+00
  0.00000000E+00  0.00000000E+00  0.00000000E+00
  0.00000000E+00  0.00000000E+00  0.00000000E+00
  0.00000000E+00  0.00000000E+00  0.00000000E+00
  0.00000000E+00  0.00000000E+00  0.00000000E+00
  0.00000000E+00  0.00000000E+00  0.00000000E+00
  0.00000000E+00  0.00000000E+00  0.00000000E+00
  0.00000000E+00  0.00000000E+00  0.00000000E+00
  0.00000000E+00  0.00000000E+00  0.00000000E+00
  0.00000000E+00  0.00000000E+00  0.00000000E+00
  0.00000000E+00  0.00000000E+00  0.00000000E+00
  0.00000000E+00  0.00000000E+00  0.00000000E+00
  0.00000000E+00  0.00000000E+00  0.00000000E+00
  0.00000000E+00  0.00000000E+00  0.00000000E+00
  0.00000000E+00  0.00000000E+00  0.00000000E+00
  0.00000000E+00  0.00000000E+00  0.00000000E+00
  0.00000000E+00  0.00000000E+00  0.00000000E+00
  0.00000000E+00  0.00000000E+00  0.00000000E+00
  0.00000000E+00  0.00000000E+00  0.00000000E+00
  0.00000000E+00  0.00000000E+00  0.00000000E+00
  0.00000000E+00  0.00000000E+00  0.00000000E+00
  0.00000000E+00  0.00000000E+00  0.00000000E+00
  0.00000000E+00  0.00000000E+00  0.00000000E+00
