Ru Ta  N  Cu                            
   1.00000000000000     
    18.1096308199999996    0.0000000000000000    0.0000000000000000
     0.0000000000000000   23.3551997799999995    0.0000000000000000
     0.0000000000000000    0.0000000000000000   32.4818170799999990
   Ru   Ta   N    Cu
   128   240   240     1
Selective dynamics
Direct
  0.0302194117063695  0.0074325265041602  0.4472815919551700   T   T   T
  0.2801298705621567  0.5005253766390926  0.4392986292482406   T   T   T
  0.4256992029284022  0.0645055821681807  0.4334256083429656   T   T   T
  0.0449300041749122  0.2546913497055113  0.4478686916245813   T   T   T
  0.2752831296083286  0.2407961105835591  0.4388582154797465   T   T   T
  0.4172794482587155  0.3173769994394099  0.4340498440065093   T   T   T
  0.0323792938479809  0.1241225011836573  0.4488223961763064   T   T   T
  0.2783686106250010  0.1255685963964987  0.4397177021110290   T   T   T
  0.4244027064768724  0.1881371550800519  0.4336485565643854   T   T   T
  0.0484292410684918  0.3694640341663922  0.4483818756668649   T   T   T
  0.2731001759660024  0.3838625113661089  0.4391498040262307   T   T   T
  0.4204490450700396  0.4370009910413997  0.4326104118909319   T   T   T
  0.1540552117952707  0.4459518644912406  0.4479428513941995   T   T   T
  0.1722294063943544  0.3098386880955674  0.4590495594548308   T   T   T
  0.1547390582984430  0.1829916698397457  0.4500124573498278   T   T   T
  0.1543202545764182  0.0660906179606714  0.4495311290571208   T   T   T
  0.0660151295596468  0.4382558959203237  0.5074836630236058   T   T   T
  0.3272589296326259  0.4376070534683402  0.4996205357981131   T   T   T
  0.4497265713307927  0.0084448504500312  0.5011089302708606   T   T   T
  0.0652160874019062  0.1918267680491334  0.5087796870193816   T   T   T
  0.3309364271565286  0.1852057065196041  0.4999572938835401   T   T   T
  0.4403531913519818  0.2589947180497509  0.5007371420340812   T   T   T
  0.0626304189409115  0.0621427078237251  0.5097223660631306   T   T   T
  0.3253810323259502  0.0635578593931040  0.4992441515384252   T   T   T
  0.4509919920762973  0.1194446172389587  0.5007488681351282   T   T   T
  0.0711902659889849  0.3104204388892791  0.5122877279746677   T   T   T
  0.3130298056621098  0.3130951004185740  0.4954730873984468   T   T   T
  0.4424730098328283  0.3697873586461575  0.5006657246938874   T   T   T
  0.2000709802724326  0.3899127274104669  0.5086176077276777   T   T   T
  0.2010446823935380  0.2340938780370051  0.5123636749580417   T   T   T
  0.2080568788869643  0.1255109733791497  0.5070091235839874   T   T   T
  0.2074723940637501  0.5004116396493393  0.5068269200433817   T   T   T
  0.0330289031577425  0.5043736505964936  0.4481614219216651   T   T   T
  0.2777771938397855  0.0045621094377868  0.4394082342819929   T   T   T
  0.4253502116686512  0.5614484031087373  0.4339294545246700   T   T   T
  0.0499339824295848  0.7533686553906592  0.4472648345994935   T   T   T
  0.2764645818466411  0.7367802965834628  0.4403872265265413   T   T   T
  0.4046733746567115  0.8153340491399267  0.4355400057601992   T   T   T
  0.0347686147763696  0.6214998981082567  0.4490754149135361   T   T   T
  0.2800027650864291  0.6212437509635818  0.4400748980984592   T   T   T
  0.4189503530027877  0.6854177150249813  0.4334531523694782   T   T   T
  0.0521882086848322  0.8680295797411421  0.4481939637699248   T   T   T
  0.2707957083526645  0.8891193746451448  0.4393846745176542   T   T   T
  0.4155273371026217  0.9371152521403346  0.4338756352918303   T   T   T
  0.1515565751667038  0.9510285163950207  0.4473227260806116   T   T   T
  0.1770029107908611  0.8107632299074411  0.4579856639558648   T   T   T
  0.1562555709001875  0.6773369969642360  0.4492827441016244   T   T   T
  0.1561702064538846  0.5610333558824573  0.4497225743771862   T   T   T
  0.0649232326412985  0.9411697753420288  0.5069155012036080   T   T   T
  0.3257596123638445  0.9427240555456844  0.4999939734379604   T   T   T
  0.4500897988017572  0.5042325818404320  0.5007176393542891   T   T   T
  0.0690666844455357  0.6875356867728439  0.5086568846573830   T   T   T
  0.3310137808147194  0.6787250876181981  0.5006700856885772   T   T   T
  0.4349814964111206  0.7579798917859806  0.5018168739243630   T   T   T
  0.0648022704308109  0.5600487100355874  0.5102657419709605   T   T   T
  0.3267702133310356  0.5609903892318624  0.4994374827584942   T   T   T
  0.4517425685269608  0.6158554613514431  0.5014563279359588   T   T   T
  0.0796676824924280  0.8045940939600981  0.5121862129078836   T   T   T
  0.3073930361060851  0.8151530682155694  0.4947465328110540   T   T   T
  0.4363850509318145  0.8683024851746206  0.5028898920000027   T   T   T
  0.1973310898769120  0.8932459099705206  0.5077814467673594   T   T   T
  0.2037672219572396  0.7317820094103606  0.5102053997634670   T   T   T
  0.2085277717722347  0.6208534969032006  0.5072848225023553   T   T   T
  0.2042768183422135  0.0050853715824643  0.5065971663115260   T   T   T
  0.5490498832076471  0.0043158085943333  0.4470182793788798   T   T   T
  0.7805520520685978  0.4932465489406656  0.4329545082289989   T   T   T
  0.9043792013483926  0.0666046145798483  0.4347719263790388   T   T   T
  0.5418018862250900  0.2598519222822168  0.4488966014505795   T   T   T
  0.7792260838218016  0.2548170555114803  0.4359755705948384   T   T   T
  0.9236712059397342  0.3152288552392709  0.4314458839996171   T   T   T
  0.5541965111560264  0.1212165462047685  0.4483181617520417   T   T   T
  0.7713440607172311  0.1398960426373667  0.4394060439539292   T   T   T
  0.9144368949652819  0.1874035744988475  0.4323398816631442   T   T   T
  0.5497425770903720  0.3755916142812330  0.4486908841533609   T   T   T
  0.7811725657195047  0.3769799655005824  0.4333908811045569   T   T   T
  0.9232155810627887  0.4357233983904245  0.4318115575129924   T   T   T
  0.6756794618242417  0.4369848881873051  0.4641417154995409   T   T   T
  0.6736190886219715  0.3183843278982068  0.4616316081557748   T   T   T
  0.6575227232066261  0.2035192682349405  0.4511331140504524   T   T   T
  0.6765574834652960  0.0597245409207377  0.4570268498547893   T   T   T
  0.5638127770229625  0.4357212963556265  0.5124134349880514   T   T   T
  0.8159400520533103  0.4348039152029585  0.4973810705211131   T   T   T
  0.9336092702325378  0.0096491963448778  0.5013524922227621   T   T   T
  0.5671485868322202  0.1914364577324695  0.5082255976331577   T   T   T
  0.8242015338861839  0.1981577433105365  0.4999183748567581   T   T   T
  0.9419040404834318  0.2614707631937574  0.5001083571009975   T   T   T
  0.5787635328185248  0.0584308570812128  0.5115073996339293   T   T   T
  0.8066295618126093  0.0635433350753808  0.4935585196558789   T   T   T
  0.9332380958925094  0.1207960387475009  0.5017039345573217   T   T   T
  0.5679958751862537  0.3163209175462500  0.5138233948253552   T   T   T
  0.8100427466018348  0.3185104260135126  0.4974569361217601   T   T   T
  0.9417888255105612  0.3715614591687574  0.4993934436206850   T   T   T
  0.6973039505119000  0.3785363797472865  0.5272892243560977   T   T   T
  0.6963696358908118  0.2464847949698581  0.5180901686950240   T   T   T
  0.7009356879463434  0.1392185352127420  0.5085464861252681   T   T   T
  0.6993306342145545  0.4948919865279306  0.5272527611126184   T   T   T
  0.5529223805852047  0.4982085134084166  0.4483054807823120   T   T   T
  0.7763725957104649  0.9855568201484630  0.4394624203629111   T   T   T
  0.9121659467057900  0.5640135568938131  0.4331473943404093   T   T   T
  0.5313068725923523  0.7536966997106381  0.4472573391740509   T   T   T
  0.7789844276738724  0.7497945618865265  0.4390753770875967   T   T   T
  0.9257545875743124  0.8118260240766878  0.4333197722919148   T   T   T
  0.5534483428347875  0.6159320485479599  0.4489114350884665   T   T   T
  0.7721228700128407  0.6307279615222516  0.4392686277776677   T   T   T
  0.9171659075197663  0.6865938679172328  0.4332918678190412   T   T   T
  0.5330096107003067  0.8717136071620429  0.4487234281565803   T   T   T
  0.7793230578897823  0.8706873120228835  0.4396322167123550   T   T   T
  0.9192991979225529  0.9370973280345609  0.4330697187325925   T   T   T
  0.6556269330303977  0.9278552631909617  0.4489508316431478   T   T   T
  0.6550992776162631  0.8112717468170059  0.4488904685149260   T   T   T
  0.6537661730686509  0.6960294600256870  0.4472460190460076   T   T   T
  0.6759927488055820  0.5541824096082382  0.4596786918485400   T   T   T
  0.5681075607221134  0.9392842844806515  0.5079616601555419   T   T   T
  0.8316612765680613  0.9274239997251315  0.5002701563095187   T   T   T
  0.9345412241915579  0.5044002835005252  0.5010907776726812   T   T   T
  0.5674465395298419  0.6894681750874181  0.5070162933647919   T   T   T
  0.8262524500403150  0.6889747777382519  0.4992930227051896   T   T   T
  0.9511490541907733  0.7559924629624364  0.5015511846440336   T   T   T
  0.5751084798402445  0.5537698784435675  0.5133181196245676   T   T   T
  0.8065698919394995  0.5553646845958869  0.4960334004649201   T   T   T
  0.9356159626000131  0.6152622431603266  0.5017774533529227   T   T   T
  0.5658694775067215  0.8086803818679250  0.5094662923889937   T   T   T
  0.8260135356618160  0.8090080325142690  0.4989625632849812   T   T   T
  0.9522791103447747  0.8657487215841390  0.5016534145170236   T   T   T
  0.7078120174465621  0.8705118546169343  0.5065054541013081   T   T   T
  0.7041779828138008  0.7513226735389166  0.5066949312261663   T   T   T
  0.7009764128354061  0.6379818544652536  0.5073380243845554   T   T   T
  0.7050530489432636  0.9815135678047381  0.5097526594448553   T   T   T
  0.0002112439569970  0.0001379294448540  0.0373463921698374   F   F   F
  0.3342257926207992  0.0625994154237475  0.0423987318545187   F   F   F
  0.1660626269271432  0.0626581163633873  0.0424061668450690   F   F   F
  0.2502202084754828  0.1252178855354416  0.1130358333669221   F   F   F
  0.0828588434925734  0.0627073156657261  0.1186643004524512   F   F   F
  0.4176999472490408  0.0627059576615423  0.1186271515872050   F   F   F
  0.0011738537349511  0.1251608179559857  0.1991715108039845   T   T   T
  0.3329374186603919  0.0627687737836902  0.1978055108321912   T   T   T
  0.1682354603908443  0.0627511472662313  0.1977923070651113   T   T   T
  0.2496548227068102  0.1253592839259645  0.2789857990474190   T   T   T
  0.0844226810647593  0.0626545938745746  0.2790468779604521   T   T   T
  0.4173900066505667  0.0628007987897361  0.2784804880652771   T   T   T
  0.0039186191178071  0.1251776894415944  0.3597760487370657   T   T   T
  0.3337121661679336  0.0631149309722277  0.3589551564617490   T   T   T
  0.1662027375599865  0.0628562615861904  0.3609530759303688   T   T   T
  0.0001993579241457  0.1251124241418680  0.0373673238785415   F   F   F
  0.3342248374093941  0.1876083518869578  0.0424180467130881   F   F   F
  0.1660568042752573  0.1876606967942038  0.0424146876443743   F   F   F
  0.2502332970886698  0.2502158349488468  0.1130222857832806   F   F   F
  0.0828712378028129  0.1877169521294775  0.1186661494224168   F   F   F
  0.4176644359050954  0.1877065482458207  0.1186607550294028   F   F   F
  0.0012894878918767  0.2501333414922838  0.1991071129454794   T   T   T
  0.3329732372377998  0.1877309368608098  0.1977939275926626   T   T   T
  0.1682302156736140  0.1877182363060405  0.1977524350190767   T   T   T
  0.2494671367129978  0.2502059847093162  0.2789545680831916   T   T   T
  0.0843683832546679  0.1876905768748757  0.2790626299892996   T   T   T
  0.4173089620284177  0.1877938424263458  0.2785237726334249   T   T   T
  0.0015298290045743  0.2501054891263497  0.3594789971337049   T   T   T
  0.3339044862572058  0.1881528020831913  0.3585853635448741   T   T   T
  0.1663315177387742  0.1879688243545838  0.3609282463153644   T   T   T
  0.0002122078768210  0.2501392066830732  0.0373456541597363   F   F   F
  0.3342232035055162  0.3125992309382539  0.0423967923009556   F   F   F
  0.1660586660861370  0.3126582257413517  0.0424062846115874   F   F   F
  0.2502173161139041  0.3752178897059935  0.1130360339591618   F   F   F
  0.0828568376004242  0.3127060748111887  0.1186645141734175   F   F   F
  0.4176984722473520  0.3127078846600213  0.1186298408889357   F   F   F
  0.0014035376442780  0.3751247670285459  0.1990500398040275   T   T   T
  0.3329046872739971  0.3126998112254762  0.1977977388452449   T   T   T
  0.1682410514183085  0.3126991284431836  0.1977484143753968   T   T   T
  0.2492674606652553  0.3751776757207246  0.2788004142630266   T   T   T
  0.0845711730276104  0.3126280436325772  0.2790506485512839   T   T   T
  0.4170603088492155  0.3126854403312521  0.2784087971819834   T   T   T
  0.0023003472408765  0.3756861529806605  0.3591879255326002   T   T   T
  0.3333090163496117  0.3128447159998549  0.3586847516342048   T   T   T
  0.1655961491658355  0.3127890110768993  0.3623460129567472   T   T   T
  0.0001993469486266  0.3751125453592721  0.0373668329409540   F   F   F
  0.3342265491584655  0.4376091382735581  0.0424193945147948   F   F   F
  0.1660559599480962  0.4376604044393986  0.0424156771225839   F   F   F
  0.2502327017382058  0.0002164962773534  0.1130220722767348   F   F   F
  0.0828707196508915  0.4377156099338606  0.1186668391713255   F   F   F
  0.4176643738564039  0.4377089816271393  0.1186614737223408   F   F   F
  0.0010742605285198  0.0001937822601804  0.1991776462718670   T   T   T
  0.3328807656665460  0.4377304909510686  0.1977022603666450   T   T   T
  0.1682395019491173  0.4377524303753893  0.1977143301267347   T   T   T
  0.2497173505525623  0.0003102985007297  0.2788846776110359   T   T   T
  0.0843627663712668  0.4377401206839016  0.2789006760029671   T   T   T
  0.4170646645180545  0.4377052883388573  0.2782692641630893   T   T   T
  0.0030482556778847  0.0000526390163131  0.3597251223275194   T   T   T
  0.3329838617205816  0.4379244075198687  0.3579309850220956   T   T   T
  0.1661085726319740  0.4376813594560049  0.3602877518601309   T   T   T
  0.0002112439569970  0.5001379294448540  0.0373463921698374   F   F   F
  0.3342257926207992  0.5625994154237475  0.0423987318545187   F   F   F
  0.1660626269271432  0.5626581163633873  0.0424061668450690   F   F   F
  0.2502202084754828  0.6252178855354416  0.1130358333669221   F   F   F
  0.0828588434925734  0.5627073156657261  0.1186643004524512   F   F   F
  0.4176999472490408  0.5627059576615423  0.1186271515872050   F   F   F
  0.0012810703722147  0.6253022796764380  0.1991179492986491   T   T   T
  0.3329529966029449  0.5627940190256928  0.1977815367424474   T   T   T
  0.1682781035163602  0.5627846433660953  0.1977836735631461   T   T   T
  0.2497580433798549  0.6252375793015862  0.2788989741108535   T   T   T
  0.0844797750091853  0.5627939326122305  0.2789962541109609   T   T   T
  0.4171686094655475  0.5627824064531634  0.2784108387107248   T   T   T
  0.0036446769256981  0.6250877004194111  0.3597906416925252   T   T   T
  0.3337109572302897  0.5626160630946229  0.3587586429094327   T   T   T
  0.1663034272209304  0.5627063437531976  0.3609082980486929   T   T   T
  0.0001993579241457  0.6251124241418680  0.0373673238785415   F   F   F
  0.3342248374093941  0.6876083518869507  0.0424180467130881   F   F   F
  0.1660568042752573  0.6876606967941967  0.0424146876443743   F   F   F
  0.2502332970886698  0.7502158349488468  0.1130222857832806   F   F   F
  0.0828712378028129  0.6877169521294704  0.1186661494224168   F   F   F
  0.4176644359050954  0.6877065482458136  0.1186607550294028   F   F   F
  0.0012078562755209  0.7502952396381408  0.1991679064165770   T   T   T
  0.3329161055463805  0.6877953193708016  0.1977688229119172   T   T   T
  0.1682835081659572  0.6877723722483916  0.1977365062674124   T   T   T
  0.2497875715129059  0.7502253794241063  0.2789627079938838   T   T   T
  0.0846700918406094  0.6877945712332064  0.2790438811110608   T   T   T
  0.4172257214209765  0.6877952412187965  0.2784336242454448   T   T   T
  0.0019502627200365  0.7497626506701205  0.3593379081873477   T   T   T
  0.3344156034971761  0.6877895766161574  0.3586441135123217   T   T   T
  0.1667901782076836  0.6877286907412444  0.3607574033155861   T   T   T
  0.0002122078768210  0.7501392066830732  0.0373456541597363   F   F   F
  0.3342232035055162  0.8125992309382539  0.0423967923009556   F   F   F
  0.1660586660861370  0.8126582257413517  0.0424062846115874   F   F   F
  0.2502173161139041  0.8752178897059935  0.1130360339591618   F   F   F
  0.0828568376004242  0.8127060748111887  0.1186645141734175   F   F   F
  0.4176984722473520  0.8127078846600213  0.1186298408889357   F   F   F
  0.0011681277968410  0.8751775199538488  0.1991887771885917   T   T   T
  0.3329346029958349  0.8127702466465747  0.1978096428582750   T   T   T
  0.1683047052740002  0.8127519205201271  0.1977350841400418   T   T   T
  0.2496546304534142  0.8753079256059872  0.2789058046237275   T   T   T
  0.0849209972655814  0.8126582161019903  0.2790596860938420   T   T   T
  0.4172182779680220  0.8127920679845340  0.2784232367366205   T   T   T
  0.0021019424305207  0.8752215905033576  0.3595731299015621   T   T   T
  0.3333587304069816  0.8127480690445095  0.3584891302048189   T   T   T
  0.1663130866472418  0.8125495321770507  0.3623529852445933   T   T   T
  0.0001993469486266  0.8751125453592721  0.0373668329409540   F   F   F
  0.3342265491584655  0.9376091382735510  0.0424193945147948   F   F   F
  0.1660559599480962  0.9376604044393915  0.0424156771225839   F   F   F
  0.2502327017382058  0.5002164962773534  0.1130220722767348   F   F   F
  0.0828707196508915  0.9377156099338535  0.1186668391713255   F   F   F
  0.4176643738564039  0.9377089816271322  0.1186614737223408   F   F   F
  0.0013656294568145  0.5003132337222147  0.1990478824396960   T   T   T
  0.3329727985306426  0.9377596103927638  0.1977875569802102   T   T   T
  0.1682894654708863  0.9377741909600937  0.1977421254292293   T   T   T
  0.2495520920595692  0.5002430770452797  0.2787350838896039   T   T   T
  0.0843815811911795  0.9376318102689216  0.2789475917341904   T   T   T
  0.4173250189364442  0.9377646735008599  0.2783917653432453   T   T   T
  0.0025653902274475  0.5001738091806258  0.3598883010348771   T   T   T
  0.3337169129199672  0.9380036779430975  0.3581497325673883   T   T   T
  0.1666349853191586  0.9375184255063969  0.3604430107736437   T   T   T
  0.5002112439569970  0.0001379294448540  0.0373463921698374   F   F   F
  0.8342257926207992  0.0625994154237475  0.0423987318545187   F   F   F
  0.6660626269271432  0.0626581163633873  0.0424061668450690   F   F   F
  0.7502202084754828  0.1252178855354416  0.1130358333669221   F   F   F
  0.5828588434925734  0.0627073156657261  0.1186643004524512   F   F   F
  0.9176999472490408  0.0627059576615423  0.1186271515872050   F   F   F
  0.5009306134372775  0.1251936236897232  0.1992365637388534   T   T   T
  0.8328516138635781  0.0626884157134498  0.1977283973056847   T   T   T
  0.6681303018710305  0.0627058093539749  0.1977169807483156   T   T   T
  0.7492832639717227  0.1252172119775579  0.2787052755662168   T   T   T
  0.5846297873973029  0.0626529215270807  0.2790203564268999   T   T   T
  0.9173686895106674  0.0626275622296010  0.2782307746782438   T   T   T
  0.5019536121462970  0.1254173831514417  0.3597034815185355   T   T   T
  0.8330669275058177  0.0627785913714995  0.3581915412442873   T   T   T
  0.6661568465088774  0.0625553195666607  0.3619955833455097   T   T   T
  0.5001993579241457  0.1251124241418680  0.0373673238785415   F   F   F
  0.8342248374093941  0.1876083518869578  0.0424180467130881   F   F   F
  0.6660568042752573  0.1876606967942038  0.0424146876443743   F   F   F
  0.7502332970886698  0.2502158349488468  0.1130222857832806   F   F   F
  0.5828712378028129  0.1877169521294775  0.1186661494224168   F   F   F
  0.9176644359050954  0.1877065482458207  0.1186607550294028   F   F   F
  0.5008005916287533  0.2501788491008073  0.1992042090055755   T   T   T
  0.8328348534999195  0.1876978081344289  0.1976346239429746   T   T   T
  0.6679797025068727  0.1877099658213596  0.1977092981176819   T   T   T
  0.7489764253729373  0.2501915093433691  0.2785542012488457   T   T   T
  0.5840061716312419  0.1876835767078139  0.2790731439877145   T   T   T
  0.9176050793527608  0.1875356230298013  0.2779630483540438   T   T   T
  0.5026230972707495  0.2500580743836047  0.3603062802647074   T   T   T
  0.8332049901062393  0.1880042371737486  0.3571728661827542   T   T   T
  0.6659170873899967  0.1874175205672531  0.3606050398177496   T   T   T
  0.5002122078768210  0.2501392066830732  0.0373456541597363   F   F   F
  0.8342232035055162  0.3125992309382539  0.0423967923009556   F   F   F
  0.6660586660861370  0.3126582257413517  0.0424062846115874   F   F   F
  0.7502173161139041  0.3752178897059935  0.1130360339591618   F   F   F
  0.5828568376004242  0.3127060748111887  0.1186645141734175   F   F   F
  0.9176984722473520  0.3127078846600213  0.1186298408889357   F   F   F
  0.5007325355828987  0.3751730732289763  0.1991781149264874   T   T   T
  0.8327671340576550  0.3127131095743513  0.1975979199764197   T   T   T
  0.6678751990143024  0.3126852855217495  0.1976878643046417   T   T   T
  0.7488125007332034  0.3751513831245251  0.2783561744444546   T   T   T
  0.5837656849558487  0.3126283773310675  0.2789628563488337   T   T   T
  0.9178615436011014  0.3126411678822673  0.2776615411043490   T   T   T
  0.5026514874264330  0.3753699772625838  0.3593348087738014   T   T   T
  0.8327160118907508  0.3129030349885704  0.3567802130806770   T   T   T
  0.6651647997611966  0.3126527968111182  0.3614613381585393   T   T   T
  0.5001993469486266  0.3751125453592721  0.0373668329409540   F   F   F
  0.8342265491584655  0.4376091382735581  0.0424193945147948   F   F   F
  0.6660559599480962  0.4376604044393986  0.0424156771225839   F   F   F
  0.7502327017382058  0.0002164962773534  0.1130220722767348   F   F   F
  0.5828707196508915  0.4377156099338606  0.1186668391713255   F   F   F
  0.9176643738564039  0.4377089816271393  0.1186614737223408   F   F   F
  0.5009969935179700  0.0002718533026620  0.1992036485448690   T   T   T
  0.8328486377570253  0.4377754254778138  0.1975897720099306   T   T   T
  0.6679393457403532  0.4377142468853188  0.1976300821153275   T   T   T
  0.7496906182986594  0.0000651169406130  0.2788508230177465   T   T   T
  0.5837027684047831  0.4377077664511917  0.2787279939746864   T   T   T
  0.9180027669964180  0.4378480060618093  0.2775168517062278   T   T   T
  0.5015740001995390  0.9999676277303433  0.3595906316882335   T   T   T
  0.8332362371379873  0.4378622191758477  0.3559874293801288   T   T   T
  0.6649695839336504  0.4376232744553643  0.3607945210154591   T   T   T
  0.5002112439569970  0.5001379294448540  0.0373463921698374   F   F   F
  0.8342257926207992  0.5625994154237475  0.0423987318545187   F   F   F
  0.6660626269271432  0.5626581163633873  0.0424061668450690   F   F   F
  0.7502202084754828  0.6252178855354416  0.1130358333669221   F   F   F
  0.5828588434925734  0.5627073156657261  0.1186643004524512   F   F   F
  0.9176999472490408  0.5627059576615423  0.1186271515872050   F   F   F
  0.5008561644225129  0.6252512600759330  0.1991735941423770   T   T   T
  0.8328624273118423  0.5628007399881307  0.1976046562028552   T   T   T
  0.6680422375865900  0.5627711270100039  0.1976338410934228   T   T   T
  0.7491919374588849  0.6252762188818854  0.2785396303452221   T   T   T
  0.5839800210153878  0.5626880943498692  0.2788026811959949   T   T   T
  0.9178225239764989  0.5628994789419052  0.2778602044979274   T   T   T
  0.5025659813788546  0.6254310442743708  0.3597607902143137   T   T   T
  0.8330223947067958  0.5627856885098088  0.3570794825268952   T   T   T
  0.6653939778865932  0.5628340741983279  0.3614010899568220   T   T   T
  0.5001993579241457  0.6251124241418680  0.0373673238785415   F   F   F
  0.8342248374093941  0.6876083518869507  0.0424180467130881   F   F   F
  0.6660568042752573  0.6876606967941967  0.0424146876443743   F   F   F
  0.7502332970886698  0.7502158349488468  0.1130222857832806   F   F   F
  0.5828712378028129  0.6877169521294704  0.1186661494224168   F   F   F
  0.9176644359050954  0.6877065482458136  0.1186607550294028   F   F   F
  0.5008496049139133  0.7502413829804894  0.1991689495948964   T   T   T
  0.8329730294705886  0.6877931581125951  0.1976739259463516   T   T   T
  0.6681051666091580  0.6877895815499623  0.1976911348162445   T   T   T
  0.7495736312189936  0.7502415169371660  0.2786977129766503   T   T   T
  0.5839726306017831  0.6877191698655942  0.2787977335867063   T   T   T
  0.9175247743058376  0.6877554788045672  0.2781726146679320   T   T   T
  0.5030377388541960  0.7501168639086693  0.3598124011578474   T   T   T
  0.8333142661289336  0.6876849934681696  0.3577704512730424   T   T   T
  0.6662296975527823  0.6874521996968178  0.3600318528203991   T   T   T
  0.5002122078768210  0.7501392066830732  0.0373456541597363   F   F   F
  0.8342232035055162  0.8125992309382539  0.0423967923009556   F   F   F
  0.6660586660861370  0.8126582257413517  0.0424062846115874   F   F   F
  0.7502173161139041  0.8752178897059935  0.1130360339591618   F   F   F
  0.5828568376004242  0.8127060748111887  0.1186645141734175   F   F   F
  0.9176984722473520  0.8127078846600213  0.1186298408889357   F   F   F
  0.5009583763555077  0.8752690741629401  0.1991883369034057   T   T   T
  0.8329817962609298  0.8127811492827052  0.1977482886310256   T   T   T
  0.6681303063884082  0.8127564248451112  0.1977806363725251   T   T   T
  0.7497383131318516  0.8751623376398520  0.2788491326557501   T   T   T
  0.5841635711848004  0.8127561525671635  0.2789310628561923   T   T   T
  0.9175334583993725  0.8126843083595178  0.2783471656104544   T   T   T
  0.5039181284327242  0.8751252075544101  0.3599753193932683   T   T   T
  0.8338124586579223  0.8124723553091869  0.3586411883379000   T   T   T
  0.6663516965445669  0.8125134698942937  0.3607029157658824   T   T   T
  0.5001993469486266  0.8751125453592721  0.0373668329409540   F   F   F
  0.8342265491584655  0.9376091382735510  0.0424193945147948   F   F   F
  0.6660559599480962  0.9376604044393915  0.0424156771225839   F   F   F
  0.7502327017382058  0.5002164962773534  0.1130220722767348   F   F   F
  0.5828707196508915  0.9377156099338535  0.1186668391713255   F   F   F
  0.9176643738564039  0.9377089816271322  0.1186614737223408   F   F   F
  0.5007575513076048  0.5002563237529611  0.1991600908929763   T   T   T
  0.8329144946634376  0.9377240361981255  0.1977445715468895   T   T   T
  0.6681741963686642  0.9377247545957214  0.1977409605689930   T   T   T
  0.7489837193533385  0.5003041135187771  0.2784013861937835   T   T   T
  0.5843340652358289  0.9377489255510741  0.2790048431610696   T   T   T
  0.9174332774125916  0.9376489655304791  0.2783265562358866   T   T   T
  0.5018478269529024  0.5002998872413795  0.3595565711365092   T   T   T
  0.8343187008909083  0.9377353480550196  0.3583236984529238   T   T   T
  0.6668857727692332  0.9376661222956728  0.3606190003653704   T   T   T
  0.4059663601692378  0.0001462046730154  0.0700885167279779   F   F   F
  0.2501335306342440  0.0001313415364734  0.0393543396202674   F   F   F
  0.0944334762619548  0.0001738881651363  0.0701382961740649   F   F   F
  0.1549947328934422  0.1252546000618224  0.1485264565477067   F   F   F
  0.0003044512358912  0.1252329358346600  0.1366467142038701   F   F   F
  0.3454752489896649  0.1252525403775380  0.1484231789215542   F   F   F
  0.4016295551359030  0.1252904585851705  0.2295141985580543   T   T   T
  0.2504756920795111  0.1252763048217911  0.2155540733620545   T   T   T
  0.1001977145476535  0.1251775362130732  0.2299685116480438   T   T   T
  0.1517569276603321  0.1253145352642971  0.3113110805765792   T   T   T
  0.0010267494843427  0.1251173049561281  0.2956361571386673   T   T   T
  0.3485385771537424  0.1253108644998285  0.3093976375076043   T   T   T
  0.4027937458930703  0.1261651925603080  0.3872518602766278   T   T   T
  0.2521300371541243  0.1254177165353907  0.3765967946394275   T   T   T
  0.1016389613968871  0.1255181603547579  0.3924713308493130   T   T   T
  0.4059504510021199  0.1251528418496832  0.0701137697057277   F   F   F
  0.2501484584581348  0.1251294756807368  0.0393952583647277   F   F   F
  0.0944439778587522  0.1251741239827453  0.0701534912843229   F   F   F
  0.1549877250862224  0.2502614546838657  0.1485179043880294   F   F   F
  0.0002974674814880  0.2502100279361912  0.1366324893501272   F   F   F
  0.3454803331882346  0.2503006024972620  0.1484139149937889   F   F   F
  0.4015631853549150  0.2501986698030331  0.2294953906814166   T   T   T
  0.2504267191323059  0.2501693862180713  0.2155228890371025   T   T   T
  0.1002942820186430  0.2501730391981570  0.2299469257480634   T   T   T
  0.1518189234766670  0.2505065332557909  0.3113836406746689   T   T   T
  0.0008884533874700  0.2501158773303532  0.2954189301498063   T   T   T
  0.3482041303888598  0.2504862874907161  0.3094557991659670   T   T   T
  0.4030500382899347  0.2510084433717419  0.3874292735691446   T   T   T
  0.2519660309442946  0.2500548332500238  0.3766359786509698   T   T   T
  0.0987893954988086  0.2499603548026905  0.3905559057760252   T   T   T
  0.4059628358367533  0.2501443164155361  0.0700852243531500   F   F   F
  0.2501309939231433  0.2501318371526651  0.0393519425499136   F   F   F
  0.0944333317481849  0.2501740935465691  0.0701386596889861   F   F   F
  0.1549942609652177  0.3752545226085218  0.1485264414225469   F   F   F
  0.0003019335461047  0.3752315664304433  0.1366474736751755   F   F   F
  0.3454762333887373  0.3752493953370220  0.1484229723695165   F   F   F
  0.4014576864716388  0.3751610268171468  0.2293983929360354   T   T   T
  0.2504237625267604  0.3752208616742221  0.2154287769343701   T   T   T