Ru Ta  N  Cu                            
   1.00000000000000     
    18.1096308199999996    0.0000000000000000    0.0000000000000000
     0.0000000000000000   23.3551997799999995    0.0000000000000000
     0.0000000000000000    0.0000000000000000   32.4818170799999990
   Ru   Ta   N    Cu
   128   240   240     4
Selective dynamics
Direct
  0.0511373308342807  0.0028006926247941  0.4467815301022413   T   T   T
  0.2777521651913424  0.5018519205099645  0.4390752454071771   T   T   T
  0.4047236090872811  0.0652337905899014  0.4354025614110331   T   T   T
  0.0302414829985014  0.2595776985721771  0.4467907163432592   T   T   T
  0.2778969440320518  0.2573748225919085  0.4394088885212590   T   T   T
  0.4268933388553609  0.3139858347559598  0.4329198464894583   T   T   T
  0.0555192353198889  0.1184621448779375  0.4487839789136829   T   T   T
  0.2701206587162091  0.1403276271711794  0.4393251413648048   T   T   T
  0.4141486575640735  0.1870086046002482  0.4340074983534081   T   T   T
  0.0318433832937443  0.3771414435900088  0.4484530814572127   T   T   T
  0.2781471723266807  0.3795279700452419  0.4388706379321772   T   T   T
  0.4265595602909689  0.4377071921044913  0.4349376393884481   T   T   T
  0.1523897288786802  0.4409301716658326  0.4477402195228168   T   T   T
  0.1544622340954820  0.3202488623176454  0.4485104019798457   T   T   T
  0.1514554211119946  0.2048769279154755  0.4467510965319400   T   T   T
  0.1781393544795037  0.0598408704188636  0.4586481512437572   T   T   T
  0.0652274835115793  0.4426728956974739  0.5085569681625187   T   T   T
  0.3266721924437017  0.4397586397938565  0.4991829188265149   T   T   T
  0.4331491856922286  0.0070956358429087  0.5014546661544692   T   T   T
  0.0651578496420034  0.1948695660536591  0.5064763836162717   T   T   T
  0.3233245005410106  0.1944382257825205  0.4996973839020082   T   T   T
  0.4472905876791159  0.2564266485667318  0.5009903660842226   T   T   T
  0.0796600721854606  0.0519700689256167  0.5123680101132515   T   T   T
  0.3072921149163058  0.0652582336996881  0.4940255969857213   T   T   T
  0.4358457454098015  0.1186561548253331  0.5023045289374216   T   T   T
  0.0652573500137064  0.3126620414960052  0.5095130257806803   T   T   T
  0.3239019944684673  0.3198276186275525  0.4990188700630766   T   T   T
  0.4514741484403808  0.3657055027771475  0.5020869765900279   T   T   T
  0.2048928864051825  0.3826441733592558  0.5053939833158315   T   T   T
  0.2020144994074703  0.2605328781632058  0.5064453205681588   T   T   T
  0.1965410817925318  0.1451067129235266  0.5061796575853220   T   T   T
  0.2024358321245895  0.4977482072275390  0.5064902490831468   T   T   T
  0.0319394334948966  0.5013700491267118  0.4473594782091658   T   T   T
  0.2760028895596137  0.9847464477241447  0.4406997318689059   T   T   T
  0.4173674447024992  0.5683023986750309  0.4344495340023458   T   T   T
  0.0330536658627286  0.7497651464843972  0.4472457024826623   T   T   T
  0.2785439850362293  0.7463452840905190  0.4387564013583649   T   T   T
  0.4223708140574348  0.8107940892923208  0.4340134755733616   T   T   T
  0.0365598380042085  0.6249555129371535  0.4482949299422983   T   T   T
  0.2745879374928712  0.6253252082066617  0.4393702137616709   T   T   T
  0.4176354443257559  0.6886627393813858  0.4334313200062750   T   T   T
  0.0347508162505342  0.8697648383258411  0.4485849794883272   T   T   T
  0.2788990028671879  0.8680835954946581  0.4399024671077560   T   T   T
  0.4172248801321686  0.9356271618016320  0.4332421245740036   T   T   T
  0.1553796829120648  0.9244976210484779  0.4489998812901808   T   T   T
  0.1553555535065111  0.8064435402759110  0.4488568934487892   T   T   T
  0.1536282047082516  0.6883007627772878  0.4479480210685958   T   T   T
  0.1539503432647250  0.5602871274868231  0.4496629733284206   T   T   T
  0.0678676558048465  0.9365973234460159  0.5078494395268781   T   T   T
  0.3290679840764655  0.9251415751701302  0.5004576743887932   T   T   T
  0.4438711065284171  0.5152107581100812  0.5051544515753015   T   T   T
  0.0666697258024264  0.6895040494188708  0.5084190561006233   T   T   T
  0.3248196016664049  0.6854898575807298  0.4987144575755330   T   T   T
  0.4485818791575744  0.7540777994115078  0.5014256566142876   T   T   T
  0.0631780719591776  0.5607848598144256  0.5091435517195381   T   T   T
  0.3197751175117493  0.5631579628382212  0.4988918796688209   T   T   T
  0.4453910651641294  0.6236958445044898  0.5020168722292870   T   T   T
  0.0655878954203314  0.8052789775594800  0.5096131527408717   T   T   T
  0.3241909378885520  0.8065252861423464  0.4989929247921445   T   T   T
  0.4486317177889130  0.8652220534752604  0.5013631335060235   T   T   T
  0.2060041106831504  0.8665623997073808  0.5067591177216560   T   T   T
  0.2032740416591142  0.7449740226019492  0.5066691919042262   T   T   T
  0.2012436306351873  0.6277782430202973  0.5058510923913989   T   T   T
  0.2032275774673747  0.9790993104668229  0.5097781425997039   T   T   T
  0.5309853827005979  0.0025403297700117  0.4476447265877653   T   T   T
  0.7773662820843732  0.5029176166952587  0.4393144889888741   T   T   T
  0.9284391945310209  0.0637750763833945  0.4332072438588789   T   T   T
  0.5466118826044032  0.2512753188951095  0.4473573162604363   T   T   T
  0.7793575113941643  0.2346157918627569  0.4398333824910755   T   T   T
  0.9041920232344309  0.3176471331471784  0.4356762316889866   T   T   T
  0.5333289274117761  0.1211267335110214  0.4481066744783475   T   T   T
  0.7798949678629129  0.1204886154398968  0.4398696113401979   T   T   T
  0.9212613120360927  0.1865710200595201  0.4332808033097819   T   T   T
  0.5556342674910484  0.3687604730950118  0.4493434865426172   T   T   T
  0.7662966658664592  0.3873004356942726  0.4385579992407188   T   T   T
  0.9058144298058519  0.4367160912811914  0.4344050159586163   T   T   T
  0.6528948524584378  0.4555807005394579  0.4488004391340911   T   T   T
  0.6746914837674061  0.3040954026507391  0.4561353793340708   T   T   T
  0.6566178427159103  0.1783141426338090  0.4497996728144496   T   T   T
  0.6547405883577494  0.0601673245083617  0.4491707608680204   T   T   T
  0.5631266270330580  0.4439004016487713  0.5068904684335387   T   T   T
  0.8215070805945598  0.4331598376984240  0.5003792227193802   T   T   T
  0.9514810138235734  0.0050643185930062  0.5007902710863988   T   T   T
  0.5675219386005667  0.1871353672855507  0.5083782661362241   T   T   T
  0.8326907039210144  0.1767920712025998  0.5008871655009043   T   T   T
  0.9352094696079596  0.2594737122124388  0.5016780557091601   T   T   T
  0.5640745690001854  0.0595203496950766  0.5093964850810042   T   T   T
  0.8270362565892350  0.0589069539867471  0.4989574767085642   T   T   T
  0.9536721380591691  0.1158008617036136  0.5013445091910894   T   T   T
  0.5800017670787390  0.3006372946485365  0.5130690311339808   T   T   T
  0.8052649740064118  0.3147824267756821  0.4946071023829461   T   T   T
  0.9359832495580673  0.3700935270772031  0.5028581154590365   T   T   T
  0.6919947810492201  0.3871871347222232  0.5053146411714664   T   T   T
  0.7052968857086076  0.2298327026422870  0.5108312449948496   T   T   T
  0.7081281600603608  0.1193284233541451  0.5067716864999876   T   T   T
  0.7042639320758778  0.4985118171949974  0.5135961123344590   T   T   T
  0.5398161024747929  0.5140910018382323  0.4492430026622719   T   T   T
  0.7794865723885984 -0.0009542748128843  0.4390777710389288   T   T   T
  0.9147428795329312  0.5665072787845483  0.4327145048372558   T   T   T
  0.5512281224400958  0.7502073707919454  0.4488807696251622   T   T   T
  0.7785745115648596  0.7484480412650768  0.4331643655299791   T   T   T
  0.9115282184134916  0.8109766271480662  0.4343194051755218   T   T   T
  0.5489827444453630  0.6292187598926617  0.4495945254827134   T   T   T
  0.7778030376434866  0.6302821118216535  0.4330054073679476   T   T   T
  0.9144483007511075  0.6871576526514329  0.4322600057135941   T   T   T
  0.5504039656308296  0.8680883805915329  0.4486548393235003   T   T   T
  0.7710739089162690  0.8798000149800672  0.4391038746448667   T   T   T
  0.9184328696819316  0.9354832493198999  0.4331330076735552   T   T   T
  0.6541521106357228  0.9454233906366090  0.4481524697465535   T   T   T
  0.6729495727754203  0.8059611983901356  0.4607534454075360   T   T   T
  0.6723825470770248  0.6896172418624893  0.4627460024529857   T   T   T
  0.6700848337870930  0.5709768765338735  0.4594173884663128   T   T   T
  0.5667730775039126  0.9375287623589017  0.5075947096743958   T   T   T
  0.8275724766855148  0.9375277685961061  0.4987951454340822   T   T   T
  0.9330989584925146  0.5109562942839909  0.5003501328373743   T   T   T
  0.5660961688338716  0.6897010708255041  0.5133354156603444   T   T   T
  0.8119606693886535  0.6894735528035928  0.4973433174895188   T   T   T
  0.9350109299415967  0.7531820630138808  0.5013606690035001   T   T   T
  0.5729722800518720  0.5710375242170699  0.5147740780621443   T   T   T
  0.8089666104423902  0.5741008712135235  0.4967487641126992   T   T   T
  0.9369007030295561  0.6223136875054941  0.5011092340587856   T   T   T
  0.5727783506255794  0.8076581840505203  0.5137785891051797   T   T   T
  0.8087066160507590  0.8090561088954018  0.4967081507677575   T   T   T
  0.9383603735548871  0.8637208078269195  0.5023482164899855   T   T   T
  0.7005946697150862  0.8883144293598856  0.5089375309273668   T   T   T
  0.6955003036388729  0.7458210275856335  0.5270585365991717   T   T   T
  0.6941757027465741  0.6315794519551343  0.5264816165516928   T   T   T
  0.7072539441827393  0.0003063639781283  0.5066303162239564   T   T   T
  0.0002112439569970  0.0001379294448540  0.0373463921698374   F   F   F
  0.3342257926207992  0.0625994154237475  0.0423987318545187   F   F   F
  0.1660626269271432  0.0626581163633873  0.0424061668450690   F   F   F
  0.2502202084754828  0.1252178855354416  0.1130358333669221   F   F   F
  0.0828588434925734  0.0627073156657261  0.1186643004524512   F   F   F
  0.4176999472490408  0.0627059576615423  0.1186271515872050   F   F   F
  0.0011017546596993  0.1251726615900891  0.1992134413084228   T   T   T
  0.3329414168674575  0.0627694528247550  0.1978096702091155   T   T   T
  0.1683018758254873  0.0627710968346949  0.1977153140360035   T   T   T
  0.2496525511461742  0.1253075282650898  0.2788785887608164   T   T   T
  0.0848875344849924  0.0626787152299267  0.2790528086270777   T   T   T
  0.4172201365625491  0.0627594123891996  0.2784298343537988   T   T   T
  0.0024645390297360  0.1254137524246850  0.3596144387938158   T   T   T
  0.3331958664961338  0.0626821947958320  0.3584900920166845   T   T   T
  0.1663068178066529  0.0625546690727587  0.3623391833635438   T   T   T
  0.0001993579241457  0.1251124241418680  0.0373673238785415   F   F   F
  0.3342248374093941  0.1876083518869578  0.0424180467130881   F   F   F
  0.1660568042752573  0.1876606967942038  0.0424146876443743   F   F   F
  0.2502332970886698  0.2502158349488468  0.1130222857832806   F   F   F
  0.0828712378028129  0.1877169521294775  0.1186661494224168   F   F   F
  0.4176644359050954  0.1877065482458207  0.1186607550294028   F   F   F
  0.0009669129983034  0.2502021045688297  0.1991717407986467   T   T   T
  0.3329619340088661  0.1877796976995209  0.1977613972396630   T   T   T
  0.1683110461270791  0.1877713832243730  0.1976958700830012   T   T   T
  0.2497994801130323  0.2504053695631187  0.2788593697564555   T   T   T
  0.0843081152018537  0.1876645262716959  0.2788684171918505   T   T   T
  0.4172926994994742  0.1877786052180552  0.2783466921719313   T   T   T
  0.0027177092862657  0.2501361630181451  0.3598342769929397   T   T   T
  0.3337152309274473  0.1880705594996648  0.3580822305821734   T   T   T
  0.1666717369276453  0.1876594586440143  0.3603007050271730   T   T   T
  0.0002122078768210  0.2501392066830732  0.0373456541597363   F   F   F
  0.3342232035055162  0.3125992309382539  0.0423967923009556   F   F   F
  0.1660586660861370  0.3126582257413517  0.0424062846115874   F   F   F
  0.2502173161139041  0.3752178897059935  0.1130360339591618   F   F   F
  0.0828568376004242  0.3127060748111887  0.1186645141734175   F   F   F
  0.4176984722473520  0.3127078846600213  0.1186298408889357   F   F   F
  0.0010093962211985  0.3751572265492452  0.1991423629753303   T   T   T
  0.3329964164678123  0.3127846986191615  0.1978163218927762   T   T   T
  0.1682559083511155  0.3127506281986358  0.1977942476883910   T   T   T
  0.2498440207068809  0.3753631294402885  0.2789620111248653   T   T   T
  0.0842395483833469  0.3126785326022717  0.2788939054476996   T   T   T
  0.4174092168353555  0.3129024040867256  0.2786085807331791   T   T   T
  0.0040612010665132  0.3752449221731796  0.3599032598252395   T   T   T
  0.3338107557043356  0.3132801396258352  0.3590699716310404   T   T   T
  0.1665292499161677  0.3129808077569823  0.3606591997166730   T   T   T
  0.0001993469486266  0.3751125453592721  0.0373668329409540   F   F   F
  0.3342265491584655  0.4376091382735581  0.0424193945147948   F   F   F
  0.1660559599480962  0.4376604044393986  0.0424156771225839   F   F   F
  0.2502327017382058  0.0002164962773534  0.1130220722767348   F   F   F
  0.0828707196508915  0.4377156099338606  0.1186668391713255   F   F   F
  0.4176643738564039  0.4377089816271393  0.1186614737223408   F   F   F
  0.0011627670827130  0.0003078653076223  0.1991864117914412   T   T   T
  0.3330605224228914  0.4377359320239279  0.1978070579977632   T   T   T
  0.1682997894688682  0.4377031452325468  0.1977348763035945   T   T   T
  0.2498294692416019  0.0001836453771457  0.2789328988313045   T   T   T
  0.0841037915850072  0.4376889310926196  0.2788306400913502   T   T   T
  0.4174508648550695  0.4378549873291226  0.2787407239086738   T   T   T
  0.0014046375089384 -0.0002420926655535  0.3594739196577219   T   T   T
  0.3336764272879061  0.4383873498149677  0.3590424856743938   T   T   T
  0.1664045890567300  0.4380572419848291  0.3602777167980182   T   T   T
  0.0002112439569970  0.5001379294448540  0.0373463921698374   F   F   F
  0.3342257926207992  0.5625994154237475  0.0423987318545187   F   F   F
  0.1660626269271432  0.5626581163633873  0.0424061668450690   F   F   F
  0.2502202084754828  0.6252178855354416  0.1130358333669221   F   F   F
  0.0828588434925734  0.5627073156657261  0.1186643004524512   F   F   F
  0.4176999472490408  0.5627059576615423  0.1186271515872050   F   F   F
  0.0013303388405342  0.6251004120057263  0.1989914134237701   T   T   T
  0.3330481294450559  0.5626935525285919  0.1977626648145832   T   T   T
  0.1683939921900281  0.5626698309100564  0.1976944669922589   T   T   T
  0.2495470222968387  0.6251417776937259  0.2786915979946333   T   T   T
  0.0841944996906483  0.5626514611393560  0.2786828433968497   T   T   T
  0.4174210341741197  0.5626402293034342  0.2784976692136947   T   T   T
  0.0038058624797334  0.6255780687337408  0.3593383023145797   T   T   T
  0.3337127039255673  0.5629816682592242  0.3586809411814306   T   T   T
  0.1661691748834307  0.5629388557986533  0.3606096813124485   T   T   T
  0.0001993579241457  0.6251124241418680  0.0373673238785415   F   F   F
  0.3342248374093941  0.6876083518869507  0.0424180467130881   F   F   F
  0.1660568042752573  0.6876606967941967  0.0424146876443743   F   F   F
  0.2502332970886698  0.7502158349488468  0.1130222857832806   F   F   F
  0.0828712378028129  0.6877169521294704  0.1186661494224168   F   F   F
  0.4176644359050954  0.6877065482458136  0.1186607550294028   F   F   F
  0.0013399824678523  0.7503322682875193  0.1989858983602542   T   T   T
  0.3330206042002360  0.6877209750122253  0.1976789708179781   T   T   T
  0.1683648988810034  0.6877428367004162  0.1976568909550061   T   T   T
  0.2495975685505846  0.7502716828118957  0.2786087565128677   T   T   T
  0.0843139420945846  0.6877600041573675  0.2786223578898475   T   T   T
  0.4172258652095632  0.6876308105504420  0.2782581409151411   T   T   T
  0.0036421046511308  0.7502607376843003  0.3593036756360548   T   T   T
  0.3332545376564515  0.6878150464371811  0.3578699771238986   T   T   T
  0.1664206603000909  0.6877425551536122  0.3600769141806671   T   T   T
  0.0002122078768210  0.7501392066830732  0.0373456541597363   F   F   F
  0.3342232035055162  0.8125992309382539  0.0423967923009556   F   F   F
  0.1660586660861370  0.8126582257413517  0.0424062846115874   F   F   F
  0.2502173161139041  0.8752178897059935  0.1130360339591618   F   F   F
  0.0828568376004242  0.8127060748111887  0.1186645141734175   F   F   F
  0.4176984722473520  0.8127078846600213  0.1186298408889357   F   F   F
  0.0012487544903394  0.8753582318999541  0.1991010663275020   T   T   T
  0.3329942318731243  0.8128096587898936  0.1977377914100800   T   T   T
  0.1683411574924655  0.8128036907733494  0.1977088871659266   T   T   T
  0.2497965671738695  0.8752041733006949  0.2788134760145378   T   T   T
  0.0844110601038726  0.8128497783372448  0.2787808029612414   T   T   T
  0.4172809340524059  0.8127123764181028  0.2782792200784756   T   T   T
  0.0035322073598566  0.8749750537664592  0.3598315344836376   T   T   T
  0.3337738503384126  0.8124375931871022  0.3584943966320513   T   T   T
  0.1666032532556481  0.8126700650003337  0.3606108668884443   T   T   T
  0.0001993469486266  0.8751125453592721  0.0373668329409540   F   F   F
  0.3342265491584655  0.9376091382735510  0.0424193945147948   F   F   F
  0.1660559599480962  0.9376604044393915  0.0424156771225839   F   F   F
  0.2502327017382058  0.5002164962773534  0.1130220722767348   F   F   F
  0.0828707196508915  0.9377156099338535  0.1186668391713255   F   F   F
  0.4176643738564039  0.9377089816271322  0.1186614737223408   F   F   F
  0.0011438433968908  0.5001118624551979  0.1990670542246816   T   T   T
  0.3329471805987905  0.9378057606783734  0.1977585305315946   T   T   T
  0.1683073165289285  0.9377971045021782  0.1977117646972376   T   T   T
  0.2497740571655198  0.5002885437824880  0.2788773266352264   T   T   T
  0.0846371945014185  0.9378280567427391  0.2789801791881640   T   T   T
  0.4173161844747211  0.9377617053536701  0.2784287157170704   T   T   T
  0.0028234563754310  0.5004942936121942  0.3597568929178035   T   T   T
  0.3343371622867506  0.9376240040330709  0.3585655292339554   T   T   T
  0.1668246913539471  0.9376535730817648  0.3606662747355665   T   T   T
  0.5002112439569970  0.0001379294448540  0.0373463921698374   F   F   F
  0.8342257926207992  0.0625994154237475  0.0423987318545187   F   F   F
  0.6660626269271432  0.0626581163633873  0.0424061668450690   F   F   F
  0.7502202084754828  0.1252178855354416  0.1130358333669221   F   F   F
  0.5828588434925734  0.0627073156657261  0.1186643004524512   F   F   F
  0.9176999472490408  0.0627059576615423  0.1186271515872050   F   F   F
  0.5010002716450560  0.1252626191925914  0.1992169514370000   T   T   T
  0.8330210618876215  0.0627708497883000  0.1977864884410659   T   T   T
  0.6681629228270590  0.0627571995350500  0.1978160007309549   T   T   T
  0.7498239536995491  0.1251625816742203  0.2789499176052064   T   T   T
  0.5841783271441460  0.0627033120443977  0.2790479477536935   T   T   T
  0.9175382334041798  0.0626948594161150  0.2784805246272751   T   T   T
  0.5037655553771256  0.1251168840653519  0.3598830745024851   T   T   T
  0.8339594554355769  0.0624681318564322  0.3589265399990789   T   T   T
  0.6665126984742559  0.0624780471272839  0.3608247750561884   T   T   T
  0.5001993579241457  0.1251124241418680  0.0373673238785415   F   F   F
  0.8342248374093941  0.1876083518869578  0.0424180467130881   F   F   F
  0.6660568042752573  0.1876606967942038  0.0424146876443743   F   F   F
  0.7502332970886698  0.2502158349488468  0.1130222857832806   F   F   F
  0.5828712378028129  0.1877169521294775  0.1186661494224168   F   F   F
  0.9176644359050954  0.1877065482458207  0.1186607550294028   F   F   F
  0.5010037871191495  0.2502835123442116  0.1992266437692002   T   T   T
  0.8329403912865990  0.1877134944006117  0.1977820883074346   T   T   T
  0.6681936756453767  0.1877158234201069  0.1977577731001075   T   T   T
  0.7496745492236717  0.2500917582164704  0.2789399149407148   T   T   T
  0.5843611692753273  0.1876932961659864  0.2790487304888052   T   T   T
  0.9174003585200351  0.1876648380459242  0.2784150783629692   T   T   T
  0.5016617261576467  0.2500567986994153  0.3595067973963697   T   T   T
  0.8342277051703320  0.1879030082508047  0.3584882207105332   T   T   T
  0.6667437649003780  0.1876066180903922  0.3608347590928689   T   T   T
  0.5002122078768210  0.2501392066830732  0.0373456541597363   F   F   F
  0.8342232035055162  0.3125992309382539  0.0423967923009556   F   F   F
  0.6660586660861370  0.3126582257413517  0.0424062846115874   F   F   F
  0.7502173161139041  0.3752178897059935  0.1130360339591618   F   F   F
  0.5828568376004242  0.3127060748111887  0.1186645141734175   F   F   F
  0.9176984722473520  0.3127078846600213  0.1186298408889357   F   F   F
  0.5009141965874906  0.3752331768674955  0.1992536858996797   T   T   T
  0.8328000734683051  0.3126797714537271  0.1977552223753868   T   T   T
  0.6681158056276042  0.3126999435614475  0.1977324002371011   T   T   T
  0.7492772311297083  0.3752058697291906  0.2787818681226785   T   T   T
  0.5844696077013806  0.3126551152965199  0.2790544191079071   T   T   T
  0.9172376788051241  0.3126883217356785  0.2782660999097732   T   T   T
  0.5016756470611955  0.3754742380987197  0.3600407454856716   T   T   T
  0.8330749916429235  0.3127164132337307  0.3582926119384202   T   T   T
  0.6657966523938132  0.3124235149974309  0.3618744041393354   T   T   T
  0.5001993469486266  0.3751125453592721  0.0373668329409540   F   F   F
  0.8342265491584655  0.4376091382735581  0.0424193945147948   F   F   F
  0.6660559599480962  0.4376604044393986  0.0424156771225839   F   F   F
  0.7502327017382058  0.0002164962773534  0.1130220722767348   F   F   F
  0.5828707196508915  0.4377156099338606  0.1186668391713255   F   F   F
  0.9176643738564039  0.4377089816271393  0.1186614737223408   F   F   F
  0.5009125455263804  0.0002415799962214  0.1991918313008140   T   T   T
  0.8327128105498652  0.4376856652214884  0.1976580220568252   T   T   T
  0.6679481056223586  0.4376969717418721  0.1977602759731457   T   T   T
  0.7497520016213894  0.0001871243204954  0.2788383261464756   T   T   T
  0.5841014676592451  0.4376751696619315  0.2792310895796654   T   T   T
  0.9174371040926221  0.4375812135203626  0.2780224688358264   T   T   T
  0.5031703036739754  0.0001565456761445  0.3600474699462837   T   T   T
  0.8332806946928063  0.4380619022286427  0.3574106984422752   T   T   T
  0.6656046586807530  0.4372962160547457  0.3607041017547928   T   T   T
  0.5002112439569970  0.5001379294448540  0.0373463921698374   F   F   F
  0.8342257926207992  0.5625994154237475  0.0423987318545187   F   F   F
  0.6660626269271432  0.5626581163633873  0.0424061668450690   F   F   F
  0.7502202084754828  0.6252178855354416  0.1130358333669221   F   F   F
  0.5828588434925734  0.5627073156657261  0.1186643004524512   F   F   F
  0.9176999472490408  0.5627059576615423  0.1186271515872050   F   F   F
  0.5008574199315959  0.6251038473927707  0.1991803282106986   T   T   T
  0.8326453680409269  0.5626685423404434  0.1975824249912738   T   T   T
  0.6678513366287242  0.5626522918953432  0.1977512773905606   T   T   T
  0.7487927338998941  0.6250875619835157  0.2784367356303513   T   T   T
  0.5840112049190362  0.5625684669288858  0.2792125896621280   T   T   T
  0.9177473265667524  0.5625872936128694  0.2776811003411225   T   T   T
  0.5027323571511640  0.6250995436873126  0.3597580829771721   T   T   T
  0.8334447458717623  0.5627360464881881  0.3571563407170412   T   T   T
  0.6655201277822087  0.5626453913143147  0.3617853768972122   T   T   T
  0.5001993579241457  0.6251124241418680  0.0373673238785415   F   F   F
  0.8342248374093941  0.6876083518869507  0.0424180467130881   F   F   F
  0.6660568042752573  0.6876606967941967  0.0424146876443743   F   F   F
  0.7502332970886698  0.7502158349488468  0.1130222857832806   F   F   F
  0.5828712378028129  0.6877169521294704  0.1186661494224168   F   F   F
  0.9176644359050954  0.6877065482458136  0.1186607550294028   F   F   F
  0.5008764901532868  0.7502472487088857  0.1991414920283692   T   T   T
  0.8327497292864169  0.6877360409668741  0.1975517664979935   T   T   T
  0.6679382129072227  0.6876992300803930  0.1976492442845759   T   T   T
  0.7489084609713986  0.7502869808242738  0.2783714078900260   T   T   T
  0.5838866695345581  0.6876630797676129  0.2788125351705787   T   T   T
  0.9178873557634791  0.6877482759731990  0.2773228683383418   T   T   T
  0.5023283346252294  0.7502714099048161  0.3594695440888750   T   T   T
  0.8332468024822981  0.6877890076083665  0.3555811045626961   T   T   T
  0.6648913905770294  0.6876895671131315  0.3609317777029518   T   T   T
  0.5002122078768210  0.7501392066830732  0.0373456541597363   F   F   F
  0.8342232035055162  0.8125992309382539  0.0423967923009556   F   F   F
  0.6660586660861370  0.8126582257413517  0.0424062846115874   F   F   F
  0.7502173161139041  0.8752178897059935  0.1130360339591618   F   F   F
  0.5828568376004242  0.8127060748111887  0.1186645141734175   F   F   F
  0.9176984722473520  0.8127078846600213  0.1186298408889357   F   F   F
  0.5009501226787062  0.8752667788416745  0.1991701296557008   T   T   T
  0.8327930007819562  0.8128219187733869  0.1975782329875869   T   T   T
  0.6680616579352386  0.8127843035859532  0.1976472926109467   T   T   T
  0.7493003633237683  0.8752879941661498  0.2786357060588865   T   T   T
  0.5840586206984768  0.8126784691146161  0.2788268435484638   T   T   T
  0.9178094334426518  0.8129237506614827  0.2776979682119927   T   T   T
  0.5025072238406053  0.8753527247306973  0.3597005732773371   T   T   T
  0.8334812599969185  0.8126827273379353  0.3570661746063341   T   T   T
  0.6654661854325722  0.8128602353077504  0.3614814045409973   T   T   T
  0.5001993469486266  0.8751125453592721  0.0373668329409540   F   F   F
  0.8342265491584655  0.9376091382735510  0.0424193945147948   F   F   F
  0.6660559599480962  0.9376604044393915  0.0424156771225839   F   F   F
  0.7502327017382058  0.5002164962773534  0.1130220722767348   F   F   F
  0.5828707196508915  0.9377156099338535  0.1186668391713255   F   F   F
  0.9176643738564039  0.9377089816271322  0.1186614737223408   F   F   F
  0.5008954549401077  0.5001699186038423  0.1992343875148194   T   T   T
  0.8329965248386103  0.9378111886298341  0.1977015969903552   T   T   T
  0.6681210912294780  0.9378054857705574  0.1977287733320029   T   T   T
  0.7490298916096263  0.5001329828557114  0.2787422603828515   T   T   T
  0.5841017949512980  0.9377318956109136  0.2789251029743711   T   T   T
  0.9175848340125717  0.9377802210948699  0.2782663728112314   T   T   T
  0.5019029712145324  0.5000445379581911  0.3610890075862960   T   T   T
  0.8339572560511120  0.9375264725811541  0.3581632613517475   T   T   T
  0.6663947821580756  0.9374681558945424  0.3603720844259865   T   T   T
  0.4059663601692378  0.0001462046730154  0.0700885167279779   F   F   F
  0.2501335306342440  0.0001313415364734  0.0393543396202674   F   F   F
  0.0944334762619548  0.0001738881651363  0.0701382961740649   F   F   F
  0.1549947328934422  0.1252546000618224  0.1485264565477067   F   F   F
  0.0003044512358912  0.1252329358346600  0.1366467142038701   F   F   F
  0.3454752489896649  0.1252525403775380  0.1484231789215542   F   F   F
  0.4016746281468815  0.1252527061035346  0.2294503926927120   T   T   T
  0.2504677326044668  0.1252936043295533  0.2154864702593556   T   T   T
  0.1001790668182890  0.1252131785419070  0.2298723310008891   T   T   T
  0.1520536590235044  0.1248808913569738  0.3111237017463166   T   T   T
  0.0010806457456251  0.1250903320275969  0.2955829424890103   T   T   T
  0.3483420975812029  0.1252461258070337  0.3092748437184227   T   T   T
  0.4036090138337864  0.1251654436127709  0.3861871861509281   T   T   T
  0.2523133527563274  0.1258524496353000  0.3767649284996903   T   T   T
  0.0997666626287604  0.1256415252580249  0.3899205445936525   T   T   T
  0.4059504510021199  0.1251528418496832  0.0701137697057277   F   F   F
  0.2501484584581348  0.1251294756807368  0.0393952583647277   F   F   F
  0.0944439778587522  0.1251741239827453  0.0701534912843229   F   F   F
  0.1549877250862224  0.2502614546838657  0.1485179043880294   F   F   F
  0.0002974674814880  0.2502100279361912  0.1366324893501272   F   F   F
  0.3454803331882346  0.2503006024972620  0.1484139149937889   F   F   F
  0.4016929512687517  0.2503303707641961  0.2294834190769286   T   T   T
  0.2505364291865063  0.2502843705887072  0.2154904717803471   T   T   T
  0.1000755052490800  0.2502248481708433  0.2298176120223270   T   T   T
  0.1517834037430424  0.2502773289327642  0.3108739543172682   T   T   T
  0.0007823746681646  0.2503129019788327  0.2956372674169576   T   T   T
  0.3485945002278396  0.2507408291091144  0.3093554009353332   T   T   T
  0.4024199726949866  0.2500168528726775  0.3873581393891328   T   T   T
  0.2520838845181455  0.2511715455957786  0.3763275514806396   T   T   T
  0.1013074611036186  0.2495174140360258  0.3915998034153683   T   T   T
  0.4059628358367533  0.2501443164155361  0.0700852243531500   F   F   F
  0.2501309939231433  0.2501318371526651  0.0393519425499136   F   F   F
  0.0944333317481849  0.2501740935465691  0.0701386596889861   F   F   F
  0.1549942609652177  0.3752545226085218  0.1485264414225469   F   F   F
  0.0003019335461047  0.3752315664304433  0.1366474736751755   F   F   F
  0.3454762333887373  0.3752493953370220  0.1484229723695165   F   F   F
  0.4016832432392492  0.3753402724369966  0.2296109749694522   T   T   T
  0.2505628169485554  0.3752662522467325  0.2155591124481544   T   T   T