Mo  S Cu                                
   1.00000000000000     
    15.9215000000000000    0.0000000000000000    0.0000000000000000
    -7.9622500000000000   13.7910219999999999    0.0000000000000000
     0.0000000000000000    0.0000000000000000   13.5822000000000003
   Mo   S    Cu
    25    50     1
Direct
  0.1327662542222683  0.0660677996452961  0.6794766893233302
  0.1327334423898208  0.2659036153062644  0.6793502911494684
  0.1328292844357861  0.4659270720309650  0.6789957642929565
  0.1327303233733872  0.6659323622580331  0.6788427436427042
  0.1327437248966561  0.8659665457133130  0.6790031116018795
  0.3328448904220807  0.0659040982827364  0.6790188408099667
  0.3326164058039183  0.2659398984901742  0.6793802399871396
  0.3328046947312160  0.4661194805457498  0.6788480471620701
  0.3328616532067841  0.6663001917480145  0.6787661626217343
  0.3326888189146118  0.8659401930190853  0.6788306532807269
  0.5327294024274707  0.0658856310559344  0.6788579204973146
  0.5326741102680899  0.2657033904270705  0.6790241777788353
  0.5325694576456215  0.4659402102921746  0.6790963880393903
  0.5329530776547315  0.6663184090118790  0.6787533837771278
  0.5327538357092294  0.8660229988577939  0.6787611754753584
  0.7326311040871545  0.0658807206354837  0.6788326455619611
  0.7326810548769345  0.2658957736677579  0.6788529870487494
  0.7326699395410756  0.4658841572528303  0.6789183845771021
  0.7326860800461645  0.6659293282177288  0.6788652066580383
  0.7327347379828737  0.8659230951901691  0.6788143810439280
  0.9324506986121293  0.0657950131792546  0.6789435716818275
  0.9324492630190946  0.2657121715783930  0.6789586453901322
  0.9326913800384986  0.4658836760275733  0.6788757852905221
  0.9326971293762156  0.6658999710501519  0.6788720509420969
  0.9327029269492400  0.8659591124958723  0.6789848223930619
  0.0661005726539301  0.1327321450424392  0.5641965225729209
  0.0657923871675550  0.1324004520474418  0.7947234580682334
  0.0660280663809445  0.3323767506728856  0.5640369757144086
  0.0656649880909654  0.3327231949895975  0.7943757832300591
  0.0661021272460403  0.5324893845425152  0.5638358826873144
  0.0660564006724300  0.5325998642609875  0.7939255249251289
  0.0660598862220141  0.7326580960293683  0.5638162557378052
  0.0660250689115429  0.7325287641289648  0.7939578404222942
  0.0661969549458945  0.9328895415650749  0.5640861732112867
  0.0659449659305693  0.9324022959871172  0.7942011227952364
  0.2660995675507394  0.1327536525289048  0.5642102636116562
  0.2660337484469864  0.1325667119180736  0.7949040576966837
  0.2660043864117441  0.3325192511257029  0.5639481488161380
  0.2659412302815625  0.3322614178313970  0.7943741819888430
  0.2662806777494566  0.5327357172570117  0.5638424985656059
  0.2661130345431530  0.5331842818646066  0.7941679236585628
  0.2660232373595193  0.7326830146313554  0.5636670914710535
  0.2660392236720810  0.7326949697378211  0.7939581158734015
  0.2660650526863648  0.9327228017836902  0.5638499766237857
  0.2660637274114563  0.9325011640041367  0.7940828332590044
  0.4659998100555143  0.1325285885510326  0.5638819703506641
  0.4661584426865346  0.1324098679033696  0.7941555583203197
  0.4658393746467269  0.3324330774120767  0.5640994541378888
  0.4663497014227502  0.3326972777809232  0.7945479100484718
  0.4659622474607801  0.5327223327138100  0.5638841734636344
  0.4665008237392669  0.5332044140333920  0.7942116083261013
  0.4661295778469707  0.7327599529100723  0.5636630220232988
  0.4661800811241150  0.7328494001192851  0.7938697426549339
  0.4660286805617915  0.9326399420184046  0.5637090880677249
  0.4660658780981066  0.9325802591527790  0.7939144636439792
  0.6660190627932110  0.1325797365269423  0.5637318520270256
  0.6660248226180556  0.1325471279879977  0.7939544708294832
  0.6659173319320146  0.3325212746159707  0.5638384535322700
  0.6661062716312003  0.3325693679465971  0.7940054904023341
  0.6658424582391191  0.5324647824340829  0.5638973767691908
  0.6660699895605973  0.5326214332238877  0.7939837594855135
  0.6661591175257300  0.7326630839811585  0.5636537201580794
  0.6661599126380224  0.7327072286551157  0.7939741477462974
  0.6660841323834177  0.9326248740930723  0.5636936475621468
  0.6660126842253931  0.9325838888788809  0.7938968298476823
  0.8659761714716012  0.1325049178807873  0.5638164466173947
  0.8657520651046369  0.1324050973201381  0.7940667239428905
  0.8660342456841263  0.3325300291274402  0.5637879051319459
  0.8659426586295638  0.3325744789123348  0.7939777811338544
  0.8660054504551695  0.5325504417976248  0.5637934661487378
  0.8660471072233378  0.5325772034390681  0.7939630117644612
  0.8660790167476264  0.7326386710387496  0.5638211633636132
  0.8660104366661585  0.7325376225222868  0.7939540866560932
  0.8661057842391173  0.9326375344497748  0.5637855564210454
  0.8659017244170926  0.9324693331508911  0.7940698942700521
  0.2604076293038418  0.3017736770433928  0.9509405334308099
 
  0.00000000E+00  0.00000000E+00  0.00000000E+00
  0.00000000E+00  0.00000000E+00  0.00000000E+00
  0.00000000E+00  0.00000000E+00  0.00000000E+00
  0.00000000E+00  0.00000000E+00  0.00000000E+00
  0.00000000E+00  0.00000000E+00  0.00000000E+00
  0.00000000E+00  0.00000000E+00  0.00000000E+00
  0.00000000E+00  0.00000000E+00  0.00000000E+00
  0.00000000E+00  0.00000000E+00  0.00000000E+00
  0.00000000E+00  0.00000000E+00  0.00000000E+00
  0.00000000E+00  0.00000000E+00  0.00000000E+00
  0.00000000E+00  0.00000000E+00  0.00000000E+00
  0.00000000E+00  0.00000000E+00  0.00000000E+00
  0.00000000E+00  0.00000000E+00  0.00000000E+00
  0.00000000E+00  0.00000000E+00  0.00000000E+00
  0.00000000E+00  0.00000000E+00  0.00000000E+00
  0.00000000E+00  0.00000000E+00  0.00000000E+00
  0.00000000E+00  0.00000000E+00  0.00000000E+00
  0.00000000E+00  0.00000000E+00  0.00000000E+00
  0.00000000E+00  0.00000000E+00  0.00000000E+00
  0.00000000E+00  0.00000000E+00  0.00000000E+00
  0.00000000E+00  0.00000000E+00  0.00000000E+00
  0.00000000E+00  0.00000000E+00  0.00000000E+00
  0.00000000E+00  0.00000000E+00  0.00000000E+00
  0.00000000E+00  0.00000000E+00  0.00000000E+00
  0.00000000E+00  0.00000000E+00  0.00000000E+00
  0.00000000E+00  0.00000000E+00  0.00000000E+00
  0.00000000E+00  0.00000000E+00  0.00000000E+00
  0.00000000E+00  0.00000000E+00  0.00000000E+00
  0.00000000E+00  0.00000000E+00  0.00000000E+00
  0.00000000E+00  0.00000000E+00  0.00000000E+00
  0.00000000E+00  0.00000000E+00  0.00000000E+00
  0.00000000E+00  0.00000000E+00  0.00000000E+00
  0.00000000E+00  0.00000000E+00  0.00000000E+00
  0.00000000E+00  0.00000000E+00  0.00000000E+00
  0.00000000E+00  0.00000000E+00  0.00000000E+00
  0.00000000E+00  0.00000000E+00  0.00000000E+00
  0.00000000E+00  0.00000000E+00  0.00000000E+00
  0.00000000E+00  0.00000000E+00  0.00000000E+00
  0.00000000E+00  0.00000000E+00  0.00000000E+00
  0.00000000E+00  0.00000000E+00  0.00000000E+00
  0.00000000E+00  0.00000000E+00  0.00000000E+00
  0.00000000E+00  0.00000000E+00  0.00000000E+00
  0.00000000E+00  0.00000000E+00  0.00000000E+00
  0.00000000E+00  0.00000000E+00  0.00000000E+00
  0.00000000E+00  0.00000000E+00  0.00000000E+00
  0.00000000E+00  0.00000000E+00  0.00000000E+00
  0.00000000E+00  0.00000000E+00  0.00000000E+00
  0.00000000E+00  0.00000000E+00  0.00000000E+00
  0.00000000E+00  0.00000000E+00  0.00000000E+00
  0.00000000E+00  0.00000000E+00  0.00000000E+00
  0.00000000E+00  0.00000000E+00  0.00000000E+00
  0.00000000E+00  0.00000000E+00  0.00000000E+00
  0.00000000E+00  0.00000000E+00  0.00000000E+00
  0.00000000E+00  0.00000000E+00  0.00000000E+00
  0.00000000E+00  0.00000000E+00  0.00000000E+00
  0.00000000E+00  0.00000000E+00  0.00000000E+00
  0.00000000E+00  0.00000000E+00  0.00000000E+00
  0.00000000E+00  0.00000000E+00  0.00000000E+00
  0.00000000E+00  0.00000000E+00  0.00000000E+00
  0.00000000E+00  0.00000000E+00  0.00000000E+00
  0.00000000E+00  0.00000000E+00  0.00000000E+00
  0.00000000E+00  0.00000000E+00  0.00000000E+00
  0.00000000E+00  0.00000000E+00  0.00000000E+00
  0.00000000E+00  0.00000000E+00  0.00000000E+00
  0.00000000E+00  0.00000000E+00  0.00000000E+00
  0.00000000E+00  0.00000000E+00  0.00000000E+00
  0.00000000E+00  0.00000000E+00  0.00000000E+00
  0.00000000E+00  0.00000000E+00  0.00000000E+00
  0.00000000E+00  0.00000000E+00  0.00000000E+00
  0.00000000E+00  0.00000000E+00  0.00000000E+00
  0.00000000E+00  0.00000000E+00  0.00000000E+00
  0.00000000E+00  0.00000000E+00  0.00000000E+00
  0.00000000E+00  0.00000000E+00  0.00000000E+00
  0.00000000E+00  0.00000000E+00  0.00000000E+00
  0.00000000E+00  0.00000000E+00  0.00000000E+00
  0.00000000E+00  0.00000000E+00  0.00000000E+00
