Ta N Cu Ru                              
   1.00000000000000     
    18.1096308199999996    0.0000000000000000    0.0000000000000000
     0.0000000000000000   11.6775998899999998    0.0000000000000000
     0.0000000000000000    0.0000000000000000   23.4818170799999990
   Ta   N    Cu   Ru
   119   120     2     1
Direct
  0.9999078677611696  0.0002579126310268  0.2547488467862869
  0.3335973605656575  0.1251647864801586  0.2637908182213144
  0.1663506954208943  0.1251646143661477  0.2637907987047655
  0.2498304373099640  0.2500719917884126  0.3615754355101720
  0.0822030202377349  0.1251695291059732  0.3684999782176017
  0.4174779722969594  0.1251224576929964  0.3685066806174286
  0.0000177973541268  0.2500446479517162  0.4800236508887804
  0.3325169533668268  0.1251673515616157  0.4780524845994280
  0.1678491057346297  0.1251867565601641  0.4783225238851277
  0.2497003527050809  0.2539808559171903  0.5907532076071963
  0.0867572109737884  0.1251739993258160  0.5915093848494126
  0.4149665285387406  0.1251901334464089  0.5909339011967664
  0.9958562854585343  0.2529996081908230  0.7042662599579320
  0.3420580181228649  0.1252400165153173  0.7070061506712564
  0.9999034129609079  0.2500300261439850  0.2547509641475965
  0.3333823031181796  0.3751299567098113  0.2638401482311623
  0.1665504385464437  0.3751968295461788  0.2638836728692963
  0.2499167451761286  0.5002333111742451  0.3615450085616422
  0.0822502717396278  0.3751224114353718  0.3683597133459814
  0.4174645008272329  0.3751024857807082  0.3684997719366910
  0.9998150872132687  0.5000979407580688  0.4797593275777367
  0.3323296049125783  0.3752911348478409  0.4782122875705014
  0.1679208866190892  0.3750379523283281  0.4780595087458893
  0.2501336691382794  0.5008057595884176  0.5908671840996890
  0.0827372182994792  0.3765494875966771  0.5895089991999730
  0.4156966316789071  0.3754298403685432  0.5900154677591045
  0.9991694056334237  0.4997465111304467  0.7029244975003152
  0.3369667084008960  0.3777657280638120  0.7049789999512750
  0.1639844251360704  0.3741799820373036  0.7068131388464538
  0.9998438266968772  0.4999670134801341  0.2546548610983476
  0.3333376049323763  0.6251851833902599  0.2637530583232687
  0.1666367897320207  0.6251987714094434  0.2639276591236120
  0.2499276969080867  0.7500913504834618  0.3615438674410820
  0.0822082979463553  0.6251805741682774  0.3682653020649561
  0.4173552478452805  0.6251229538115868  0.3683304191163893
  0.9998143526275954  0.7502745732958696  0.4797599731156918
  0.3323470383783722  0.6251571593185884  0.4779373663892849
  0.1677045365992030  0.6251664611370339  0.4777701377136621
  0.2501303101161076  0.7495876987089634  0.5908669417704332
  0.0835814955718383  0.6252077862533504  0.5894629799029939
  0.4163446288257850  0.6252026678548298  0.5899638137289756
  0.9991829279565163  0.7507188761213662  0.7029362267405616
  0.3353834619688227  0.6252334437417116  0.7042414436227836
  0.1658825821441751  0.6252593389803216  0.7029080893306254
  0.9998415211026526  0.7503228780547686  0.2546527963410556
  0.3333760335431817  0.8752636362339924  0.2638421997705831
  0.1665394967697288  0.8751636380457540  0.2638776935264905
  0.2498380793817476  0.0002627883245908  0.3615706743041072
  0.0822567530800952  0.8752232206805404  0.3683561255237375
  0.4174641584936881  0.8751404573366323  0.3684967242049456
  0.0000237933761548  0.0002936784958075  0.4800176154894040
  0.3323354594782931  0.8750377475994432  0.4782081092256160
  0.1679349168626379  0.8753089179877479  0.4780447985522443
  0.2497084214268841  0.9964015309662685  0.5907505955773411
  0.0827401975452433  0.8738580660431288  0.5894972851166556
  0.4157042043182498  0.8749458970082149  0.5900105947262141
  0.9958594922893437  0.9974870413125504  0.7042720612899491
  0.3370065797718531  0.8726268142861453  0.7049717334516320
  0.1640235531000357  0.8763023157509909  0.7068178302122450
  0.4996989596264482  0.0000690790647435  0.2548683987828987
  0.8332487559847529  0.1251487826784209  0.2638308322074822
  0.6664737090959060  0.1251080581569285  0.2639601606903032
  0.7500303235602487  0.2502044450833747  0.3616643675728043
  0.5823749246748217  0.1251003495961794  0.3685703335219877
  0.9173794399055902  0.1251401384724531  0.3685289918332619
  0.4995343106419459  0.2500767730806022  0.4800895569646659
  0.8326563437224503  0.1251860289762599  0.4784766595179071
  0.6678022425201076  0.1251729371523711  0.4781556936797550
  0.7498637866705116  0.2504185519443920  0.5911392268572426
  0.5836406440969367  0.1251797954672995  0.5896384310107498
  0.9168981313112031  0.1252099779662906  0.5905578410502239
  0.5013316676608041  0.2503315469101526  0.7015519174220248
  0.8331518261993318  0.1252815995576646  0.7039876576963664
  0.6637351568309386  0.1252360408222471  0.7041432478510589
  0.4996962025391352  0.2502062286660265  0.2548736676314193
  0.8332277802553414  0.3751124107747784  0.2638488860631475
  0.6665725389356121  0.3749733130674459  0.2639459807151240
  0.7500196170828941  0.4999720860599035  0.3616773925245898
  0.5823465861327920  0.3750725443377836  0.3685197272129818
  0.9173859541918963  0.3751090180019553  0.3684562167219457
  0.4998262201254276  0.5001856825295599  0.4798355731217491
  0.8325549422953238  0.3751303120156626  0.4783349013158434
  0.6677989613785302  0.3751964134261622  0.4780138939875972
  0.7496940342917621  0.5001354537924320  0.5908623047602715
  0.5835385262871510  0.3752162061034090  0.5895751063473824
  0.9161820759766988  0.3750035442240711  0.5903303700937441
  0.5003981273687944  0.5004217621567578  0.7018247817329735
  0.8338738649065343  0.3752494428920023  0.7041809597563645
  0.6642194970682205  0.3753125244986600  0.7040855617783502
  0.4998739482361979  0.5000989975224437  0.2547717141326449
  0.8332369517392958  0.6251308756655688  0.2638305760098262
  0.6665967184496678  0.6251245706573328  0.2639131216959269
  0.7500251118696430  0.7503006313071383  0.3616740925025188
  0.5823457442907272  0.6251305824504666  0.3684563793969038
  0.9174029978882676  0.6251584901157934  0.3683348218809523
  0.4998292527533618  0.7501303190103042  0.4798326355126225
  0.8325404731024497  0.6251928074293148  0.4782035293555707
  0.6677465645738905  0.6251622060537743  0.4780075523041801
  0.7496958637060926  0.7502894476710082  0.5908623590131301
  0.5836575928280702  0.6251962084666124  0.5895497177690752
  0.9160846708509340  0.6252246110768430  0.5901673540085699
  0.5003965995289968  0.7500055989235475  0.7018178219518456
  0.8346454202498709  0.6252415244379022  0.7043085881196144
  0.6644495799226048  0.6252473379548051  0.7042453696493634
  0.4998748848902094  0.7501546656592462  0.2547713684097122
  0.8332367830367007  0.8751784516276586  0.2638495535474745
  0.6666035742735315  0.8752602790192255  0.2639473670558918
  0.7500372105572719  0.0000721671436726  0.3616660936625236
  0.5823397343399407  0.8751708319027739  0.3685131527701867
  0.9173878963584727  0.8751717483822509  0.3684532743953212
  0.4995400243097565  0.0002388140756699  0.4800844739028223
  0.8325684335758958  0.8752427196295112  0.4783354050912952
  0.6678044318609303  0.8751626729847333  0.4780139110105149
  0.7498497567887709  0.9999915196263820  0.5911491686181172
  0.5835415604690001  0.8751514069696154  0.5895698435388492
  0.9161833586298334  0.8754451718688879  0.5903297579324746
  0.5013565995198181  0.0001065216757803  0.7015450767371990
  0.8338842844629164  0.8752937712249644  0.7041832757857841
  0.6642237685810563  0.8752050490471345  0.7040897177781734
  0.4066890048544384  0.0001972901326526  0.3013397649987020
  0.2499449243429211  0.0003310917406655  0.2580816053094176
  0.0929497904448783  0.0003642755964084  0.3011916253027245
  0.1542278651704669  0.2500910399660331  0.4100131971598122
  0.9998807293211016  0.2502321435580692  0.3932651022913517
  0.3455053235786586  0.2501668954796352  0.4100100730950066
  0.4004758765165455  0.2500444485356038  0.5223660668572598
  0.2500513669616672  0.2500218084032517  0.5026381998096281
  0.0987310204927407  0.2490715341767992  0.5223617482161101
  0.1518526654510837  0.2606881514707153  0.6327530715122696
  0.0012527068478726  0.2501179241330969  0.6147825628986827
  0.3478416676833199  0.2521816420437167  0.6344452846427255
  0.4057323108555869  0.2524379374123915  0.7417318926752562
  0.2514403093164318  0.2510456073072061  0.7301916199178174
  0.0842484900300964  0.2807567123897557  0.7506742643011850
  0.4066800302641623  0.2500993478455806  0.3013379452536597
  0.2499575263349005  0.2500188007098257  0.2580839958707221
  0.0929478794673342  0.2499847044217259  0.3011923232299781
  0.1541571313281944  0.5001110579162745  0.4098448939510176
  0.9998595638074936  0.5001333052694402  0.3930301654315610
  0.3456265531773306  0.5002006617420059  0.4099127349803106
  0.4008355695381489  0.5001911343181696  0.5220285777842307
  0.2499428094109160  0.5007156726123522  0.5026746841240206
  0.0988775043601885  0.5002676902923439  0.5218376483591479
  0.1519783466114575  0.4999500264251169  0.6328276001560426
  0.9998797433630847  0.5007173908282847  0.6142551728787076
  0.3484207266153816  0.5005148813550951  0.6335206551565837
  0.4036079965826367  0.5011205351064140  0.7408412589767519
  0.2502623392408432  0.4979010336517656  0.7237745398185200
  0.0979048773020007  0.5043710067028334  0.7387234576970468
  0.4067380778620867  0.5000676536299085  0.3011511801780499
  0.2499992679396372  0.5000978727005352  0.2575227108587075
  0.0929561515362389  0.5000692491461516  0.3010724614782170
  0.1541621333758773  0.7502319143724164  0.4098397026132585
  0.9998628351980741  0.7501939913866602  0.3930298918719909
  0.3456303915526546  0.7500800508375670  0.4099136263360457
  0.4008399276265156  0.7501619905214979  0.5220214221564258
  0.2499468018790847  0.7496339502584297  0.5026692546955019
  0.0988803253816106  0.7501190145071267  0.5218358928393936
  0.1519765517627734  0.7504885792392976  0.6328277697569362
  0.9998821501928720  0.7497126922290988  0.6142602059814890
  0.3484240025868801  0.7498762641834684  0.6335129969249579
  0.4036255739147153  0.7492852456053254  0.7408406176085565
  0.2502867797123726  0.7525758393061907  0.7237714029763103
  0.0979245647955080  0.7461401724394185  0.7387350134093419
  0.4067377182668517  0.7502313097879934  0.3011498560477775
  0.2500055087053860  0.7502613378958921  0.2575279695260809
  0.0929529154685130  0.7502794019835617  0.3010722907687585
  0.1542342371176356  0.0002519744695455  0.4100070591376304
  0.9998846482448006  0.0000833734896282  0.3932615275760157
  0.3455082512092166  0.0001371686677793  0.4100092823203604
  0.4004794432689404  0.0003197197381803  0.5223616784279638
  0.2500530968048490  0.0003155018587900  0.5026363057601160
  0.0987328112633438  0.0012976113256940  0.5223584300357600
  0.1518614104887694  0.9897221192887881  0.6327578116135751
  0.0012520772106021  0.0002900078580537  0.6147860771225792
  0.3478506512670058  0.9982139777970748  0.6344393712209637
  0.4057415969998578  0.9980278519338907  0.7417274195994757
  0.2514721141407399  0.9994012686512609  0.7301923670745650
  0.0842891490595495  0.9697944903521670  0.7506720879087001
  0.9067473490713762  0.0001820866940523  0.3011953172535664
  0.7499096935299971  0.0001941433375773  0.2573010533030063
  0.5928766326525114  0.0001898837512728  0.3012391093134728
  0.6543330633507733  0.2501326431395486  0.4099521606825999
  0.4998445799901235  0.2501177302589038  0.3933443252985361
  0.8456804156718626  0.2500804326723557  0.4101107492292221
  0.9012876872592464  0.2499768482351988  0.5224642129808084
  0.7501406054595612  0.2502500169620624  0.5029435936733292
  0.5988831758642927  0.2502794860425602  0.5217851235143618
  0.6513399911469232  0.2503813570414068  0.6330356522284744
  0.4996463445427719  0.2500132697911280  0.6130510699831615
  0.8480560453121628  0.2503382874682330  0.6334931143308951
  0.8996174973815930  0.2508759742866681  0.7416818725759787
  0.7485658541513404  0.2501490838173337  0.7236066688025347
  0.5969101414683666  0.2505946949476985  0.7408630195216824
  0.9067433266001990  0.2500956180797277  0.3011975136898052
  0.7498886752477197  0.2500495127145647  0.2573118027503711
  0.5928770787329299  0.2500333139315494  0.3012433292121721
  0.6542965565095794  0.5000734813567402  0.4098705697773064
  0.4998427002383408  0.5001367836817212  0.3931303517479468
  0.8456691924274313  0.5000893755553629  0.4099977978852465
  0.9010571718162736  0.5001186726309905  0.5223000314699767
  0.7501030742281974  0.5001832078959854  0.5027404949178400
  0.5990096791256213  0.5001384572750003  0.5217840303173183
  0.6514221287728377  0.5003570131870948  0.6330554423938685
  0.4999766719359656  0.5001331505927621  0.6131109614774596
  0.8478143062856605  0.5003931328122333  0.6331108749767546
  0.9019991735008758  0.5006511950029533  0.7405763573158172
  0.7491995893911764  0.5004059436108105  0.7238034526434329
  0.5963931842691783  0.5005278989575894  0.7405317727356631
  0.9067663694559301  0.5000515133241421  0.3011440840419775
  0.7498527396663353  0.5000919699975540  0.2573402211710762
  0.5929957407092599  0.5000711357248888  0.3012095967408547
  0.6543001156384559  0.7502187305151247  0.4098693694753527
  0.4998443343924153  0.7501154689765306  0.3931278916044874
  0.8456722057160726  0.7502361964758587  0.4099969738604293
  0.9010614936609708  0.7502820441142235  0.5223028059933624
  0.7501115879557845  0.7501838356678104  0.5027405958265754
  0.5990138621666294  0.7502118842235869  0.5217835889491720
  0.6514236430344986  0.7500548215228297  0.6330582533038255
  0.4999810663692549  0.7502439270973987  0.6131083872755962
  0.8478120525514552  0.7500735558438926  0.6331123147184873
  0.9020052171851918  0.7498603444978996  0.7405796825402673
  0.7492030311403173  0.7500974788229989  0.7238107868962577
  0.5964009305183547  0.7499544511442648  0.7405347668405506
  0.9067682732915275  0.7502274980933047  0.3011422707188768
  0.7498723698461540  0.7501471065109692  0.2573518421763022
  0.5930013890792992  0.7501781151112709  0.3012058378535231
  0.6543355396409927  0.0001483988855306  0.4099527375643346
  0.4998453956824470  0.0001300689833566  0.3933423192151611
  0.8456871068629686  0.0002325494706396  0.4101106364916710
  0.9012940007287104  0.0004197648117273  0.5224654879151310
  0.7501480287650184  0.0001109789167217  0.5029458166801462
  0.5988860710361400  0.0000664406277562  0.5217838278495972
  0.6513372901318478  0.0000257396604210  0.6330381217872176
  0.4996503318746371  0.0003689485542916  0.6130445304077986
  0.8480576537128005  0.0001186443035634  0.6334939929721658
  0.8996252350603997  0.9996394075989667  0.7416776196750992
  0.7485690773649047  0.0003662073365778  0.7236055969692965
  0.5969077431071069  0.9998801434469676  0.7408627062539882
  0.0940382363036944  0.1252800695256498  0.7636850607447673
  0.2352934938928360  0.1252264792575309  0.7873061868784990
  0.1925096944241948  0.1252239056565923  0.6820615058775460
 
  0.00000000E+00  0.00000000E+00  0.00000000E+00
  0.00000000E+00  0.00000000E+00  0.00000000E+00
  0.00000000E+00  0.00000000E+00  0.00000000E+00
  0.00000000E+00  0.00000000E+00  0.00000000E+00
  0.00000000E+00  0.00000000E+00  0.00000000E+00
  0.00000000E+00  0.00000000E+00  0.00000000E+00
  0.00000000E+00  0.00000000E+00  0.00000000E+00
  0.00000000E+00  0.00000000E+00  0.00000000E+00
  0.00000000E+00  0.00000000E+00  0.00000000E+00
  0.00000000E+00  0.00000000E+00  0.00000000E+00
  0.00000000E+00  0.00000000E+00  0.00000000E+00
  0.00000000E+00  0.00000000E+00  0.00000000E+00
  0.00000000E+00  0.00000000E+00  0.00000000E+00
  0.00000000E+00  0.00000000E+00  0.00000000E+00
  0.00000000E+00  0.00000000E+00  0.00000000E+00
  0.00000000E+00  0.00000000E+00  0.00000000E+00
  0.00000000E+00  0.00000000E+00  0.00000000E+00
  0.00000000E+00  0.00000000E+00  0.00000000E+00
  0.00000000E+00  0.00000000E+00  0.00000000E+00
  0.00000000E+00  0.00000000E+00  0.00000000E+00
  0.00000000E+00  0.00000000E+00  0.00000000E+00
  0.00000000E+00  0.00000000E+00  0.00000000E+00
  0.00000000E+00  0.00000000E+00  0.00000000E+00
  0.00000000E+00  0.00000000E+00  0.00000000E+00
  0.00000000E+00  0.00000000E+00  0.00000000E+00
  0.00000000E+00  0.00000000E+00  0.00000000E+00
  0.00000000E+00  0.00000000E+00  0.00000000E+00
  0.00000000E+00  0.00000000E+00  0.00000000E+00
  0.00000000E+00  0.00000000E+00  0.00000000E+00
  0.00000000E+00  0.00000000E+00  0.00000000E+00
  0.00000000E+00  0.00000000E+00  0.00000000E+00
  0.00000000E+00  0.00000000E+00  0.00000000E+00
  0.00000000E+00  0.00000000E+00  0.00000000E+00
  0.00000000E+00  0.00000000E+00  0.00000000E+00
  0.00000000E+00  0.00000000E+00  0.00000000E+00
  0.00000000E+00  0.00000000E+00  0.00000000E+00
  0.00000000E+00  0.00000000E+00  0.00000000E+00
  0.00000000E+00  0.00000000E+00  0.00000000E+00
  0.00000000E+00  0.00000000E+00  0.00000000E+00
  0.00000000E+00  0.00000000E+00  0.00000000E+00
  0.00000000E+00  0.00000000E+00  0.00000000E+00
  0.00000000E+00  0.00000000E+00  0.00000000E+00
  0.00000000E+00  0.00000000E+00  0.00000000E+00
  0.00000000E+00  0.00000000E+00  0.00000000E+00
  0.00000000E+00  0.00000000E+00  0.00000000E+00
  0.00000000E+00  0.00000000E+00  0.00000000E+00
  0.00000000E+00  0.00000000E+00  0.00000000E+00
  0.00000000E+00  0.00000000E+00  0.00000000E+00
  0.00000000E+00  0.00000000E+00  0.00000000E+00
  0.00000000E+00  0.00000000E+00  0.00000000E+00
  0.00000000E+00  0.00000000E+00  0.00000000E+00
  0.00000000E+00  0.00000000E+00  0.00000000E+00
  0.00000000E+00  0.00000000E+00  0.00000000E+00
  0.00000000E+00  0.00000000E+00  0.00000000E+00
  0.00000000E+00  0.00000000E+00  0.00000000E+00
  0.00000000E+00  0.00000000E+00  0.00000000E+00
  0.00000000E+00  0.00000000E+00  0.00000000E+00
  0.00000000E+00  0.00000000E+00  0.00000000E+00
  0.00000000E+00  0.00000000E+00  0.00000000E+00
  0.00000000E+00  0.00000000E+00  0.00000000E+00
  0.00000000E+00  0.00000000E+00  0.00000000E+00
  0.00000000E+00  0.00000000E+00  0.00000000E+00
  0.00000000E+00  0.00000000E+00  0.00000000E+00
  0.00000000E+00  0.00000000E+00  0.00000000E+00
  0.00000000E+00  0.00000000E+00  0.00000000E+00
  0.00000000E+00  0.00000000E+00  0.00000000E+00
  0.00000000E+00  0.00000000E+00  0.00000000E+00
  0.00000000E+00  0.00000000E+00  0.00000000E+00
  0.00000000E+00  0.00000000E+00  0.00000000E+00
  0.00000000E+00  0.00000000E+00  0.00000000E+00
  0.00000000E+00  0.00000000E+00  0.00000000E+00
  0.00000000E+00  0.00000000E+00  0.00000000E+00
  0.00000000E+00  0.00000000E+00  0.00000000E+00
  0.00000000E+00  0.00000000E+00  0.00000000E+00
  0.00000000E+00  0.00000000E+00  0.00000000E+00
  0.00000000E+00  0.00000000E+00  0.00000000E+00
  0.00000000E+00  0.00000000E+00  0.00000000E+00
  0.00000000E+00  0.00000000E+00  0.00000000E+00
  0.00000000E+00  0.00000000E+00  0.00000000E+00
  0.00000000E+00  0.00000000E+00  0.00000000E+00
  0.00000000E+00  0.00000000E+00  0.00000000E+00
  0.00000000E+00  0.00000000E+00  0.00000000E+00
  0.00000000E+00  0.00000000E+00  0.00000000E+00
  0.00000000E+00  0.00000000E+00  0.00000000E+00
  0.00000000E+00  0.00000000E+00  0.00000000E+00
  0.00000000E+00  0.00000000E+00  0.00000000E+00
  0.00000000E+00  0.00000000E+00  0.00000000E+00
  0.00000000E+00  0.00000000E+00  0.00000000E+00
  0.00000000E+00  0.00000000E+00  0.00000000E+00
  0.00000000E+00  0.00000000E+00  0.00000000E+00
  0.00000000E+00  0.00000000E+00  0.00000000E+00
  0.00000000E+00  0.00000000E+00  0.00000000E+00
  0.00000000E+00  0.00000000E+00  0.00000000E+00
  0.00000000E+00  0.00000000E+00  0.00000000E+00
  0.00000000E+00  0.00000000E+00  0.00000000E+00
  0.00000000E+00  0.00000000E+00  0.00000000E+00
  0.00000000E+00  0.00000000E+00  0.00000000E+00
  0.00000000E+00  0.00000000E+00  0.00000000E+00
  0.00000000E+00  0.00000000E+00  0.00000000E+00
  0.00000000E+00  0.00000000E+00  0.00000000E+00
  0.00000000E+00  0.00000000E+00  0.00000000E+00
  0.00000000E+00  0.00000000E+00  0.00000000E+00
  0.00000000E+00  0.00000000E+00  0.00000000E+00
  0.00000000E+00  0.00000000E+00  0.00000000E+00
  0.00000000E+00  0.00000000E+00  0.00000000E+00
  0.00000000E+00  0.00000000E+00  0.00000000E+00
  0.00000000E+00  0.00000000E+00  0.00000000E+00
  0.00000000E+00  0.00000000E+00  0.00000000E+00
  0.00000000E+00  0.00000000E+00  0.00000000E+00
  0.00000000E+00  0.00000000E+00  0.00000000E+00
  0.00000000E+00  0.00000000E+00  0.00000000E+00
  0.00000000E+00  0.00000000E+00  0.00000000E+00
  0.00000000E+00  0.00000000E+00  0.00000000E+00
  0.00000000E+00  0.00000000E+00  0.00000000E+00
  0.00000000E+00  0.00000000E+00  0.00000000E+00
  0.00000000E+00  0.00000000E+00  0.00000000E+00
  0.00000000E+00  0.00000000E+00  0.00000000E+00
  0.00000000E+00  0.00000000E+00  0.00000000E+00
  0.00000000E+00  0.00000000E+00  0.00000000E+00
  0.00000000E+00  0.00000000E+00  0.00000000E+00
  0.00000000E+00  0.00000000E+00  0.00000000E+00
  0.00000000E+00  0.00000000E+00  0.00000000E+00
  0.00000000E+00  0.00000000E+00  0.00000000E+00
  0.00000000E+00  0.00000000E+00  0.00000000E+00
  0.00000000E+00  0.00000000E+00  0.00000000E+00
  0.00000000E+00  0.00000000E+00  0.00000000E+00
  0.00000000E+00  0.00000000E+00  0.00000000E+00
  0.00000000E+00  0.00000000E+00  0.00000000E+00
  0.00000000E+00  0.00000000E+00  0.00000000E+00
  0.00000000E+00  0.00000000E+00  0.00000000E+00
  0.00000000E+00  0.00000000E+00  0.00000000E+00
  0.00000000E+00  0.00000000E+00  0.00000000E+00
  0.00000000E+00  0.00000000E+00  0.00000000E+00
  0.00000000E+00  0.00000000E+00  0.00000000E+00
  0.00000000E+00  0.00000000E+00  0.00000000E+00
  0.00000000E+00  0.00000000E+00  0.00000000E+00
  0.00000000E+00  0.00000000E+00  0.00000000E+00
  0.00000000E+00  0.00000000E+00  0.00000000E+00
  0.00000000E+00  0.00000000E+00  0.00000000E+00
  0.00000000E+00  0.00000000E+00  0.00000000E+00
  0.00000000E+00  0.00000000E+00  0.00000000E+00
  0.00000000E+00  0.00000000E+00  0.00000000E+00
  0.00000000E+00  0.00000000E+00  0.00000000E+00
  0.00000000E+00  0.00000000E+00  0.00000000E+00
  0.00000000E+00  0.00000000E+00  0.00000000E+00
  0.00000000E+00  0.00000000E+00  0.00000000E+00
  0.00000000E+00  0.00000000E+00  0.00000000E+00
  0.00000000E+00  0.00000000E+00  0.00000000E+00
  0.00000000E+00  0.00000000E+00  0.00000000E+00
  0.00000000E+00  0.00000000E+00  0.00000000E+00
  0.00000000E+00  0.00000000E+00  0.00000000E+00
  0.00000000E+00  0.00000000E+00  0.00000000E+00
  0.00000000E+00  0.00000000E+00  0.00000000E+00
  0.00000000E+00  0.00000000E+00  0.00000000E+00
  0.00000000E+00  0.00000000E+00  0.00000000E+00
  0.00000000E+00  0.00000000E+00  0.00000000E+00
  0.00000000E+00  0.00000000E+00  0.00000000E+00
  0.00000000E+00  0.00000000E+00  0.00000000E+00
  0.00000000E+00  0.00000000E+00  0.00000000E+00
  0.00000000E+00  0.00000000E+00  0.00000000E+00
  0.00000000E+00  0.00000000E+00  0.00000000E+00
  0.00000000E+00  0.00000000E+00  0.00000000E+00
  0.00000000E+00  0.00000000E+00  0.00000000E+00
  0.00000000E+00  0.00000000E+00  0.00000000E+00
  0.00000000E+00  0.00000000E+00  0.00000000E+00
  0.00000000E+00  0.00000000E+00  0.00000000E+00
  0.00000000E+00  0.00000000E+00  0.00000000E+00
  0.00000000E+00  0.00000000E+00  0.00000000E+00
  0.00000000E+00  0.00000000E+00  0.00000000E+00
  0.00000000E+00  0.00000000E+00  0.00000000E+00
  0.00000000E+00  0.00000000E+00  0.00000000E+00
  0.00000000E+00  0.00000000E+00  0.00000000E+00
  0.00000000E+00  0.00000000E+00  0.00000000E+00
  0.00000000E+00  0.00000000E+00  0.00000000E+00
  0.00000000E+00  0.00000000E+00  0.00000000E+00
  0.00000000E+00  0.00000000E+00  0.00000000E+00
  0.00000000E+00  0.00000000E+00  0.00000000E+00
  0.00000000E+00  0.00000000E+00  0.00000000E+00
  0.00000000E+00  0.00000000E+00  0.00000000E+00
  0.00000000E+00  0.00000000E+00  0.00000000E+00
  0.00000000E+00  0.00000000E+00  0.00000000E+00
  0.00000000E+00  0.00000000E+00  0.00000000E+00
  0.00000000E+00  0.00000000E+00  0.00000000E+00
  0.00000000E+00  0.00000000E+00  0.00000000E+00
  0.00000000E+00  0.00000000E+00  0.00000000E+00
  0.00000000E+00  0.00000000E+00  0.00000000E+00
  0.00000000E+00  0.00000000E+00  0.00000000E+00
  0.00000000E+00  0.00000000E+00  0.00000000E+00
  0.00000000E+00  0.00000000E+00  0.00000000E+00
  0.00000000E+00  0.00000000E+00  0.00000000E+00
  0.00000000E+00  0.00000000E+00  0.00000000E+00
  0.00000000E+00  0.00000000E+00  0.00000000E+00
  0.00000000E+00  0.00000000E+00  0.00000000E+00
  0.00000000E+00  0.00000000E+00  0.00000000E+00
  0.00000000E+00  0.00000000E+00  0.00000000E+00
  0.00000000E+00  0.00000000E+00  0.00000000E+00
  0.00000000E+00  0.00000000E+00  0.00000000E+00
  0.00000000E+00  0.00000000E+00  0.00000000E+00
  0.00000000E+00  0.00000000E+00  0.00000000E+00
  0.00000000E+00  0.00000000E+00  0.00000000E+00
  0.00000000E+00  0.00000000E+00  0.00000000E+00
  0.00000000E+00  0.00000000E+00  0.00000000E+00
  0.00000000E+00  0.00000000E+00  0.00000000E+00
  0.00000000E+00  0.00000000E+00  0.00000000E+00
  0.00000000E+00  0.00000000E+00  0.00000000E+00
  0.00000000E+00  0.00000000E+00  0.00000000E+00
  0.00000000E+00  0.00000000E+00  0.00000000E+00
  0.00000000E+00  0.00000000E+00  0.00000000E+00
  0.00000000E+00  0.00000000E+00  0.00000000E+00
  0.00000000E+00  0.00000000E+00  0.00000000E+00
  0.00000000E+00  0.00000000E+00  0.00000000E+00
  0.00000000E+00  0.00000000E+00  0.00000000E+00
  0.00000000E+00  0.00000000E+00  0.00000000E+00
  0.00000000E+00  0.00000000E+00  0.00000000E+00
  0.00000000E+00  0.00000000E+00  0.00000000E+00
  0.00000000E+00  0.00000000E+00  0.00000000E+00
  0.00000000E+00  0.00000000E+00  0.00000000E+00
  0.00000000E+00  0.00000000E+00  0.00000000E+00
  0.00000000E+00  0.00000000E+00  0.00000000E+00
  0.00000000E+00  0.00000000E+00  0.00000000E+00
  0.00000000E+00  0.00000000E+00  0.00000000E+00
  0.00000000E+00  0.00000000E+00  0.00000000E+00
  0.00000000E+00  0.00000000E+00  0.00000000E+00
  0.00000000E+00  0.00000000E+00  0.00000000E+00
  0.00000000E+00  0.00000000E+00  0.00000000E+00
  0.00000000E+00  0.00000000E+00  0.00000000E+00
  0.00000000E+00  0.00000000E+00  0.00000000E+00
  0.00000000E+00  0.00000000E+00  0.00000000E+00
  0.00000000E+00  0.00000000E+00  0.00000000E+00
  0.00000000E+00  0.00000000E+00  0.00000000E+00
  0.00000000E+00  0.00000000E+00  0.00000000E+00
  0.00000000E+00  0.00000000E+00  0.00000000E+00
  0.00000000E+00  0.00000000E+00  0.00000000E+00
  0.00000000E+00  0.00000000E+00  0.00000000E+00
  0.00000000E+00  0.00000000E+00  0.00000000E+00
  0.00000000E+00  0.00000000E+00  0.00000000E+00
  0.00000000E+00  0.00000000E+00  0.00000000E+00
  0.00000000E+00  0.00000000E+00  0.00000000E+00
  0.00000000E+00  0.00000000E+00  0.00000000E+00
  0.00000000E+00  0.00000000E+00  0.00000000E+00
  0.00000000E+00  0.00000000E+00  0.00000000E+00
  0.00000000E+00  0.00000000E+00  0.00000000E+00
