Mo  S Ru                                
   1.00000000000000     
    15.9215000000000000    0.0000000000000000    0.0000000000000000
    -7.9622500000000000   13.7910219999999999    0.0000000000000000
     0.0000000000000000    0.0000000000000000   13.5822000000000003
   Mo   S    Ru
    25    50     3
Direct
  0.1330185408080027  0.0656446835146269  0.6813885248537517
  0.1337371662624562  0.2635452076630784  0.6792406524422177
  0.1332125332375682  0.4655626004227216  0.6722924063524687
  0.1323141646467647  0.6652953584342214  0.6702816828354727
  0.1319543063397361  0.8651533960287310  0.6762984713352651
  0.3335300015516651  0.0667409362914171  0.6763550974752590
  0.3367596097431758  0.2689007858096701  0.6865193643475962
  0.3270700212886766  0.4623002069143638  0.6883339410108178
  0.3299686385536305  0.6688741349301779  0.6790220077389719
  0.3311235376299493  0.8675631877598207  0.6729116247387665
  0.5333754511657176  0.0663737803084956  0.6703634548489248
  0.5355269042113662  0.2632456803655288  0.6741749459772421
  0.5413040011434660  0.4567060673544887  0.6904659503587851
  0.5222766816545672  0.6764152177499341  0.7089921959912999
  0.5298033273509830  0.8687134042926061  0.6790590871611002
  0.7330842552320433  0.0654742153814496  0.6723206093561132
  0.7352031763537923  0.2631332596158913  0.6671095256692254
  0.7372643634865383  0.4614325791158578  0.6708412561395320
  0.7419790948692224  0.6573633595523489  0.6904964026099591
  0.7364374673962502  0.8717003154481375  0.6882329388309287
  0.9351418635657467  0.0649811695650797  0.6791883272980783
  0.9347266318574583  0.2639512440699363  0.6702412213103059
  0.9355664277556386  0.4634919914277660  0.6670732780157209
  0.9354191071354450  0.6631744538045652  0.6741236422571006
  0.9297906195865977  0.8619456008724384  0.6864372483486250
  0.0678568129578636  0.1308867801080709  0.5639926019707815
  0.0665680904226207  0.1320934507543683  0.7956024981579617
  0.0710458638083011  0.3302919905254811  0.5585730120419754
  0.0645291492217339  0.3322385835949930  0.7880771052509346
  0.0699025076207533  0.5323094805928505  0.5534538152832695
  0.0652535448488791  0.5311777560913669  0.7847437061891327
  0.0662895716915415  0.7340023371447018  0.5574932712773517
  0.0680023618022290  0.7298944942954648  0.7885227801344072
  0.0611574228070495  0.9312227317451871  0.5672564317042657
  0.0670095794290120  0.9306804281080474  0.7959080973998027
  0.2674842281816296  0.1375673657096570  0.5673192837320613
  0.2679597367387387  0.1316584239393492  0.7959598589892920
  0.2712625342027621  0.3360041455936411  0.5694627850248111
  0.2613788703318107  0.3313997951337271  0.8042207224809275
  0.2720537512464176  0.5339169947543283  0.5642290684430833
  0.2581662462076508  0.5333924263258538  0.7938175868246091
  0.2671692953026366  0.7336533336571662  0.5576909264645593
  0.2604630568409050  0.7349344846681660  0.7890167911104697
  0.2639864505477547  0.9347577364246007  0.5595851768714084
  0.2658117825936159  0.9328630606985087  0.7903310931027505
  0.4646801145075443  0.1323856891571822  0.5575550306317822
  0.4687906485764231  0.1306979671054620  0.7886073522935320
  0.4671275199289724  0.3341274009382929  0.5662507496195417
  0.4754430766520983  0.3251512070987985  0.8026821515651292
  0.4721784048232536  0.5369887400485709  0.5972870214293735
  0.4479530912711809  0.5737862158240219  0.8632403060100486
  0.4676144199960675  0.7311106139016701  0.5708361191442890
  0.4507956621307585  0.7478524087759055  0.8031414843349438
  0.4650577085431422  0.9315536122109052  0.5577378418132142
  0.4637328726279577  0.9382045797505185  0.7890651392077928
  0.6663428427978744  0.1288101438950804  0.5535044100709001
  0.6675182083443758  0.1334592609170144  0.7848030464033329
  0.6664186797397491  0.3298872025974262  0.5543730337926647
  0.6723400334838061  0.3276152895408231  0.7854117503055278
  0.6666362077584012  0.5320490643482501  0.5666763833759276
  0.6790143148595078  0.5196585952131727  0.8023074607119298
  0.6617369026253712  0.7265543844492726  0.5972988109215365
  0.6247562542563259  0.7505864313974797  0.8634643819088552
  0.6647256548414120  0.9266914682164114  0.5641967381897928
  0.6653039699614283  0.9404895430594635  0.7938186949895965
  0.8683412532666424  0.1276562018523677  0.5585578814487207
  0.8664404214530492  0.1341543135506953  0.7880643882460916
  0.8692628379708722  0.3294169971544463  0.5520552522267721
  0.8679854754788110  0.3307492363781961  0.7826032934865026
  0.8688071299675002  0.5322815597984558  0.5543485211111872
  0.8711147779129931  0.5263972410247959  0.7853820582671958
  0.8644908992622362  0.7315449079703100  0.5662213393767601
  0.8736029602582178  0.7233252598994184  0.8027188395930338
  0.8627404644826129  0.9275056623210105  0.5693554314188773
  0.8673480311654203  0.9373466402672648  0.8041084132429717
  0.4203146544667931  0.4268250455647404  0.8483784219067445
  0.5990519481180812  0.5995568809980654  0.8441088767375291
  0.7717657273984528  0.7784243305174243  0.8481202422138807
 
  0.00000000E+00  0.00000000E+00  0.00000000E+00
  0.00000000E+00  0.00000000E+00  0.00000000E+00
  0.00000000E+00  0.00000000E+00  0.00000000E+00
  0.00000000E+00  0.00000000E+00  0.00000000E+00
  0.00000000E+00  0.00000000E+00  0.00000000E+00
  0.00000000E+00  0.00000000E+00  0.00000000E+00
  0.00000000E+00  0.00000000E+00  0.00000000E+00
  0.00000000E+00  0.00000000E+00  0.00000000E+00
  0.00000000E+00  0.00000000E+00  0.00000000E+00
  0.00000000E+00  0.00000000E+00  0.00000000E+00
  0.00000000E+00  0.00000000E+00  0.00000000E+00
  0.00000000E+00  0.00000000E+00  0.00000000E+00
  0.00000000E+00  0.00000000E+00  0.00000000E+00
  0.00000000E+00  0.00000000E+00  0.00000000E+00
  0.00000000E+00  0.00000000E+00  0.00000000E+00
  0.00000000E+00  0.00000000E+00  0.00000000E+00
  0.00000000E+00  0.00000000E+00  0.00000000E+00
  0.00000000E+00  0.00000000E+00  0.00000000E+00
  0.00000000E+00  0.00000000E+00  0.00000000E+00
  0.00000000E+00  0.00000000E+00  0.00000000E+00
  0.00000000E+00  0.00000000E+00  0.00000000E+00
  0.00000000E+00  0.00000000E+00  0.00000000E+00
  0.00000000E+00  0.00000000E+00  0.00000000E+00
  0.00000000E+00  0.00000000E+00  0.00000000E+00
  0.00000000E+00  0.00000000E+00  0.00000000E+00
  0.00000000E+00  0.00000000E+00  0.00000000E+00
  0.00000000E+00  0.00000000E+00  0.00000000E+00
  0.00000000E+00  0.00000000E+00  0.00000000E+00
  0.00000000E+00  0.00000000E+00  0.00000000E+00
  0.00000000E+00  0.00000000E+00  0.00000000E+00
  0.00000000E+00  0.00000000E+00  0.00000000E+00
  0.00000000E+00  0.00000000E+00  0.00000000E+00
  0.00000000E+00  0.00000000E+00  0.00000000E+00
  0.00000000E+00  0.00000000E+00  0.00000000E+00
  0.00000000E+00  0.00000000E+00  0.00000000E+00
  0.00000000E+00  0.00000000E+00  0.00000000E+00
  0.00000000E+00  0.00000000E+00  0.00000000E+00
  0.00000000E+00  0.00000000E+00  0.00000000E+00
  0.00000000E+00  0.00000000E+00  0.00000000E+00
  0.00000000E+00  0.00000000E+00  0.00000000E+00
  0.00000000E+00  0.00000000E+00  0.00000000E+00
  0.00000000E+00  0.00000000E+00  0.00000000E+00
  0.00000000E+00  0.00000000E+00  0.00000000E+00
  0.00000000E+00  0.00000000E+00  0.00000000E+00
  0.00000000E+00  0.00000000E+00  0.00000000E+00
  0.00000000E+00  0.00000000E+00  0.00000000E+00
  0.00000000E+00  0.00000000E+00  0.00000000E+00
  0.00000000E+00  0.00000000E+00  0.00000000E+00
  0.00000000E+00  0.00000000E+00  0.00000000E+00
  0.00000000E+00  0.00000000E+00  0.00000000E+00
  0.00000000E+00  0.00000000E+00  0.00000000E+00
  0.00000000E+00  0.00000000E+00  0.00000000E+00
  0.00000000E+00  0.00000000E+00  0.00000000E+00
  0.00000000E+00  0.00000000E+00  0.00000000E+00
  0.00000000E+00  0.00000000E+00  0.00000000E+00
  0.00000000E+00  0.00000000E+00  0.00000000E+00
  0.00000000E+00  0.00000000E+00  0.00000000E+00
  0.00000000E+00  0.00000000E+00  0.00000000E+00
  0.00000000E+00  0.00000000E+00  0.00000000E+00
  0.00000000E+00  0.00000000E+00  0.00000000E+00
  0.00000000E+00  0.00000000E+00  0.00000000E+00
  0.00000000E+00  0.00000000E+00  0.00000000E+00
  0.00000000E+00  0.00000000E+00  0.00000000E+00
  0.00000000E+00  0.00000000E+00  0.00000000E+00
  0.00000000E+00  0.00000000E+00  0.00000000E+00
  0.00000000E+00  0.00000000E+00  0.00000000E+00
  0.00000000E+00  0.00000000E+00  0.00000000E+00
  0.00000000E+00  0.00000000E+00  0.00000000E+00
  0.00000000E+00  0.00000000E+00  0.00000000E+00
  0.00000000E+00  0.00000000E+00  0.00000000E+00
  0.00000000E+00  0.00000000E+00  0.00000000E+00
  0.00000000E+00  0.00000000E+00  0.00000000E+00
  0.00000000E+00  0.00000000E+00  0.00000000E+00
  0.00000000E+00  0.00000000E+00  0.00000000E+00
  0.00000000E+00  0.00000000E+00  0.00000000E+00
  0.00000000E+00  0.00000000E+00  0.00000000E+00
  0.00000000E+00  0.00000000E+00  0.00000000E+00
  0.00000000E+00  0.00000000E+00  0.00000000E+00
