Mo  S Cu                                
   1.00000000000000     
    15.9214998300000001    0.0000000000000000    0.0000000000000000
    -7.9622501300000001   13.7910221699999997    0.0000000000000000
     0.0000000000000000    0.0000000000000000   13.5821998300000004
   Mo   S    Cu
    25    50     3
Direct
  0.1323377003406563  0.0655269146197668  0.6765706156629463
  0.1324538695966666  0.2655096572852855  0.6774403686201538
  0.1323489903606969  0.4654236880426410  0.6766131690154040
  0.1325830168819735  0.6655400235651854  0.6764396767437546
  0.1325783349274516  0.8656294321388955  0.6764095440411637
  0.3326446757400277  0.0657858392493651  0.6762071474506541
  0.3318812412377383  0.2652055154961559  0.6757336543972485
  0.3317002059727443  0.4651013468556187  0.6756685177108963
  0.3326526610242979  0.6653726081495890  0.6764088229854366
  0.3326434488236174  0.8656113469174898  0.6764846863920155
  0.5327669787136671  0.0655474702053027  0.6766403208720746
  0.5330588076929814  0.2653937845839778  0.6758261727522168
  0.5324063345122951  0.4653725552847803  0.6784363885851903
  0.5333385295913970  0.6663233206662582  0.6761554858277350
  0.5327846890615859  0.8657550772927323  0.6768376502451758
  0.7327015563441250  0.0656225831430959  0.6772938189842321
  0.7325582091240435  0.2655692254596858  0.6774349551148617
  0.7328944980868499  0.4648562056704364  0.6755682971781454
  0.7326611337200646  0.6665193672123451  0.6759796797115456
  0.7324623555175975  0.8653706777423480  0.6777559368575936
  0.9324663467783267  0.0656163505189156  0.6772644247899606
  0.9324942939955605  0.2654516159801972  0.6771930769947261
  0.9326556876444485  0.4654211701331263  0.6765626051455200
  0.9323009528500350  0.6654123542299430  0.6762814296400563
  0.9325759303837984  0.8657862121732904  0.6767195153151206
  0.0656091993694758  0.1324767897529355  0.5620327309362665
  0.0658526592518953  0.1320326373952909  0.7922276109476485
  0.0656942149440241  0.3317772006737982  0.5620236640064178
  0.0658235882628446  0.3324084919499910  0.7922318635701942
  0.0658739626003637  0.5321096655668640  0.5614180673569393
  0.0659261547134307  0.5322984346837316  0.7917125810135701
  0.0658556491387898  0.7322231137141983  0.5614251320053043
  0.0657681921556019  0.7321938229421363  0.7913751226619965
  0.0657350187156638  0.9322920146401046  0.5614560809728246
  0.0659770872009773  0.9322548091193354  0.7916990682971203
  0.2654441624784099  0.1320546411883399  0.5610025805918468
  0.2656501794303026  0.1319594560446404  0.7914235221495858
  0.2652467791603144  0.3318806253697417  0.5613411299626065
  0.2675703454718033  0.3330571363828412  0.7934407243095620
  0.2654627941879113  0.5320342204140118  0.5610807603968411
  0.2656111282398754  0.5321601722497320  0.7915080776675083
  0.2660238122439367  0.7322206315503692  0.5614847048724201
  0.2659846037462472  0.7321890807477018  0.7914698830697233
  0.2659598144876227  0.9322642440023756  0.5613699772228884
  0.2659963128881273  0.9324363395538455  0.7914068050771803
  0.4661911398576137  0.1320876140406213  0.5610694275800725
  0.4658805398073440  0.1320305552670646  0.7914220268855985
  0.4661385923471357  0.3326810975901964  0.5618690869547649
  0.4650388570602360  0.3305308683562842  0.7936512905781825
  0.4662019517172169  0.5321414637318682  0.5621826962237364
  0.4649643442301254  0.5327424783483679  0.7940983364507588
  0.4662656201781417  0.7326132789180022  0.5613652805600395
  0.4659261525457978  0.7323987235278722  0.7916375246057967
  0.4661477360119051  0.9322672648987833  0.5615649001499463
  0.4658596928151510  0.9322659389952150  0.7917787019362024
  0.6664096928080383  0.1324871472466924  0.5620814741818165
  0.6657678941206910  0.1320949485033083  0.7922683481147175
  0.6661633259084425  0.3318231768755737  0.5611642627313387
  0.6649857370135379  0.3332761056211098  0.7937065128977281
  0.6655188397885752  0.5321398434787028  0.5622953339264924
  0.6673340090738265  0.5327236987904342  0.7943913912761857
  0.6661764029623427  0.7328751502453059  0.5613810751809041
  0.6647774740981944  0.7298641572595059  0.7945230596305635
  0.6664138964728821  0.9323124886183152  0.5622838674589659
  0.6657800095939734  0.9323209704551090  0.7924843597230478
  0.8658490360181545  0.1321928074586367  0.5621395023340767
  0.8659177656343289  0.1322862519971295  0.7924268726214052
  0.8655913301561071  0.3317412977807379  0.5620085454711159
  0.8661335154950933  0.3324398146096001  0.7922213322288982
  0.8661842246011986  0.5320286663445728  0.5609895730270296
  0.8660955408356372  0.5321580994810233  0.7913406614185305
  0.8659847059483710  0.7326860778867115  0.5612169714453046
  0.8660980909919402  0.7324568143796171  0.7914738682312290
  0.8654154007124717  0.9323250713342546  0.5622229163120593
  0.8661486998308021  0.9323140882323244  0.7924303123276033
  0.4340705488565533  0.4168470034698473  0.9330558734673815
  0.5833055767845607  0.4167104432913433  0.9295273946253815
  0.5833505434454338  0.5676129503957696  0.9279192981892237
 
  0.00000000E+00  0.00000000E+00  0.00000000E+00
  0.00000000E+00  0.00000000E+00  0.00000000E+00
  0.00000000E+00  0.00000000E+00  0.00000000E+00
  0.00000000E+00  0.00000000E+00  0.00000000E+00
  0.00000000E+00  0.00000000E+00  0.00000000E+00
  0.00000000E+00  0.00000000E+00  0.00000000E+00
  0.00000000E+00  0.00000000E+00  0.00000000E+00
  0.00000000E+00  0.00000000E+00  0.00000000E+00
  0.00000000E+00  0.00000000E+00  0.00000000E+00
  0.00000000E+00  0.00000000E+00  0.00000000E+00
  0.00000000E+00  0.00000000E+00  0.00000000E+00
  0.00000000E+00  0.00000000E+00  0.00000000E+00
  0.00000000E+00  0.00000000E+00  0.00000000E+00
  0.00000000E+00  0.00000000E+00  0.00000000E+00
  0.00000000E+00  0.00000000E+00  0.00000000E+00
  0.00000000E+00  0.00000000E+00  0.00000000E+00
  0.00000000E+00  0.00000000E+00  0.00000000E+00
  0.00000000E+00  0.00000000E+00  0.00000000E+00
  0.00000000E+00  0.00000000E+00  0.00000000E+00
  0.00000000E+00  0.00000000E+00  0.00000000E+00
  0.00000000E+00  0.00000000E+00  0.00000000E+00
  0.00000000E+00  0.00000000E+00  0.00000000E+00
  0.00000000E+00  0.00000000E+00  0.00000000E+00
  0.00000000E+00  0.00000000E+00  0.00000000E+00
  0.00000000E+00  0.00000000E+00  0.00000000E+00
  0.00000000E+00  0.00000000E+00  0.00000000E+00
  0.00000000E+00  0.00000000E+00  0.00000000E+00
  0.00000000E+00  0.00000000E+00  0.00000000E+00
  0.00000000E+00  0.00000000E+00  0.00000000E+00
  0.00000000E+00  0.00000000E+00  0.00000000E+00
  0.00000000E+00  0.00000000E+00  0.00000000E+00
  0.00000000E+00  0.00000000E+00  0.00000000E+00
  0.00000000E+00  0.00000000E+00  0.00000000E+00
  0.00000000E+00  0.00000000E+00  0.00000000E+00
  0.00000000E+00  0.00000000E+00  0.00000000E+00
  0.00000000E+00  0.00000000E+00  0.00000000E+00
  0.00000000E+00  0.00000000E+00  0.00000000E+00
  0.00000000E+00  0.00000000E+00  0.00000000E+00
  0.00000000E+00  0.00000000E+00  0.00000000E+00
  0.00000000E+00  0.00000000E+00  0.00000000E+00
  0.00000000E+00  0.00000000E+00  0.00000000E+00
  0.00000000E+00  0.00000000E+00  0.00000000E+00
  0.00000000E+00  0.00000000E+00  0.00000000E+00
  0.00000000E+00  0.00000000E+00  0.00000000E+00
  0.00000000E+00  0.00000000E+00  0.00000000E+00
  0.00000000E+00  0.00000000E+00  0.00000000E+00
  0.00000000E+00  0.00000000E+00  0.00000000E+00
  0.00000000E+00  0.00000000E+00  0.00000000E+00
  0.00000000E+00  0.00000000E+00  0.00000000E+00
  0.00000000E+00  0.00000000E+00  0.00000000E+00
  0.00000000E+00  0.00000000E+00  0.00000000E+00
  0.00000000E+00  0.00000000E+00  0.00000000E+00
  0.00000000E+00  0.00000000E+00  0.00000000E+00
  0.00000000E+00  0.00000000E+00  0.00000000E+00
  0.00000000E+00  0.00000000E+00  0.00000000E+00
  0.00000000E+00  0.00000000E+00  0.00000000E+00
  0.00000000E+00  0.00000000E+00  0.00000000E+00
  0.00000000E+00  0.00000000E+00  0.00000000E+00
  0.00000000E+00  0.00000000E+00  0.00000000E+00
  0.00000000E+00  0.00000000E+00  0.00000000E+00
  0.00000000E+00  0.00000000E+00  0.00000000E+00
  0.00000000E+00  0.00000000E+00  0.00000000E+00
  0.00000000E+00  0.00000000E+00  0.00000000E+00
  0.00000000E+00  0.00000000E+00  0.00000000E+00
  0.00000000E+00  0.00000000E+00  0.00000000E+00
  0.00000000E+00  0.00000000E+00  0.00000000E+00
  0.00000000E+00  0.00000000E+00  0.00000000E+00
  0.00000000E+00  0.00000000E+00  0.00000000E+00
  0.00000000E+00  0.00000000E+00  0.00000000E+00
  0.00000000E+00  0.00000000E+00  0.00000000E+00
  0.00000000E+00  0.00000000E+00  0.00000000E+00
  0.00000000E+00  0.00000000E+00  0.00000000E+00
  0.00000000E+00  0.00000000E+00  0.00000000E+00
  0.00000000E+00  0.00000000E+00  0.00000000E+00
  0.00000000E+00  0.00000000E+00  0.00000000E+00
  0.00000000E+00  0.00000000E+00  0.00000000E+00
  0.00000000E+00  0.00000000E+00  0.00000000E+00
  0.00000000E+00  0.00000000E+00  0.00000000E+00
