Ta  N Co Cu                             
   1.00000000000000     
    18.1096308199999996    0.0000000000000000    0.0000000000000000
     0.0000000000000000   23.3551997799999995    0.0000000000000000
     0.0000000000000000    0.0000000000000000   30.4818171199999988
   Ta   N    Co   Cu
   228   240    12     1
Direct
  0.9998327110899510  0.0001958699097315  0.1977355110293928
  0.3342232402182930  0.0624593098941517  0.2026564743487711
  0.1657284592761386  0.0624784806365923  0.2029339376738122
  0.2500002798798988  0.1250293755463190  0.2783982015042952
  0.0825296147363517  0.0625765027443990  0.2843252896524149
  0.4170331251108763  0.0625206518610497  0.2842023232006667
  0.0000352003538708  0.1251079238621600  0.3700285331338264
  0.3316759201070809  0.0626039536219309  0.3688271968207175
  0.1679357306427605  0.0626023437911343  0.3686200597435914
  0.2510121784964880  0.1274406176819483  0.4575907986688676
  0.0850738538356168  0.0626705096498057  0.4550554872079076
  0.4169685110259138  0.0622718232710042  0.4536640904485978
  0.0000888851087879  0.1248356170448304  0.5412745629526938
  0.3329464590518398  0.0608995261786873  0.5431174839540347
  0.9998912395752271  0.1249372055747315  0.1977763280214901
  0.3338215103171009  0.1876121743041779  0.2028089111138627
  0.1662599164015646  0.1876226386673068  0.2031026980030930
  0.2501275307824997  0.2500104745837035  0.2783016831588654
  0.0825019796567119  0.1875739267867829  0.2843630681342972
  0.4171788836887629  0.1875168995807286  0.2842222037452089
  0.0000144381519718  0.2501624120743315  0.3699994405231166
  0.3316623022198542  0.1874647049673825  0.3687518748903500
  0.1681461439217173  0.1876321046572613  0.3683354426828558
  0.2507364377752452  0.2482547718618804  0.4572473220651574
  0.0836482035872308  0.1878050248945584  0.4536169919734689
  0.4178332693901154  0.1878918276897465  0.4530323180607141
  0.0012271192407738  0.2488278421595709  0.5418846006342690
  0.3434444920756832  0.1873589256245225  0.5416757219340482
  0.1723849384800289  0.1861009273278071  0.5429534877990605
  0.9999137823470292  0.2501457051528533  0.1977650510023636
  0.3341634575447827  0.3124169321477055  0.2027513460678065
  0.1659725335790938  0.3124359704880604  0.2030051278480443
  0.2500640542391750  0.3750820541329603  0.2784374709004496
  0.0826896170730151  0.3126005263697280  0.2843120514374888
  0.4170950507721827  0.3125330011753746  0.2842538483739716
  0.0003226700909380  0.3751179523944757  0.3700989403232100
  0.3318170517615329  0.3125463138505111  0.3688971715380021
  0.1680260237195625  0.3125690114109858  0.3685586369070180
  0.2504367283833560  0.3772180460385783  0.4571411840970185
  0.0851745658134959  0.3127462010828523  0.4546951262640917
  0.4166108414981551  0.3121667798701040  0.4539428258275535
  0.0032711710289632  0.3757160596882798  0.5422058093740887
  0.3349184863613957  0.3106257607157303  0.5439581364348101
  0.9999542699768682  0.3750456360818006  0.1978142950838873
  0.3342608117507524  0.4375809277484706  0.2027207388117702
  0.1658606850483366  0.4376189833460131  0.2029905346353900
  0.2499685557487794  0.0000363593252715  0.2783603198432942
  0.0825947446946458  0.4375950444840626  0.2844275688074873
  0.4171815023475247  0.4374922481649364  0.2843129335319077
  0.9999281324119380  0.0001926093184892  0.3700202688020582
  0.3317807901415364  0.4375180270853036  0.3688539717490045
  0.1680488495748520  0.4377467072960997  0.3685234057533293
  0.2503169142871116  0.9983919333342044  0.4574248496739770
  0.0841017329740836  0.4378136599393798  0.4541671285259739
  0.4168862266702007  0.4377230603086915  0.4534759563025830
  0.9998321182821712  0.9989504757106147  0.5416902632973830
  0.3457681899786138  0.4381720741225905  0.5430683765106750
  0.1729678974324429  0.4418786002802122  0.5426080622144198
  0.9999222584209946  0.4998755441842633  0.1977644145514503
  0.3337908862646159  0.5624456293327356  0.2028260041461607
  0.1662431600580945  0.5625016735054018  0.2030652951738858
  0.2499627087403908  0.6251156347364386  0.2783965204152992
  0.0826136347989319  0.5626094811206173  0.2842758500710900
  0.4170019252180808  0.5625146527136806  0.2841947196771386
  0.0000191150997040  0.6251519249165440  0.3699873774436426
  0.3317211004892400  0.5626519014833349  0.3688737160520432
  0.1680431218152023  0.5627281840431451  0.3685985861138619
  0.2510547276849238  0.6276985224764502  0.4580083145561389
  0.0849845163712288  0.5629903066597066  0.4549479377062582
  0.4169621654199531  0.5621076065571060  0.4536921630162496
  0.9997882464810814  0.6256235580204645  0.5413241618681255
  0.3335185984087730  0.5618350621498962  0.5430324924648531
  0.9998565210229131  0.6251222926442708  0.1977587480930367
  0.3340717737805718  0.6875690924112803  0.2026850090637424
  0.1658864533148190  0.6876150076016359  0.2029643366878275
  0.2499481838395141  0.7500162705579783  0.2783737000407243
  0.0824487157708944  0.6876104044670086  0.2843741965993161
  0.4170921399970737  0.6875029528890479  0.2842445950627663
  0.9999026429967657  0.7502044450159673  0.3700001172053859
  0.3315259859868505  0.6875042023706541  0.3688315850445534
  0.1679924142435851  0.6877180083620260  0.3684548552391291
  0.2502762751778320  0.7484728098637277  0.4573873649773645
  0.0834254136855179  0.6880537381681791  0.4536733743465362
  0.4179873122136115  0.6879467357513960  0.4530282832704700
  0.0002320756337681  0.7492434324929249  0.5416141502300462
  0.3433502597752494  0.6879568674267773  0.5411548419150094
  0.1718429521789417  0.6872880029593631  0.5428250188193573
  0.9998550343999710  0.7500080389295789  0.1977233063640185
  0.3339875121127065  0.8124773571616473  0.2027261042623607
  0.1659114026729895  0.8125166801957846  0.2029815849895016
  0.2498919410064104  0.8750591285983376  0.2783603032858650
  0.0824898982701185  0.8125909907046633  0.2842800996394388
  0.4169588428198949  0.8125060505481585  0.2841825242898182
  0.9998623933576454  0.8751357985538704  0.3699945692943842
  0.3315944878171138  0.8126284758076991  0.3688201379576270
  0.1678494771663495  0.8126898465103807  0.3686059527317198
  0.2507367414882893  0.8775666359130270  0.4577988682544856
  0.0848731434980508  0.8128321787800630  0.4550248963914569
  0.4169232509035439  0.8123132932081063  0.4536004675342653
  0.9996202035897639  0.8752823658435105  0.5412922827782580
  0.3327881819249470  0.8111464128747201  0.5430852854800889
  0.9998017847727851  0.8749842648740653  0.1977391777339648
  0.3337694469110986  0.9376029242486155  0.2027787701484769
  0.1661642405458110  0.9376200457319825  0.2030727548396598
  0.2500685919471977  0.5000235695412556  0.2783434504504925
  0.0824316227894641  0.9375977743476014  0.2843418429118003
  0.4170789142748816  0.9375143483221109  0.2842011422398798
  0.0002866076688477  0.5002128241630501  0.3700614062198540
  0.3315063593616614  0.9374932569859382  0.3687767930174175
  0.1679851034371964  0.9376727678662888  0.3684450380632569
  0.2508494329184217  0.4982294974096959  0.4571225355766515
  0.0833833122508594  0.9379379818291298  0.4536925980560582
  0.4178226571469210  0.9379520450468348  0.4529774342858346
  0.0013589097552043  0.4996145267196184  0.5415090888977119
  0.3429315639711561  0.9376701644682726  0.5413052156118994
  0.1718916236419972  0.9367297078594916  0.5429186909107813
  0.5000275441030837  0.0001215987079490  0.1975435033715769
  0.8341923193068368  0.0624660415718168  0.2030007812724506
  0.6658024976229626  0.0624658489744334  0.2027332645509503
  0.7500588983152241  0.1250277486239710  0.2785241156095211
  0.5829625120643627  0.0625197235028523  0.2842563683283217
  0.9173261615556854  0.0625858055901816  0.2844112030190047
  0.4999854944842070  0.1251075022604837  0.3692790005858271
  0.8320664786475831  0.0626353276504545  0.3687672607915715
  0.6683832546041941  0.0626107623821994  0.3688936638902405
  0.7494088363401517  0.1274309015353765  0.4579747448099738
  0.5829459940160646  0.0622206493226969  0.4535862491032177
  0.9150889779564437  0.0627151828366124  0.4551380562402159
  0.5004516712720815  0.1122501247955086  0.5436534443804177
  0.6671496042106071  0.0607793328741550  0.5429481923883301
  0.5000602044738898  0.1248820761636367  0.1975803937497318
  0.8337762026943452  0.1876435219024444  0.2031781786507310
  0.6662267323105127  0.1875963901956013  0.2028715345409822
  0.7500878592158600  0.2500420551926865  0.2784908724152544
  0.5829159182137218  0.1875035690079017  0.2842955181695572
  0.9174570176206842  0.1875810877820783  0.2845045991975752
  0.4999531425144923  0.2498936102391269  0.3692902806908194
  0.8320946841291814  0.1876790682379550  0.3686648359377642
  0.6684630605583166  0.1874961876981729  0.3689008203512572
  0.7501779634421553  0.2483947249402192  0.4575623333466865
  0.5822018328110943  0.1879300058971793  0.4530221134294337
  0.9168558531373066  0.1879764820153369  0.4537925661263813
  0.8283374932579903  0.1866671675498566  0.5430476022380049
  0.6572819845281686  0.1873181007486124  0.5412225589629429
  0.5001059318921293  0.2500735653762689  0.1975573308456546
  0.8341623254662096  0.3124596744807278  0.2030903728584050
  0.6659258951943343  0.3124206983155133  0.2028489726475939
  0.7501278135350660  0.3749974959306428  0.2786711337037104
  0.5830500226226007  0.3125201802217958  0.2843257591745640
  0.9174160970803626  0.3125951215719098  0.2844523819240052
  0.4997996354872356  0.3750663091617810  0.3694582051824682
  0.8322482946679557  0.3126256073223530  0.3688685668871088
  0.6684854190285989  0.3126009966717476  0.3689644030491266
  0.7495052400882756  0.3773422948884146  0.4581654940451259
  0.5829296111435838  0.3121717986472277  0.4536837729498018
  0.9157183193232399  0.3127998821576412  0.4553345678889755
  0.5026664908819498  0.3622124692334125  0.5437568623369557
  0.6684811854346933  0.3106712129479732  0.5429887577127133
  0.5000775107134530  0.3749907312920158  0.1976239455321149
  0.8341892055576281  0.4375904904340615  0.2031096153623295
  0.6658302672979772  0.4375501257208825  0.2028284042159143
  0.7499538454710475  0.0000254845376091  0.2784589678188567
  0.5828806584828641  0.4374611035206541  0.2843972435449871
  0.9175314337133429  0.4375562569228464  0.2845691614547050
  0.4999525083906917  0.9999122408011374  0.3691998858397909
  0.8322191936837413  0.4376204716058396  0.3686959134998915
  0.6685067620021670  0.4374087694123432  0.3689925412286783
  0.7496715998096022  0.9983177910636627  0.4575398858069661
  0.5817413948551646  0.4377998095099471  0.4531956042284619
  0.9172918766725928  0.4379250983301546  0.4537258006093623
  0.8297046433230690  0.4366866911694274  0.5426012936400184
  0.6579824922551367  0.4374137740163846  0.5411188544198353
  0.5000626532137247  0.4998557461407316  0.1975763620380704
  0.8337471316543628  0.5624105362914378  0.2031712159041916
  0.6661832924235469  0.5623719805621405  0.2029347092596439
  0.7500004998344068  0.6250803546998895  0.2784962876979904
  0.5829715895222733  0.5624726018789374  0.2842992922684289
  0.9173431079299235  0.5625532827966992  0.2843824939407611
  0.5000065595081296  0.6250300243995355  0.3692942618116390
  0.8321395194138503  0.5625630689076786  0.3687542146171126
  0.6683925823505987  0.5624905452027349  0.3689281409346066
  0.7492370495389835  0.6273380558607471  0.4577331069444526
  0.5829156455087414  0.5620682194661129  0.4536555483451181
  0.9152629039741953  0.5627665731328548  0.4550786654305128
  0.5002729934938586  0.6121621916052007  0.5436213162999124
  0.6673877299807600  0.5608225286164199  0.5429353299823205
  0.5000555475573094  0.6250746153186881  0.1975918539188939
  0.8339987988150455  0.6875879502697089  0.2030465940101891
  0.6658312295147084  0.6875408767062723  0.2027597053051196
  0.7499036517323603  0.7499867839455590  0.2784836097777443
  0.5828264347276289  0.6874787694791848  0.2843059122342453
  0.9173873161413226  0.6875777702629833  0.2844670435599639
  0.4999413139362900  0.7498915993958732  0.3692097686446800
  0.8319412329989149  0.6876557628503974  0.3685584971536855
  0.6684130304559375  0.6874437047672544  0.3688668820725098
  0.7496611000559668  0.7482668703596431  0.4576274234726156
  0.5821534637465930  0.6878129550780940  0.4530189302788514
  0.9165305171823803  0.6879494583885162  0.4537321610599037
  0.8278174734195360  0.6863012390083156  0.5429545586554312
  0.6567096906904695  0.6873672765493666  0.5413057633554175
  0.4999922709892957  0.7499914589059600  0.1975458659200058
  0.8339428758270913  0.8124369610728976  0.2030451978792911
  0.6658807294745515  0.8124253655952103  0.2027799356621642
  0.7499427569236303  0.8750353638988955  0.2784755531302210
  0.5829163555341594  0.8124850355600231  0.2842366275817128
  0.9172632972701962  0.8125591227714537  0.2843632125535365
  0.4999273616858630  0.8750701235692091  0.3692388797089734
  0.8319765351761887  0.8126108308979596  0.3687174271578257
  0.6682821129450360  0.8125681400703471  0.3688840729993430
  0.7490925666685442  0.8774650545442384  0.4578160989688485
  0.5828796185329992  0.8121934593711515  0.4535999469579082
  0.9149445670953043  0.8127526695166765  0.4551054608492464
  0.4996328471502665  0.8623077861253563  0.5436555814528674
  0.6666995442032615  0.8107845188757921  0.5429765602480003
  0.5000022116146283  0.8749550889381510  0.1975681737293655
  0.8337452032652024  0.9375964423423611  0.2031360485621150
  0.6661181739438291  0.9375569999676046  0.2028369328495216
  0.7500339493692252  0.4999106832546047  0.2784921381058751
  0.5828497895322897  0.9375054617192404  0.2842634006620699
  0.9173615830748858  0.9375773273573458  0.2844459636895564
  0.4999287763251701  0.4998117564911269  0.3693396026391937
  0.8318997684982889  0.9376615861216351  0.3685807745926653
  0.6683561190625369  0.9374716524178410  0.3688576846420233
  0.7499607265852077  0.4983493158014412  0.4576545779425274
  0.5820831162564843  0.9379022293306178  0.4529967019324630
  0.9164667551697576  0.9379717685300619  0.4538031747474562
  0.8272948966956406  0.9363932397850903  0.5430366401378635
  0.6564214240987027  0.9373896268543902  0.5413307214580669
  0.4055565551893920  0.0000108550383189  0.2323894696069999
  0.2499594872867519  0.0001565021042964  0.1994496241433907
  0.0941907154232595  0.0000596751795285  0.2325686418626560
  0.1550331792578064  0.1250740354073727  0.3160006116651459
  0.9999932843194230  0.1250406463028852  0.3034175201925464
  0.3450387425724202  0.1250676495397300  0.3161631286931339
  0.4010233146151592  0.1248682539995301  0.4019824812752759
  0.2497410853582096  0.1250142764575983  0.3889418274360139
  0.0995102282680236  0.1251177053611130  0.4020814564485207
  0.1506965920768479  0.1268412578064044  0.4871595503173509
  0.0002297776654814  0.1250342535944426  0.4729663731878091
  0.3521009033005740  0.1253199713201454  0.4877800718700200
  0.4068246652426168  0.1267189657978420  0.5715258803503573
  0.2571887656369114  0.1305172981538476  0.5559030492240851
  0.0978353634705869  0.1272682196144075  0.5691902195269947
  0.4055035138243142  0.1250290505618921  0.2324273437533364
  0.2499971032779342  0.1249203921255955  0.1997107670560325
  0.0943103621710293  0.1250810668055422  0.2326235067406941
  0.1550244038897119  0.2500731297942735  0.3159084927959555
  0.0000621042697446  0.2501366077570566  0.3034011782044885
  0.3451402293505481  0.2499866160332900  0.3160899654681728
  0.4010024095716034  0.2501502316088988  0.4018502712351406
  0.2497678673210970  0.2500656885258650  0.3887204942293465
  0.0995240756304270  0.2501488638080502  0.4020216464500450
  0.1507235523254522  0.2485507354880667  0.4875582039297512
  0.0005109800255383  0.2502726365888250  0.4733131454986506
  0.3512165891673220  0.2503212005281554  0.4873614476212040
  0.4116090058070299  0.2547699576517104  0.5654421182569607
  0.2588448951754430  0.2481418139256988  0.5558882750703731
  0.0987771849515582  0.2480143859595501  0.5695787059143811
  0.4056556824464366  0.2500085059147708  0.2324019716002184
  0.2500423134731875  0.2501158193041277  0.1989663132581754
  0.0942867276317756  0.2500441633027819  0.2325682742637767
  0.1551413272560538  0.3751126321677489  0.3160590870420066
  0.0001345112417894  0.3750571443663517  0.3034853865737119
  0.3450677353715577  0.3750642708559155  0.3162603110984605
  0.4007643442467170  0.3748412281409657  0.4022841980081040
  0.2497465122892351  0.3750271691300640  0.3888242030377640
  0.0997316901899552  0.3752773494135795  0.4021706744323481
  0.1515036467719995  0.3764920674004912  0.4881643447051118
  0.0009521740102727  0.3751441598489507  0.4735564500371794
  0.3503756040249897  0.3747955730679493  0.4887191376700812
  0.4100065286272780  0.3768654597646659  0.5718893054971872
  0.2614655942516109  0.3821687875580011  0.5619273186083333
  0.1000784334646170  0.3741269475765989  0.5725426090964163
  0.4055601754956726  0.3750631953005410  0.2325245372523099
  0.2500374933736893  0.3750629138787644  0.2002335101683101
  0.0943900083307483  0.3751162743319369  0.2326651306444276
  0.1548831782976166  0.0000845359280888  0.3159566010276365
  0.9999306691971199  0.0001086499715868  0.3034204977280126
  0.3449964522909426  0.9999885874612744  0.3160814377251668
  0.4009713935543999  0.0001835366655314  0.4016981554247465
  0.2496485262764878  0.0002052722883121  0.3888123825805891
  0.0994458962319200  0.0002672327956006  0.4021510870052367
  0.1502752028089986  0.9990635072668610  0.4879751451527810
  0.0000074267303418  0.0003403122648677  0.4731687297840708
  0.3510391310746357  0.0005195595719911  0.4870550841014705
  0.4106729727745346  0.0047283868149535  0.5650322567565240
  0.2581565331227438  0.9977814993275445  0.5551286116948404
  0.0972712788223973  0.9976024154516097  0.5697377546519462
  0.4056230780323062  0.4999062629899669  0.2324293029996056
  0.2500180489226622  0.4998791895599197  0.1993162151690839
  0.0942974623397816  0.4999869508778048  0.2325777055208178
  0.1550028373468066  0.6251269218509421  0.3160151322934794
  0.9999675006002278  0.6250568663962852  0.3033752980597342
  0.3449723499258255  0.6250840793102270  0.3161854824566461
  0.4010720626088968  0.6248650119495167  0.4019820944832446
  0.2496947867274315  0.6250686149776854  0.3891402827864567
  0.0994424533605951  0.6252343677947465  0.4020832089550836
  0.1501682624195055  0.6270555585116071  0.4872595232578973
  0.0000311265042043  0.6252492057765764  0.4729570168007982
  0.3526428832849220  0.6252827467411279  0.4876249219951774
  0.4062188871454708  0.6264455391340178  0.5713690255279786
  0.2566529774579109  0.6297176955520314  0.5539016615753596
  0.0975931062463076  0.6276910995833305  0.5693110337831015
  0.4054773030112102  0.6250632839001398  0.2324138230705941
  0.2499829593255356  0.6251255161947995  0.1993213754673491
  0.0943002327289548  0.6251266245798774  0.2325796627502044
  0.1548643914702978  0.7501436235171397  0.3159513486614003
  0.9999217516685377  0.7501310333180840  0.3034031328429307
  0.3449721556767926  0.7499982573042985  0.3161017697878208
  0.4009206843466799  0.7501706173142182  0.4016931370182206
  0.2495974475839517  0.7502597170182383  0.3888132449161290
  0.0994114152412564  0.7503729718532313  0.4021118912482322
  0.1503098059630048  0.7491793396195021  0.4878576066992579
  0.0000053465744614  0.7504574550853960  0.4731133229447124
  0.3509782628303100  0.7506770652338801  0.4870512693541684
  0.4107630820786454  0.7547459175647973  0.5651197389014726
  0.2584495733360015  0.7473967788918898  0.5554790394366265
  0.0976495326530298  0.7480630327836266  0.5697285961324852
  0.4055290479161897  0.7499567795034494  0.2324097653592787
  0.2499535919860705  0.7500094809823423  0.1996838290572214
  0.0942130324379562  0.7500293006939316  0.2325689536046269
  0.1549358786750616  0.8751210179988007  0.3159914845073075
  0.9999018362908956  0.8750635758353269  0.3033697461723364
  0.3449239861024012  0.8750784412031507  0.3161355856192287
  0.4009680865613205  0.8749003172297520  0.4019134996008589
  0.2496100942195270  0.8750369463585841  0.3890457414406399
  0.0993047507971312  0.8751881121157226  0.4020774993170733
  0.1501353017600451  0.8769341422352994  0.4872865603513787
  0.9998938571105427  0.8751599194656379  0.4729537506473491
  0.3521730493882913  0.8753202950236769  0.4875907005201228
  0.4058534339982884  0.8765469694520078  0.5715136114842210
  0.2564102799655643  0.8799798024675667  0.5548630388414608
  0.0973119862736098  0.8774154064523358  0.5693365722385622
  0.4054333783915567  0.8750465060936250  0.2323919550101792
  0.2499458395059548  0.8749922907913401  0.1992145265707919
  0.0942377870539630  0.8751019202582029  0.2325611092249176
  0.1550197668854381  0.5001858972557827  0.3159721861282634
  0.0000846250345816  0.5001330458729782  0.3034485048187108
  0.3450650817459859  0.5000402000011235  0.3161327316664995
  0.4009739720379670  0.4999926597143443  0.4018959671467499
  0.2497904304046870  0.5003517597750999  0.3886903652120850
  0.0996869042315609  0.5002935708467646  0.4022424673142169
  0.1510399494192569  0.4998067529174648  0.4876605240477758
  0.0004883417219119  0.5004014380014752  0.4731939355820103
  0.3509115560885334  0.5004125207162318  0.4874221110286570
  0.4118616402135657  0.5049422359879117  0.5653823370259587
  0.2594910307835718  0.4980122459746923  0.5563232659495370
  0.0989440476370049  0.4979838732259125  0.5700011216057419
  0.9055922388586097  0.0000403513557288  0.2326913293115709
  0.7499606025981720  0.0001201254523622  0.1995705718569596
  0.5944238423385784  0.9999904106126181  0.2324533614551356
  0.6550512329603890  0.1250745063414342  0.3162501342832371
  0.5000021451282137  0.1250343844881598  0.3028378877213029
  0.8449678946946122  0.1251125825288995  0.3161725271641984
  0.9007080422268245  0.1251335845552362  0.4022020524002414
  0.7503588117707878  0.1250128339715744  0.3892049417497745
  0.5989326528219294  0.1248610636645182  0.4019362614730184
  0.6476118135572122  0.1251999707423508  0.4875051161352744
  0.4999856101041260  0.1246060115980043  0.4747143043446727
  0.8501121712167503  0.1269817785620972  0.4872833933743550
  0.9024764651634385  0.1270305956006865  0.5694880845764203
  0.7438086651323985  0.1292685769389692  0.5541628507810685
  0.5943059489059763  0.1261901234134228  0.5714925181225396
  0.9055785653928936  0.1250933411627955  0.2327443468569754
  0.7500298018663187  0.1249358351872303  0.1997521651927698
  0.5945386525171514  0.1250386111372848  0.2325049008126570
  0.6550609221391923  0.2499725336259715  0.3161999454414257
  0.5000348264245105  0.2500298161861139  0.3028377439169248
  0.8451070064175497  0.2501058371266609  0.3161627704628103
  0.9006803863127004  0.2503315000534627  0.4023704403460684
  0.7504452510251198  0.2502388461490668  0.3890037191810762
  0.5990066153830753  0.2501896164242297  0.4017253922744857
  0.6494011664636048  0.2504701566707581  0.4869904305510886
  0.5000074411419178  0.2501520097061132  0.4737156058938652
  0.8501374495399929  0.2491006434760621  0.4881836219279094
  0.9034318452276580  0.2472294962670887  0.5696534818884516
  0.7420172138296905  0.2468437922891340  0.5556850338671353
  0.5898018435838281  0.2543955423978090  0.5648847886454291
  0.9056864424216045  0.2500379243952295  0.2327304340974621
  0.7500346450220476  0.2501254093275591  0.1992252095389375
  0.5944615758469496  0.2499814938480043  0.2324992703603073
  0.6550592907742967  0.3750506879476063  0.3163492489236006
  0.5000136608914616  0.3749976695193240  0.3030004073911101
  0.8451140307371929  0.3750734036008012  0.3162510401786491
  0.9010217315440698  0.3750715927034207  0.4022815523804013
  0.7504874008484776  0.3749821100955870  0.3893330502239749
  0.5988568424990532  0.3747949161946096  0.4020312635785004
  0.6475358208767261  0.3751090359343507  0.4875166822280690
  0.4996550981488284  0.3744375715027743  0.4748493529799518
  0.8505465953464082  0.3770692212432252  0.4871991283032457
  0.9051767435275409  0.3773738512141804  0.5689754849081297
  0.7450930950617405  0.3793293694133837  0.5534921583576491
  0.5965075277057679  0.3758900709169311  0.5719565613622564
  0.9056385793218240  0.3750994591701939  0.2328164706354627
  0.7500355396688718  0.3750217959150106  0.2003539471205613
  0.5945428961949517  0.3750435872335771  0.2326037925368212
  0.6549421478061745  0.9999878374513642  0.3161625090993638
  0.4999672052129895  0.0000054446771713  0.3027840185893709
  0.8449857692370983  0.0000994249932873  0.3160945049584853
  0.9004962180811802  0.0002782818619309  0.4022459495586901
  0.7502984736573879  0.0002223185946590  0.3889462125149734
  0.5989376466692349  0.0001578238165223  0.4016843516118627
  0.6488654962397433  0.0004452938345594  0.4870242172381225
  0.4999487423340625  0.0002328479495688  0.4736804955149694
  0.8496737340908709  0.9990912145739230  0.4880900019339194
  0.9022875114492734  0.9972173274275633  0.5697332022984583
  0.7413123446727781  0.9971679512662490  0.5553495967040192
  0.5889811272302765  0.0043924140158964  0.5650315007845919
  0.9056942047748109  0.4999444734044829  0.2327202072522994
  0.7499987379701878  0.4998296553786261  0.1993584140457330
  0.5944110152647966  0.4998765596995867  0.2325323888541959
  0.6549800881288164  0.6249985898407786  0.3162513789432424
  0.4999593509050797  0.6249844227459889  0.3028476457660148
  0.8449312106102838  0.6250485893227236  0.3161231236873476
  0.9006258514028715  0.6251236475743340  0.4021238205838458
  0.7503311476111207  0.6249384881014493  0.3890523668100556
  0.5989807533947413  0.6247323590658524  0.4019712662605812
  0.6478508996228669  0.6250228555202995  0.4876015471366770
  0.5000711608248452  0.6244736805774735  0.4746853231580559
  0.8497304464116624  0.6268808268731618  0.4872332456120034
  0.9021391154262801  0.6268968623357551  0.5693517280208411
  0.7432815168835987  0.6298573472811881  0.5550336928009187
  0.5939688077953349  0.6260513122867764  0.5715100873667609
  0.9055318676127726  0.6250915429641637  0.2326974224666358
  0.7499600863230143  0.6250633073586584  0.1995557391809726
  0.5945106621837724  0.6250133774825386  0.2325149970085789
  0.6548784421800207  0.7499686231533147  0.3161762289269561
  0.4999291110445512  0.7499969241719242  0.3027948551186839
  0.8449723815363228  0.7500939753585101  0.3160699243822265
  0.9004653597164776  0.7503042388378205  0.4022058608709145
  0.7502779171869278  0.7501985807482185  0.3889807090753337
  0.5989246379436679  0.7501009476409237  0.4017040452554852
  0.6487475958603426  0.7503479187379796  0.4870079599741572
  0.4999561032942665  0.7502425380217872  0.4736967128476266
  0.8498137872580571  0.7490383790343387  0.4880065339689210
  0.9026802228377377  0.7471730382406321  0.5697235915554799
  0.7415827342214030  0.7474797313828674  0.5548908241650423
  0.5889954202657677  0.7542890705957248  0.5650287308242170
  0.9055976011408902  0.7499800898504745  0.2326725464566763
  0.7499171105204070  0.7499664559537607  0.1997230206131491
  0.5943739729222415  0.7499225870635726  0.2324772044330246
  0.6549231986085857  0.8750455232802636  0.3162165503246683
  0.4999363351674617  0.8750157677528776  0.3027939406279714
  0.8448696405492555  0.8750934916983155  0.3161052936120825
  0.9005023679708799  0.8751523403125177  0.4021597992081425
  0.7502333491851871  0.8749671060321944  0.3891039520615465
  0.5988624843584631  0.8748254625952825  0.4019303623345607
  0.6475874006083941  0.8751315342931889  0.4875842519960969
  0.4998793691562966  0.8746124117900891  0.4746937567754301
  0.8496382178478896  0.8769238790806853  0.4872719194771946
  0.9018942041447673  0.8769809669616606  0.5693998577496373
  0.7430060603927089  0.8796393819720834  0.5548233563534950
  0.5935136320131136  0.8761547202586897  0.5714794972397357
  0.9054885647398265  0.8750726402396438  0.2326779146399858
  0.7499464321482066  0.8749522960038689  0.1994198408473196
  0.5944835316643733  0.8750276505266186  0.2324611146527076
  0.6550307625334142  0.4999201530373014  0.3162407312692181
  0.4999779851610455  0.4999862197087879  0.3028751392575586
  0.8450841689471673  0.5000489896854745  0.3161371222314173
  0.9008311724119764  0.5003126309118073  0.4022369652764652
  0.7504602331074395  0.5000863631551411  0.3890325435821396
  0.5989447525797971  0.5000307737021430  0.4017847098945211
  0.6490508037030764  0.5003532118165310  0.4869569481265188
  0.4997504226085141  0.5000277246446885  0.4737740355576747
  0.8502598951063902  0.4988983215392082  0.4879338488324478
  0.9039365990250730  0.4973530665721952  0.5694500958251751
  0.7427520872954929  0.4973685582104679  0.5545426722056561
  0.5902556792357316  0.5041210993282874  0.5652079918046553
  0.1271886986616693  0.0614795478435965  0.5363238440457607
  0.1304686402701876  0.3100156117902984  0.5335082023426523
  0.1278168885848032  0.5631680653266997  0.5357936389511622
  0.1271229245938628  0.8123248064329331  0.5363735971042587
  0.8732682573270196  0.0614779819173918  0.5367105095822069
  0.5008849233725812  0.2608902311292667  0.5366266518553786
  0.8758885661064610  0.3118581191767262  0.5366223251914590
  0.4999695194107829  0.0111924976868920  0.5365823122448390
  0.8734356978673645  0.5614976921001897  0.5363674171923307
  0.4998311972525187  0.7611662103177039  0.5365895508431606
  0.8732398461535098  0.8114043177777432  0.5367310377191075
  0.5012407290267760  0.5108657942164996  0.5366842258670488
  0.1895571309655750  0.3556051797845399  0.6023959533529606
 
  0.00000000E+00  0.00000000E+00  0.00000000E+00
  0.00000000E+00  0.00000000E+00  0.00000000E+00
  0.00000000E+00  0.00000000E+00  0.00000000E+00
  0.00000000E+00  0.00000000E+00  0.00000000E+00
  0.00000000E+00  0.00000000E+00  0.00000000E+00
  0.00000000E+00  0.00000000E+00  0.00000000E+00