Ta  N Co Cu                             
   1.00000000000000     
    18.1096308199999996    0.0000000000000000    0.0000000000000000
     0.0000000000000000   23.3551997799999995    0.0000000000000000
     0.0000000000000000    0.0000000000000000   30.4818171199999988
   Ta   N    Co   Cu
   228   240    12     4
Direct
  0.9995964134633368  0.9997683351927762  0.1976898537468585
  0.3336989302216651  0.0622799657964208  0.2027719384178468
  0.1657677759354783  0.0623532315303734  0.2030102071818618
  0.2496774208237014  0.1248217807849983  0.2782471415716330
  0.0822266075180096  0.0623629985948639  0.2842195484594754
  0.4167441826334652  0.0622848303913699  0.2842212530251942
  0.9998684890218996  0.1248836311775037  0.3699792360011571
  0.3313600003722712  0.0623138193001367  0.3688152550555159
  0.1676187843791439  0.0623318612115895  0.3685482586491133
  0.2508310852687075  0.1271316538016976  0.4572674918947897
  0.0848994411299913  0.0623578728638066  0.4549318869729007
  0.4164787236391234  0.0618472768397780  0.4538449702028871
  0.0001594598334478  0.1246154230926706  0.5412122213901114
  0.3322122963762411  0.0594707725828627  0.5435810765157996
  0.9995478537031417  0.1247952590576702  0.1976817656277703
  0.3336782672041991  0.1873096751565342  0.2027734077226668
  0.1658599088473665  0.1873737548028558  0.2029835779226943
  0.2497133385230299  0.2498023995373728  0.2782343584514635
  0.0821505704655650  0.1873444743793939  0.2842434858444491
  0.4169255611741391  0.1872900959906119  0.2842559636903914
  0.9999182492020395  0.2498487819513713  0.3699705316686206
  0.3313538084622252  0.1871926708844995  0.3687205427145841
  0.1677793577757498  0.1873416485401123  0.3683421862562000
  0.2506234656001070  0.2479146767688434  0.4572067562522548
  0.0838303287208007  0.1875798357780738  0.4539756118577998
  0.4170858905642731  0.1874260912611732  0.4531551709445978
  0.0000247088103862  0.2484245021444167  0.5420195770364415
  0.3429041578537237  0.1846529822022873  0.5431949432317396
  0.1702612885630330  0.1832150533943562  0.5437272392621750
  0.9996236647801098  0.2498430014723567  0.1976794512667439
  0.3339023352589052  0.3122781410552378  0.2027269262859832
  0.1656746290677376  0.3123567942684460  0.2029012192740254
  0.2496255329978894  0.3747481895234444  0.2780923744815809
  0.0823612398515650  0.3123427871264681  0.2841646939656428
  0.4167000082155283  0.3122909936327432  0.2841905368777518
  0.0000964993543917  0.3747784237451341  0.3699319488451493
  0.3314010502319107  0.3122803292926548  0.3687214432822685
  0.1677237184258260  0.3122487848097606  0.3684302082446251
  0.2505335491697025  0.3769189691613803  0.4563874635443455
  0.0853248302008964  0.3123565118081544  0.4547883162035404
  0.4156774110234593  0.3119519014198886  0.4540810155985753
  0.9991958415761175  0.3759411455252888  0.5405171477048683
  0.3483986686492813  0.3063404812659414  0.5450563742036465
  0.9995500814407947  0.3747566515405012  0.1976440374529815
  0.3337059275889658  0.4373511883333805  0.2027473128753954
  0.1657514797597415  0.4373892136672879  0.2028830523224983
  0.2496644868714952  0.9997876871184843  0.2783443315793477
  0.0821816277033207  0.4373663253284192  0.2841361623755532
  0.4168743290760801  0.4372987303339571  0.2842184885122947
  0.9996451125652754  0.9999124549278378  0.3699334961756975
  0.3316023821343350  0.4373090283496381  0.3685924000638323
  0.1675164223344296  0.4374220537417557  0.3682625399058139
  0.2501802142996254  0.9981518940828096  0.4572971831255046
  0.0839356791590120  0.4375384865034562  0.4538779673137299
  0.4148269761985617  0.4376535963316712  0.4541378295501772
  0.9992625534104604  0.9991375441020551  0.5417146008475839
  0.3449870072749164  0.4387572868691834  0.5450352529165770
  0.1680747200349515  0.4387239849548905  0.5411162053047605
  0.9995798889695990  0.4998909018752045  0.1976303812478832
  0.3337805400480818  0.5622665783855467  0.2027019449661651
  0.1656965763043203  0.5623836334732317  0.2028936127507563
  0.2496076408440828  0.6249426868341317  0.2781785529793197
  0.0822493616953963  0.5624267885889580  0.2841017130759695
  0.4166385065297504  0.5623446833967165  0.2841389436895767
  0.9997009144545359  0.6250449017547979  0.3698386238901321
  0.3312684641799848  0.5624263133640710  0.3686559951628681
  0.1675599116752906  0.5625254949462928  0.3683250060911760
  0.2501689752143506  0.6269370135616654  0.4570697379146367
  0.0846308009249555  0.5626643481215439  0.4541718159271895
  0.4157487392743064  0.5619461894904134  0.4536924140986898
  0.0032187882820409  0.6266484039557696  0.5420531037203560
  0.3400387845417256  0.5640248166349195  0.5433511457073905
  0.9994712541330770  0.6249046336501820  0.1976695781530609
  0.3337332536005846  0.6873783078282329  0.2026661282782101
  0.1656924850644899  0.6874505274577984  0.2029212532172835
  0.2496144933348461  0.7498986937306782  0.2782388333113062
  0.0820722568962964  0.6874304472773076  0.2842338117011991
  0.4167983025826132  0.6873242203254861  0.2841889002547120
  0.9997266579021158  0.7499679698426576  0.3699634199516311
  0.3312471106878760  0.6873684627626773  0.3686677376022729
  0.1676319722666406  0.6875662296145109  0.3682840495898105
  0.2502056743403074  0.7481178845709451  0.4572190634024125
  0.0834510037321081  0.6876433303471430  0.4540434963588993
  0.4167717289020132  0.6877545740977169  0.4531202806681023
  0.0003997958109849  0.7500144096777888  0.5416191573774043
  0.3446594571957746  0.6894853076162875  0.5423593262190849
  0.1721502474601522  0.6900314993742640  0.5433687895594375
  0.9995416196409934  0.7497693899726556  0.1976711911774416
  0.3335963804923523  0.8123146480223795  0.2027470314536757
  0.1657556537036129  0.8123715270239558  0.2030046388654654
  0.2496069117987716  0.8748983423189287  0.2783359869090418
  0.0821862812204444  0.8124092542834234  0.2842096636194995
  0.4166742541223698  0.8123339409869104  0.2841661408700844
  0.9996360132701838  0.8749317364007538  0.3699366184325825
  0.3312337358321500  0.8124376714319581  0.3687617864212385
  0.1675509371623534  0.8124785939773957  0.3685638029457863
  0.2506538085321139  0.8773245519186901  0.4576584648426945
  0.0848140862635844  0.8125977100943871  0.4550116759184135
  0.4163968377493745  0.8120374505348451  0.4536353628910490
  0.9998634562889492  0.8754962340155501  0.5414631038040127
  0.3326075596496523  0.8119308642870280  0.5433450894545402
  0.9995467699758791  0.8749199682953588  0.1977072084514049
  0.3337261090729839  0.9373661769796229  0.2027045803212886
  0.1656645328145743  0.9374186293204474  0.2029748548228412
  0.2495979283373089  0.4998982580837250  0.2780188252560478
  0.0820623156362856  0.9373810409198100  0.2842923641376132
  0.4168484181589207  0.9373019144360129  0.2842281762961818
  0.9996897284047108  0.4999864183869107  0.3698223426059783
  0.3312121486207502  0.9372459904341923  0.3687518409014530
  0.1676928428094513  0.9374197676663201  0.3683192506945332
  0.2500366941705607  0.4986342372100978  0.4563714726136467
  0.0831858655067634  0.9375980979282161  0.4537114553477437
  0.4175141909390803  0.9376443301402588  0.4529973030126442
  0.9980614096005738  0.4994037794346227  0.5404816167228219
  0.3427772934710092  0.9373619217916414  0.5414540798146632
  0.1713408220292507  0.9361883922765770  0.5430021046728370
  0.4997427981830995  0.9997901016061661  0.1976753622952145
  0.8335996965382222  0.0622858660350261  0.2030443209571260
  0.6657131941854431  0.0623612710701806  0.2028662278949724
  0.7496553966332442  0.1247940763029547  0.2784348167493107
  0.5826539808178595  0.0623038223305414  0.2843017528740504
  0.9169843430316291  0.0623295677532028  0.2842828525525647
  0.4996266201645838  0.1248547008765541  0.3693640750059828
  0.8317684433796870  0.0623509435164848  0.3686592430254052
  0.6680774615026905  0.0623242260783954  0.3689046838509213
  0.7490727623348050  0.1270919016509424  0.4580414243095774
  0.5825731135980874  0.0617544922638444  0.4536375916958946
  0.9148972805134576  0.0625069893241914  0.4550888308958108
  0.5013182840962145  0.1123301857022412  0.5434821873721845
  0.6673904402698341  0.0603605848361397  0.5429805913280603
  0.4997935838488843  0.1247746268574446  0.1977063030284612
  0.8335384242001282  0.1873916404677374  0.2030640395967822
  0.6657742879823658  0.1874193514479785  0.2029077431031254
  0.7496264139201045  0.2498661846522623  0.2784251662659116
  0.5825311166470470  0.1873225450772722  0.2843962791059127
  0.9171840129440838  0.1873464599390857  0.2843832207295804
  0.4993818904404392  0.2496902451736389  0.3694661215050772
  0.8318195349990560  0.1873771180336590  0.3685529779180570
  0.6680268833744307  0.1872195084356250  0.3690203363745823
  0.7496753267874823  0.2479194569216148  0.4573892204451084
  0.5815532779714871  0.1876124326850501  0.4531897801043812
  0.9168265118904841  0.1876197762120739  0.4536361864893976
  0.8284487509969978  0.1871934578538301  0.5426727277736774
  0.6575909987212611  0.1868710977651062  0.5410215466041421
  0.4998153377749404  0.2498340796411753  0.1977265212947472
  0.8337855484092955  0.3122461221728088  0.2030118163875088
  0.6655322511525199  0.3123414705465493  0.2029195191208970
  0.7495969618032348  0.3747760361424639  0.2785285176756460
  0.5826143475506669  0.3123299327106182  0.2844027812108081
  0.9170316019898905  0.3123323379357288  0.2842744071581791
  0.4989568919249621  0.3749226568152224  0.3696303012837490
  0.8317244530985803  0.3123701462935102  0.3685502954818745
  0.6680423188121765  0.3124099358942019  0.3688927288640897
  0.7487808458184659  0.3772280980865546  0.4585405082621392
  0.5820127834539974  0.3117962356304886  0.4535298087352828
  0.9153857680104451  0.3124834483479475  0.4548839649021943
  0.5044976289249092  0.3646576824401180  0.5428519550594757
  0.6682100586070661  0.3103172379765269  0.5425350127020749
  0.4998338437335690  0.3747314565567734  0.1977507862551917
  0.8336501815834012  0.4374111075194520  0.2030492694282557
  0.6657336553266902  0.4374293275947352  0.2029435932066761
  0.7496074454186044  0.9997365637214273  0.2784326993853838
  0.5824142253299698  0.4373132119824206  0.2844710746004964
  0.9171169465521061  0.4373399480370921  0.2843555241570002
  0.4996542523734746  0.9996503411357907  0.3692651024802771
  0.8316815073989687  0.4373410661548789  0.3684731446332847
  0.6679257537773182  0.4371956397605032  0.3690403200203178
  0.7493715675980113  0.9979137163114871  0.4574193420628205
  0.5806418201598689  0.4376974836048362  0.4532056471769792
  0.9167678025918420  0.4375655609450746  0.4532121865531380
  0.8295318351016050  0.4379181839058433  0.5420310204813035
  0.6577311656183440  0.4369633979119882  0.5408232818213889
  0.4997521068977235  0.4998645258229857  0.1976904042115351
  0.8336309798645871  0.5622080525888506  0.2029982029559392
  0.6656974894189602  0.5622309262526883  0.2028875512954542
  0.7496127081599724  0.6248148381992493  0.2785030035935065
  0.5825577148477450  0.5623074961784980  0.2843422259158999
  0.9169604791613040  0.5623728071835643  0.2842539342758457
  0.4992951590089589  0.6248585348667888  0.3693538189479284
  0.8316316062249172  0.5624374091969528  0.3685769486708779
  0.6679645233005758  0.5623591843911555  0.3688841516943953
  0.7488311196744988  0.6270865329984190  0.4585563675319690
  0.5819822855185635  0.5617743878530845  0.4534184831797745
  0.9151789883696324  0.5626724357366868  0.4548209727669601
  0.5039257847239398  0.6130776594617160  0.5428663007694396
  0.6679006297238672  0.5602427532205425  0.5426772260987320
  0.4998132363961716  0.6249003776782516  0.1977063809916473
  0.8336748842818622  0.6874072984892834  0.2029913067470659
  0.6656054431162843  0.6874265773444961  0.2028080086558717
  0.7495835799565000  0.7497337161232025  0.2784001328408579
  0.5824710677279086  0.6872928811334447  0.2843346841767413
  0.9170916595577978  0.6873701291943206  0.2843879951146278
  0.4995539033828180  0.7496678908843606  0.3692332297110639
  0.8316442445809145  0.6873727157289267  0.3685491307967368
  0.6680717803987406  0.6871613137323891  0.3689308567277507
  0.7494319652379033  0.7481321857882648  0.4574616898613897
  0.5812057648831939  0.6874949558955805  0.4530617959026344
  0.9168300654493251  0.6876877531058412  0.4536634974435714
  0.8296253762298917  0.6877292974652889  0.5423735922214945
  0.6577854113905914  0.6868996125486220  0.5408887741721031
  0.4997341399852573  0.7497928936111009  0.1976508091075999
  0.8334636182783939  0.8122886795898552  0.2030404435467048
  0.6657911721517351  0.8122965515462042  0.2028558040490225
  0.7496378581713330  0.8748277519982182  0.2784526170986226
  0.5826227096373842  0.8122936608909725  0.2842676448427639
  0.9169174756876117  0.8123491058981287  0.2842745062875025
  0.4996286088240183  0.8748514109075032  0.3692669464382234
  0.8317382591283078  0.8123661963146276  0.3687025954798671
  0.6680523554373536  0.8122957364881884  0.3688883610354381
  0.7489077093570344  0.8770066325785919  0.4580074877542870
  0.5824789503291541  0.8117587640838622  0.4535706712185217
  0.9148968945458904  0.8126446934960754  0.4550795029763819
  0.5001267106300631  0.8614441493211729  0.5435500641071940
  0.6671239665319888  0.8104027332806254  0.5429086389670488
  0.4997419064686568  0.8749299761237808  0.1976918018218043
  0.8336627349877332  0.9373582978623674  0.2029872117171934
  0.6656556168852177  0.9374039132289127  0.2027695057478169
  0.7495350983554161  0.4998198045983457  0.2783738372675799
  0.5825415524423363  0.9372963861701891  0.2843071706002931
  0.9170765353726154  0.9373407717963929  0.2843591919560495
  0.4991166472313253  0.4995950807844949  0.3694701672866074
  0.8316305891954059  0.9373836936662840  0.3685072464963568
  0.6681150972304408  0.9371712261809790  0.3688962282642692
  0.7494255257022999  0.4981787649704330  0.4573984520943455
  0.5817584960152544  0.9374452095562233  0.4530707965325718
  0.9163949590231368  0.9376970237829738  0.4537738228910371
  0.8276067282337465  0.9369752671124019  0.5429676862271720
  0.6566444228067496  0.9367115482315640  0.5412266204465013
  0.4051950088092795  0.9997643073064566  0.2324214024095781
  0.2497157832197772  0.9998222490234454  0.1995432813031783
  0.0939518232921799  0.9998428750263315  0.2325123287348276
  0.1546947667948473  0.1248596341837427  0.3159407667829512
  0.9996852420693898  0.1248027319323555  0.3033517175342126
  0.3446830256704558  0.1248460062049261  0.3161596143170726
  0.4005929076691856  0.1245698951657417  0.4021473973788758
  0.2494727262870882  0.1247671020997458  0.3887573137244331
  0.0992826934235893  0.1249486317054505  0.4021882086931470
  0.1510954222278684  0.1262821663478846  0.4874751967115003
  0.0002350905279727  0.1248505097978310  0.4730033978193333
  0.3510911529841323  0.1248808671018864  0.4882943014164240
  0.4076376252566121  0.1263477280104937  0.5718762450918859
  0.2573053813645458  0.1310296816083465  0.5585471059718188
  0.0979177393878388  0.1261476895454976  0.5695755994671785
  0.4052160469264479  0.1248454003238209  0.2324373199288701
  0.2497502834203686  0.1248177182493890  0.1992536558705780
  0.0939760746233063  0.1248944104010192  0.2324747012368320
  0.1546562358088224  0.2497525066435031  0.3158964844584773
  0.9997713435477351  0.2499269977848044  0.3033635081875090
  0.3447563270981533  0.2497187692169121  0.3160879396265841
  0.4002305573972080  0.2498173837396251  0.4020739741033168
  0.2495206422865195  0.2497548035528538  0.3887596029053455
  0.0994087956840914  0.2498143269797239  0.4022196550091621
  0.1513748256723275  0.2486173895390138  0.4882790555787437
  0.0004006136237606  0.2500704145644761  0.4733762566699369
  0.3509885362373808  0.2487737600144513  0.4882714241204980
  0.4185018159975158  0.2513471719835678  0.5662913500845121
  0.2631380655098638  0.2492374881963144  0.5608312535291375
  0.0983011363251691  0.2472100236052555  0.5699611432290865
  0.4052516995943307  0.2497511342378615  0.2324295973827049
  0.2497816290511565  0.2498916702533123  0.1994858526445356
  0.0940315995484013  0.2498098140824183  0.2324512872654978
  0.1547593378755892  0.3748617298724142  0.3158558019053217
  0.9997712563115400  0.3747997940888510  0.3033370618935507
  0.3445904142660865  0.3748392624922303  0.3161104590407007
  0.3997491592236599  0.3749131074881475  0.4025207161165412
  0.2495275159936625  0.3748948141021771  0.3883425223640202
  0.0996069355641964  0.3748188154491814  0.4020628665814385
  0.1525470429799682  0.3754399009183302  0.4883979646030596
  0.0004000722482544  0.3749055096964682  0.4724396914588453
  0.3480347415925280  0.3745853088342770  0.4901672174492830
  0.4101841600081926  0.3766125700691347  0.5719239604676716
  0.2547761372168793  0.3968165080466122  0.5747146330809230
  0.0968649613999872  0.3760995543008150  0.5711788205353798
  0.4052394071029681  0.3748518841586090  0.2324520379368096
  0.2497680554187980  0.3747919090860705  0.1993985440909256
  0.0939830245211937  0.3748647436149568  0.2324205865194386
  0.1545187047669074  0.9998676895661376  0.3159061624163613
  0.9995968576118059  0.9999124108919162  0.3033455652250936
  0.3447267270844776  0.9997665538358760  0.3160959381056045
  0.4006083769864262  0.9999066025408965  0.4018194806653028
  0.2493395455225524  0.9999192935274834  0.3887009852308410
  0.0991222990651721  0.9999260912482129  0.4021020556325610
  0.1502440222515133  0.9985764133988226  0.4877745096616195
  0.9998451262442387  0.0001722061306211  0.4731718094972663
  0.3506550861199287  0.0001474491554205  0.4873150110956175
  0.4108558237678679  0.0050147075125793  0.5650075600538500
  0.2576391619386627  0.9976516371990058  0.5556946944481993
  0.0968744824650472  0.9973667322862880  0.5694479496585174
  0.4052443193718034  0.4997647045445248  0.2324108682317174
  0.2497009918539348  0.4998663070468723  0.1992641504035788
  0.0939781189371516  0.4998737858670808  0.2323732782054222
  0.1546455951053076  0.6250309229959186  0.3158534761946896
  0.9996571364332851  0.6248446257300770  0.3032703759122910
  0.3445999797539585  0.6249343794919255  0.3160764478993556
  0.4002158643745091  0.6247177037004761  0.4020535345624268
  0.2493255898888904  0.6250121418112826  0.3886727657305826
  0.0991571738404531  0.6252821818548568  0.4019586722860495
  0.1506697646771045  0.6260361154716918  0.4879013303879347
  0.0004700820878298  0.6250813403311426  0.4733600053455476
  0.3506981483169440  0.6252720259611380  0.4884795569756619
  0.4105172209441506  0.6270693696596865  0.5711579942519904
  0.2601632688238311  0.6338300979618765  0.5610855463465256
  0.1018741703167336  0.6251773985593303  0.5709558622762998
  0.4051546180375070  0.6248747935754864  0.2323890699994635
  0.2497484402594665  0.6248702304401021  0.1995667507217433
  0.0939375611627185  0.6249598410583062  0.2324397683704262
  0.1545523694702595  0.7499679076706940  0.3158767596690382
  0.9996103121136670  0.7499524373418751  0.3033416225497660
  0.3446357702613483  0.7498394439738476  0.3160446053619310
  0.4004709965302453  0.7499632453643272  0.4017582676183480
  0.2492704469510230  0.7500537342284233  0.3886524508295750
  0.0991364533322994  0.7499952608053562  0.4021930892136751
  0.1505025141593919  0.7489556316790384  0.4878740200624136
  0.9999852865852574  0.7502848647456091  0.4731825651040396
  0.3505080047541114  0.7505497985767136  0.4873190625378143
  0.4112502380324230  0.7554429936204059  0.5653509868377000
  0.2586002771721212  0.7488291661458319  0.5560256486667612
  0.0978352773321802  0.7472457572946638  0.5701393036103042
  0.4051539608763477  0.7497878900937138  0.2323492448535731
  0.2497047885701917  0.7498410662287469  0.1992747932159062
  0.0939245721049318  0.7498573938086892  0.2324570953511156
  0.1545803258826624  0.8748936409151540  0.3159488255076610
  0.9995673499416071  0.8748166185505468  0.3033441064455005
  0.3446627692965833  0.8748856395835958  0.3161460153805464
  0.4006157575287759  0.8746554577116612  0.4019681128878148
  0.2493284233391933  0.8748458844909877  0.3889591809976380
  0.0990980650384543  0.8749924927198123  0.4020929060147935
  0.1503052386005734  0.8766160201549837  0.4873420821065011
  0.9999419963422795  0.8749674397080653  0.4730744481559697
  0.3518009851654966  0.8751309206125981  0.4877654614818709
  0.4067783523738697  0.8769953348968684  0.5714158213744724
  0.2569497373875649  0.8804488690770924  0.5559167490271619
  0.0976063286924500  0.8767574134700595  0.5694175430477628
  0.4051135227346450  0.8748809987933441  0.2324039771433135
  0.2496828229325772  0.8748992811832892  0.1994320656763762
  0.0939599117987200  0.8749247294526654  0.2325184175816588
  0.1546429232179989  0.4998710627938934  0.3157292043667610
  0.9997119127735061  0.4999068586367983  0.3032626954205568
  0.3445607004285307  0.4997885330541436  0.3159912202857313
  0.3999952678021543  0.4996138964983672  0.4021107970926892
  0.2493624506048064  0.4999139522991527  0.3882480898081724
  0.0991642633206382  0.4998998060261073  0.4017866625209408
  0.1507015564861618  0.4996915906172603  0.4873359582286128
  0.9997698203979581  0.5001413148695235  0.4723378706016845
  0.3487669734308625  0.5006795086623299  0.4884801408185453
  0.4124656081043625  0.5041886576445691  0.5665032577034168
  0.2581023382408958  0.5040109933041137  0.5596005247060489
  0.0964514236456537  0.4992384842007453  0.5708026889227398
  0.9052919265702144  0.9997946329878715  0.2325863138882553
  0.7496494892510270  0.9998217308494617  0.1995902258474587
  0.5941979198963665  0.9997825975363241  0.2324970019983539
  0.6547103542915806  0.1248753170159347  0.3163045181692397
  0.4996696282368873  0.1248000770348696  0.3029254850297889
  0.8446270645715970  0.1248714527312913  0.3160541161460770
  0.9005570161915415  0.1248276028557029  0.4020895301992624
  0.7500790421923256  0.1247129332002288  0.3891862416629195
  0.5985324210492564  0.1245363621539113  0.4020280443132336
  0.6471791072304853  0.1247111057399337  0.4874275247325741
  0.4993127129758577  0.1242075585265212  0.4746367741294932
  0.8500700478190879  0.1267653346278834  0.4871824809992518
  0.9029698000980346  0.1280510032884195  0.5694659318450874
  0.7444011473285101  0.1286337644983107  0.5534073740755545
  0.5949830885199248  0.1251065878593778  0.5715642226074564
  0.9052754799747191  0.1248846655729920  0.2326052897381174
  0.7496883817385580  0.1248391067504997  0.1995031635646214
  0.5942499525949074  0.1248915597486189  0.2325727012286833
  0.6546638475294344  0.2497403001004272  0.3162708632503097
  0.4995965820470261  0.2498711314211661  0.3030000882505703
  0.8447025407737598  0.2498012254517050  0.3160207636374679
  0.9004702809033205  0.2500549179782325  0.4020969563247192
  0.7500949624394835  0.2500005916475132  0.3888605562537606
  0.5986172285563995  0.2499456927554817  0.4017235298754755
  0.6491285684572077  0.2501135848720537  0.4868970075388575
  0.4995265927577037  0.2502132746353354  0.4734272717772967
  0.8497691013519457  0.2486683082028449  0.4875378578886327
  0.9023582655817108  0.2484994716554070  0.5694353361043767
  0.7424550246369108  0.2465610918386716  0.5551660945887917
  0.5918123423477937  0.2531994569656320  0.5659177869663949
  0.9053654856795461  0.2497836238144586  0.2326086849783238
  0.7496542682139093  0.2499359699394361  0.1995338387511651
  0.5941811921739912  0.2498058679273285  0.2326220960294449
  0.6546107444887568  0.3749038925085060  0.3163597407649448
  0.4995071938895705  0.3747757233488258  0.3031375865593873
  0.8446331591136556  0.3748586909574527  0.3160095354608217
  0.9005674290548100  0.3746539833486509  0.4018099017543832
  0.7500158113286020  0.3746882821213120  0.3893826229676662
  0.5981620084479644  0.3746429178544943  0.4019789278954065
  0.6461638149548321  0.3748653095245942  0.4872748272571457
  0.4984875812665450  0.3746117523051069  0.4742063709723823
  0.8505317444261991  0.3766708835454935  0.4868116520038299
  0.9027509251059271  0.3780769176047158  0.5691445047547887
  0.7454597767977091  0.3782481206711310  0.5509794128299959
  0.5975106732552362  0.3748428513240967  0.5723202717422282
  0.9052996290230553  0.3748534212350236  0.2326178773163008
  0.7497222582552396  0.3748000905419531  0.2000383842001980
  0.5942330149765240  0.3749109128771551  0.2326795751439903
  0.6546218890175837  0.9997227572808072  0.3162059847117007
  0.4996707127086921  0.9998051904111946  0.3028453430277978
  0.8446881640021928  0.9998228578298125  0.3160219929103008
  0.9002530848784360  0.0000235569727280  0.4021686856710716
  0.7500505488812266  0.9999217673470042  0.3888639781130863
  0.5986549916688801  0.9998233327065833  0.4017288962474552
  0.6487557636551884  0.9999944354870749  0.4869932274244988
  0.4995827941132731  0.9999000780169567  0.4737383488612394
  0.8493418780801179  0.9987356951383362  0.4877775560201911
  0.9016330787946032  0.9980549670163086  0.5696934750062397
  0.7410790750388969  0.9964261968738910  0.5557410445338533
  0.5891519063533650  0.0037593618641765  0.5650107383547294
  0.9053364443937184  0.4998108641165828  0.2325831642973881
  0.7496952029530775  0.4998186401183631  0.1992088977465087
  0.5941167335154773  0.4997523322028172  0.2325882922809726
  0.6546106111727781  0.6248507296870969  0.3162892875270344
  0.4995289441624209  0.6247867716238460  0.3029127611911946
  0.8446079782296039  0.6248885081391293  0.3160714167710807
  0.9004148852158025  0.6249850331151308  0.4020873286815032
  0.7499881807495470  0.6247035917026693  0.3894067405170034
  0.5983485413131362  0.6245404158801406  0.4018732697848790
  0.6464109264425133  0.6246531377341782  0.4873092774664727
  0.4991632638552588  0.6243077528924417  0.4740739473936344
  0.8504652155791774  0.6267236461305643  0.4872983716841475
  0.9050317017488467  0.6282881360287149  0.5689028940131706
  0.7453062882584831  0.6282030427264047  0.5516760376993233
  0.5970991131822672  0.6249207810087754  0.5720984414232007
  0.9051740931226462  0.6248999725916207  0.2326334340719143
  0.7496616423228275  0.6248337496638356  0.2000724403422893
  0.5942727159941086  0.6248521319691491  0.2325862324546151
  0.6546311457711980  0.7497058596191835  0.3162048192690676
  0.4995907209117902  0.7498083367051649  0.3028048579690861
  0.8446348259295320  0.7498259879408309  0.3160323366039393
  0.9003167336758153  0.7500768331883734  0.4021481000974632
  0.7500220037674126  0.7498345768701213  0.3888912629391612
  0.5985696132455942  0.7498038465712114  0.4016909966099647
  0.6487161428315886  0.7500218141385346  0.4869391958957863
  0.4992917175507969  0.7499559853990760  0.4735728251735338
  0.8496450899156329  0.7487981198369766  0.4876129229891930
  0.9029320671934897  0.7482366065562900  0.5695335019045800
  0.7420725446605729  0.7463482424245456  0.5551628006965643
  0.5898666365144933  0.7534745489978789  0.5651761773676469
  0.9052594940094352  0.7497931669016040  0.2325780783629696
  0.7496425378293239  0.7497635554601274  0.1993344805599691
  0.5941555677550738  0.7497534928412364  0.2324930054251482
  0.6546317537625512  0.8748161448481326  0.3162549664747303
  0.4996480143815845  0.8747990176979883  0.3028416121421600
  0.8446137724201250  0.8748371648365847  0.3160743065943024
  0.9003265701086889  0.8749447566865740  0.4021628577543268
  0.7500179832536347  0.8746648125745153  0.3891782823772800
  0.5985492706895386  0.8744838472976539  0.4019835549574040
  0.6472218394040681  0.8746197096463462  0.4875662616583654
  0.4994723546167492  0.8741383253261148  0.4747019788753661
  0.8496894769833006  0.8766795012737205  0.4874454739867886
  0.9023113754421033  0.8778318061989410  0.5695832395485354
  0.7433240106687222  0.8788892564857491  0.5543327786757004
  0.5939113534890197  0.8752899063366471  0.5714230399255058
  0.9052056023608515  0.8748686401625676  0.2325931431398729
  0.7496327992199099  0.8748796071363287  0.1995402843634153
  0.5942730171129043  0.8748802384472043  0.2324983301978634
  0.6546188961099233  0.4997288022494075  0.3162635997885346
  0.4995000911337470  0.4998365521772499  0.3029942590321681
  0.8445701983924323  0.4998441122761363  0.3159614737149639
  0.9001856426156820  0.5002195900953623  0.4018505520403508
  0.7499798635639721  0.4999148786580605  0.3888691559848141
  0.5983177256851135  0.4998323477605311  0.4017186654453297
  0.6486778152077832  0.5001751060288555  0.4868513886726831
  0.4985674190897669  0.5001113849488235  0.4736003840774998
  0.8497403402757868  0.4988140002032608  0.4872402942337644
  0.9025945183196384  0.4985783968272273  0.5695002243405582
  0.7421421434505575  0.4961579810174328  0.5552058479944861
  0.5903477238094581  0.5033562795851623  0.5653950200688982
  0.1284075251643415  0.0606944494958341  0.5353729230134689
  0.1265376709926898  0.3101723449183211  0.5351545723026234
  0.1279841838954638  0.5630604627622304  0.5336984071314106
  0.1276848503131092  0.8121422326825254  0.5357660332091072
  0.8732580529897120  0.0626839677861568  0.5364777531774934
  0.5058727372805762  0.2616671846053364  0.5361928275014449
  0.8739262318717067  0.3127593699754385  0.5359426836175416
  0.5004843408747064  0.0110980799881588  0.5366431605730781
  0.8748723379880232  0.5641511609070164  0.5356676324036513
  0.5010618199192791  0.7600400618919139  0.5365172507995908
  0.8731751121276972  0.8129556383625669  0.5362507299344514
  0.5020398086291209  0.5105727834450846  0.5364961150931720
  0.2386707187741663  0.4629691551898887  0.6165359595348150
  0.0855657345520271  0.4384399146953299  0.6132726876949448
  0.2173414817105979  0.5704294224276083  0.5943288443205788
  0.2290247686376077  0.3196910824123975  0.5867312299992520
 
  0.00000000E+00  0.00000000E+00  0.00000000E+00
  0.00000000E+00  0.00000000E+00  0.00000000E+00
  0.00000000E+00  0.00000000E+00  0.00000000E+00