Mo  S Cu                                
   1.00000000000000     
    15.9214998300000001    0.0000000000000000    0.0000000000000000
    -7.9622501300000001   13.7910221699999997    0.0000000000000000
     0.0000000000000000    0.0000000000000000   13.5821998300000004
   Mo   S    Cu
    25    49     4
Direct
  0.1318916915456398  0.0661521009524151  0.6766093670954163
  0.1372086259925283  0.2660871798763722  0.6719004976445362
  0.1337680238370211  0.4650359888020006  0.6750691209888942
  0.1326731632942710  0.6658749898386631  0.6791406892632565
  0.1320414280644897  0.8661331925286504  0.6799761723651017
  0.3312693499514197  0.0671471350391926  0.6800889334363873
  0.3195077173060312  0.2608445856868542  0.6665872452953394
  0.3352336680712256  0.4665073009641887  0.6662978995327293
  0.3327856724160725  0.6660955674335014  0.6773385066290984
  0.3323338304440924  0.8665286521783102  0.6808971202826228
  0.5326439376310503  0.0666723304570027  0.6818451030307813
  0.5301116689955165  0.2666609355188214  0.6790607373740798
  0.5312155452171581  0.4698582258303432  0.6715432444125753
  0.5326272578912921  0.6666595676950848  0.6791773506394705
  0.5328312966553810  0.8667866209840653  0.6812308807393066
  0.7331720027483755  0.0667454377075956  0.6822545818810823
  0.7323445327473763  0.2660543354040641  0.6824096542980698
  0.7322148273866844  0.4667768396098992  0.6802292855538639
  0.7323404397622184  0.6670538573273461  0.6796779373667192
  0.7331369725761192  0.8671502912762250  0.6816109171253331
  0.9336962207359747  0.0673620318631833  0.6804712305235796
  0.9337992638595054  0.2663966103963062  0.6798231702320408
  0.9326985804045549  0.4659784890511887  0.6799987540110166
  0.9323077997744775  0.6662799935520880  0.6800435087268610
  0.9321540404355204  0.8661637326761209  0.6803940717911843
  0.0639582036352948  0.1319671451606155  0.5610710463017341
  0.0722617436856510  0.1381411726496324  0.7924339137149019
  0.0648178754559012  0.3307525299066754  0.5609025230361340
  0.0735530268168390  0.3330444134597315  0.7900628314096920
  0.0651625812825856  0.5326873112639277  0.5634171144722515
  0.0679276669315527  0.5313722438754525  0.7926805657411862
  0.0655823268387863  0.7327757322706461  0.5648070175189872
  0.0660041497635717  0.7324170957026723  0.7946990038606714
  0.0641058648705979  0.9309010406627038  0.5639407495431001
  0.0659665060551688  0.9340623945758466  0.7939977606090949
  0.2632363563004176  0.1280006211022666  0.5576159838726724
  0.2648083855661838  0.1397105727326959  0.7935262916000880
  0.2640019108371305  0.3348689331755921  0.5523715231014847
  0.2666469096807802  0.5351173726719054  0.5580320752594261
  0.2676459780761675  0.5270012006989120  0.7869598292017557
  0.2661775337046279  0.7342111854803903  0.5642785427276493
  0.2657696150861071  0.7312175639823266  0.7943234581611236
  0.2658026707780365  0.9329961905920499  0.5656234227303543
  0.2648694873207660  0.9333626059368569  0.7954108395516144
  0.4653930354527915  0.1331330618254611  0.5665336948574335
  0.4637082648113662  0.1322298939579127  0.7972167481293013
  0.4629919740202197  0.3317598567883877  0.5595675941646618
  0.4492543781985958  0.3315983285461854  0.7827377967616442
  0.4689040058849017  0.5382871854647249  0.5566371480067360
  0.4603347156142590  0.5279675956753138  0.7923988391452923
  0.4672922699082989  0.7350486031426300  0.5644266461550558
  0.4646191482077384  0.7317718158720155  0.7943346053438489
  0.4663558330209980  0.9338997887078122  0.5664453025057838
  0.4653785858596038  0.9326186312222262  0.7964768807931790
  0.6660917353538309  0.1332113751756836  0.5672937130774969
  0.6661249358877868  0.1329616272712641  0.7973329532533242
  0.6649094209245590  0.3324463581433363  0.5669248807350087
  0.6663785212950089  0.3350393749139826  0.7978928233799465
  0.6682055449923183  0.5345542829114649  0.5624604010427419
  0.6632068054683415  0.5324561217647243  0.7934204868543802
  0.6669940119312869  0.7351126972909938  0.5651945763577544
  0.6651162979595497  0.7326470686674114  0.7953541842528722
  0.6665671987076962  0.9340052665053662  0.5667867544018677
  0.6660231268877155  0.9330217474678051  0.7970032710680144
  0.8655868346055087  0.1328210055629668  0.5662343426626038
  0.8680287341259216  0.1343310088812188  0.7962736421604291
  0.8648668702356090  0.3319534936206097  0.5660409511818330
  0.8679517740995877  0.3333914808861351  0.7959174282127961
  0.8656826953776644  0.5326307080597559  0.5652056144662367
  0.8666093775544255  0.5334461303555287  0.7950332266846232
  0.8657052451354232  0.7332399637191216  0.5649646982920089
  0.8654599353639441  0.7328500554856774  0.7952521891414861
  0.8657729768002724  0.9335721395118668  0.5659613545697155
  0.8673837366335846  0.9342728353616963  0.7961616467388239
  0.3596893516646702  0.2204367916847190  0.9286109288299045
  0.5300231212594397  0.2791027056012183  0.8935987654009878
  0.5304315517596621  0.4577422405011973  0.8985942015782555
  0.4853266856519340  0.3423502723418039  0.0315695067019846
 
  0.00000000E+00  0.00000000E+00  0.00000000E+00
  0.00000000E+00  0.00000000E+00  0.00000000E+00
  0.00000000E+00  0.00000000E+00  0.00000000E+00
  0.00000000E+00  0.00000000E+00  0.00000000E+00
  0.00000000E+00  0.00000000E+00  0.00000000E+00
  0.00000000E+00  0.00000000E+00  0.00000000E+00
  0.00000000E+00  0.00000000E+00  0.00000000E+00
  0.00000000E+00  0.00000000E+00  0.00000000E+00
  0.00000000E+00  0.00000000E+00  0.00000000E+00
  0.00000000E+00  0.00000000E+00  0.00000000E+00
  0.00000000E+00  0.00000000E+00  0.00000000E+00
  0.00000000E+00  0.00000000E+00  0.00000000E+00
  0.00000000E+00  0.00000000E+00  0.00000000E+00
  0.00000000E+00  0.00000000E+00  0.00000000E+00
  0.00000000E+00  0.00000000E+00  0.00000000E+00
  0.00000000E+00  0.00000000E+00  0.00000000E+00
  0.00000000E+00  0.00000000E+00  0.00000000E+00
  0.00000000E+00  0.00000000E+00  0.00000000E+00
  0.00000000E+00  0.00000000E+00  0.00000000E+00
  0.00000000E+00  0.00000000E+00  0.00000000E+00
  0.00000000E+00  0.00000000E+00  0.00000000E+00
  0.00000000E+00  0.00000000E+00  0.00000000E+00
  0.00000000E+00  0.00000000E+00  0.00000000E+00
  0.00000000E+00  0.00000000E+00  0.00000000E+00
  0.00000000E+00  0.00000000E+00  0.00000000E+00
  0.00000000E+00  0.00000000E+00  0.00000000E+00
  0.00000000E+00  0.00000000E+00  0.00000000E+00
  0.00000000E+00  0.00000000E+00  0.00000000E+00
  0.00000000E+00  0.00000000E+00  0.00000000E+00
  0.00000000E+00  0.00000000E+00  0.00000000E+00
  0.00000000E+00  0.00000000E+00  0.00000000E+00
  0.00000000E+00  0.00000000E+00  0.00000000E+00
  0.00000000E+00  0.00000000E+00  0.00000000E+00
  0.00000000E+00  0.00000000E+00  0.00000000E+00
  0.00000000E+00  0.00000000E+00  0.00000000E+00
  0.00000000E+00  0.00000000E+00  0.00000000E+00
  0.00000000E+00  0.00000000E+00  0.00000000E+00
  0.00000000E+00  0.00000000E+00  0.00000000E+00
  0.00000000E+00  0.00000000E+00  0.00000000E+00
  0.00000000E+00  0.00000000E+00  0.00000000E+00
  0.00000000E+00  0.00000000E+00  0.00000000E+00
  0.00000000E+00  0.00000000E+00  0.00000000E+00
  0.00000000E+00  0.00000000E+00  0.00000000E+00
  0.00000000E+00  0.00000000E+00  0.00000000E+00
  0.00000000E+00  0.00000000E+00  0.00000000E+00
  0.00000000E+00  0.00000000E+00  0.00000000E+00
  0.00000000E+00  0.00000000E+00  0.00000000E+00
  0.00000000E+00  0.00000000E+00  0.00000000E+00
  0.00000000E+00  0.00000000E+00  0.00000000E+00
  0.00000000E+00  0.00000000E+00  0.00000000E+00
  0.00000000E+00  0.00000000E+00  0.00000000E+00
  0.00000000E+00  0.00000000E+00  0.00000000E+00
  0.00000000E+00  0.00000000E+00  0.00000000E+00
  0.00000000E+00  0.00000000E+00  0.00000000E+00
  0.00000000E+00  0.00000000E+00  0.00000000E+00
  0.00000000E+00  0.00000000E+00  0.00000000E+00
  0.00000000E+00  0.00000000E+00  0.00000000E+00
  0.00000000E+00  0.00000000E+00  0.00000000E+00
  0.00000000E+00  0.00000000E+00  0.00000000E+00
  0.00000000E+00  0.00000000E+00  0.00000000E+00
  0.00000000E+00  0.00000000E+00  0.00000000E+00
  0.00000000E+00  0.00000000E+00  0.00000000E+00
  0.00000000E+00  0.00000000E+00  0.00000000E+00
  0.00000000E+00  0.00000000E+00  0.00000000E+00
  0.00000000E+00  0.00000000E+00  0.00000000E+00
  0.00000000E+00  0.00000000E+00  0.00000000E+00
  0.00000000E+00  0.00000000E+00  0.00000000E+00
  0.00000000E+00  0.00000000E+00  0.00000000E+00
  0.00000000E+00  0.00000000E+00  0.00000000E+00
  0.00000000E+00  0.00000000E+00  0.00000000E+00
  0.00000000E+00  0.00000000E+00  0.00000000E+00
  0.00000000E+00  0.00000000E+00  0.00000000E+00
  0.00000000E+00  0.00000000E+00  0.00000000E+00
  0.00000000E+00  0.00000000E+00  0.00000000E+00
  0.00000000E+00  0.00000000E+00  0.00000000E+00
  0.00000000E+00  0.00000000E+00  0.00000000E+00
  0.00000000E+00  0.00000000E+00  0.00000000E+00
  0.00000000E+00  0.00000000E+00  0.00000000E+00
