Mo  S Cu                                
   1.00000000000000     
    15.9214998300000001    0.0000000000000000    0.0000000000000000
    -7.9622501300000001   13.7910221699999997    0.0000000000000000
     0.0000000000000000    0.0000000000000000   13.5821998300000004
   Mo   S    Co
    25    50     2
Direct
  0.1343453832807029  0.0666074179135450  0.6758203245510970
  0.1332276561051131  0.2657110413393440  0.6766483146984541
  0.1348023403308147  0.4665163013475677  0.6789877930340822
  0.1348819680234854  0.6669513869100001  0.6782466555218818
  0.1349569933186956  0.8671225619204748  0.6758363521090871
  0.3338544770173328  0.0659085364697063  0.6765910535090143
  0.3345255085322520  0.2657856340557530  0.6773324101971383
  0.3351588788452204  0.4681606080932781  0.6770666751705789
  0.3344737351505316  0.6667187946080020  0.6772311765352867
  0.3344166414623686  0.8663482921593300  0.6765217707783293
  0.5338328937893237  0.0654979590285620  0.6783759165171688
  0.5325251706261511  0.2656257805913214  0.6795018229849532
  0.5338948640646919  0.4665139334799520  0.6793325803626828
  0.5344670905238544  0.6666852498496780  0.6772959042656979
  0.5341703299318183  0.8661330807023546  0.6768757782110555
  0.7337816853752130  0.0654553111195426  0.6781682073846653
  0.7330086134203810  0.2641121265722504  0.6846680759476200
  0.7343470596620065  0.4670096967200976  0.6854531099721868
  0.7343475438354545  0.6668999344968043  0.6784192863355329
  0.7340997311789295  0.8662526634034080  0.6764564236288777
  0.9341076621024982  0.0658044680416552  0.6761657052728864
  0.9351860899657893  0.2655704213757488  0.6790099749327467
  0.9351022556055284  0.4672293607484903  0.6852502916672663
  0.9357001876949482  0.6691293892704735  0.6776286379873397
  0.9343637225573502  0.8670587727210091  0.6757787632737902
  0.0672751971660261  0.1330824899502971  0.5607273693364689
  0.0672549655208385  0.1322451580689759  0.7912710815631883
  0.0670940607476993  0.3337776243337345  0.5629071965837582
  0.0694058477953305  0.3326739626382249  0.7935746585801269
  0.0656499733482150  0.5319551799674187  0.5655124682661423
  0.0703984897719963  0.5347580043055302  0.7957708839734039
  0.0679755499965324  0.7327381389997853  0.5620095769155071
  0.0698715006154131  0.7359844010668510  0.7922707940157991
  0.0677953973829801  0.9333242333490617  0.5604915463414812
  0.0678447516058327  0.9335400850998283  0.7906640587965583
  0.2681558440798497  0.1333482197606060  0.5611465380649250
  0.2668521535385722  0.1321570436126791  0.7916403891880179
  0.2679720577081781  0.3335607763693744  0.5631070374062617
  0.2673952534838477  0.3334483204178937  0.7912317106553886
  0.2669454685298263  0.5333482699781200  0.5623964818251608
  0.2686565745244494  0.5339795427402905  0.7931081864979177
  0.2671600702153043  0.7325661555555030  0.5620137631280500
  0.2685034529458861  0.7339284500110210  0.7924209895926424
  0.2682414042257975  0.9332380975142414  0.5608475150517691
  0.2674944310508920  0.9328657752799003  0.7913386484588898
  0.4684861209528464  0.1336688785475744  0.5631109825055489
  0.4651965210405251  0.1305266753109322  0.7930712071779382
  0.4686851372809215  0.3337188723702340  0.5634810446455987
  0.4654884887759678  0.3327407711561534  0.7940207316042276
  0.4686854540295968  0.5332675366935291  0.5625497616026465
  0.4674714696136206  0.5341059888354636  0.7931951252891167
  0.4675928336746722  0.7328980640664540  0.5618587394756887
  0.4678041256944994  0.7333991840959726  0.7922819764480877
  0.4680770660298705  0.9334469401117431  0.5618803301279698
  0.4669034557071399  0.9318096944788934  0.7924071354278794
  0.6683041559303575  0.1346231795172272  0.5649839057877131
  0.6656584190754131  0.1290184472642508  0.7956162882598576
  0.6692864815365454  0.3340924963506282  0.5702483048034779
  0.6569255234354685  0.3256141848324106  0.8051981357512261
  0.6684395529961122  0.5317963306858644  0.5658487650450752
  0.6666983119186085  0.5347189412475615  0.7959658428706717
  0.6676068852390671  0.7323681193321434  0.5620906307888589
  0.6676660337616340  0.7339171774056297  0.7924949836579032
  0.6674794390229906  0.9333030399616078  0.5617867723943633
  0.6671698169378502  0.9318341169369475  0.7923075316431962
  0.8671400975935981  0.1335069071205908  0.5626750133647391
  0.8675179836193294  0.1305512806258520  0.7926245881271043
  0.8667115787902731  0.3341451160153497  0.5700821927038078
  0.8709928936062639  0.3257995467124459  0.8045471390444519
  0.8668311506721693  0.5315604787778909  0.5696912001674121
  0.8745755460700764  0.5465006166124908  0.8044934979838274
  0.8669211046958267  0.7326160603396019  0.5620320917372936
  0.8684475579810638  0.7359937323630277  0.7923288670532429
  0.8670613460999093  0.9329545840276410  0.5606520827495913
  0.8676006932357723  0.9329222337660212  0.7911474446976072
  0.2661464945078507  0.3434438054979907  0.9412419763958724
  0.8022073570509320  0.4021664335503132  0.8395236835377631
 
  0.00000000E+00  0.00000000E+00  0.00000000E+00
  0.00000000E+00  0.00000000E+00  0.00000000E+00
  0.00000000E+00  0.00000000E+00  0.00000000E+00
  0.00000000E+00  0.00000000E+00  0.00000000E+00
  0.00000000E+00  0.00000000E+00  0.00000000E+00
  0.00000000E+00  0.00000000E+00  0.00000000E+00
  0.00000000E+00  0.00000000E+00  0.00000000E+00
  0.00000000E+00  0.00000000E+00  0.00000000E+00
  0.00000000E+00  0.00000000E+00  0.00000000E+00
  0.00000000E+00  0.00000000E+00  0.00000000E+00
  0.00000000E+00  0.00000000E+00  0.00000000E+00
  0.00000000E+00  0.00000000E+00  0.00000000E+00
  0.00000000E+00  0.00000000E+00  0.00000000E+00
  0.00000000E+00  0.00000000E+00  0.00000000E+00
  0.00000000E+00  0.00000000E+00  0.00000000E+00
  0.00000000E+00  0.00000000E+00  0.00000000E+00
  0.00000000E+00  0.00000000E+00  0.00000000E+00
  0.00000000E+00  0.00000000E+00  0.00000000E+00
  0.00000000E+00  0.00000000E+00  0.00000000E+00
  0.00000000E+00  0.00000000E+00  0.00000000E+00
  0.00000000E+00  0.00000000E+00  0.00000000E+00
  0.00000000E+00  0.00000000E+00  0.00000000E+00
  0.00000000E+00  0.00000000E+00  0.00000000E+00
  0.00000000E+00  0.00000000E+00  0.00000000E+00
  0.00000000E+00  0.00000000E+00  0.00000000E+00
  0.00000000E+00  0.00000000E+00  0.00000000E+00
  0.00000000E+00  0.00000000E+00  0.00000000E+00
  0.00000000E+00  0.00000000E+00  0.00000000E+00
  0.00000000E+00  0.00000000E+00  0.00000000E+00
  0.00000000E+00  0.00000000E+00  0.00000000E+00
  0.00000000E+00  0.00000000E+00  0.00000000E+00
  0.00000000E+00  0.00000000E+00  0.00000000E+00
  0.00000000E+00  0.00000000E+00  0.00000000E+00
  0.00000000E+00  0.00000000E+00  0.00000000E+00
  0.00000000E+00  0.00000000E+00  0.00000000E+00
  0.00000000E+00  0.00000000E+00  0.00000000E+00
  0.00000000E+00  0.00000000E+00  0.00000000E+00
  0.00000000E+00  0.00000000E+00  0.00000000E+00
  0.00000000E+00  0.00000000E+00  0.00000000E+00
  0.00000000E+00  0.00000000E+00  0.00000000E+00
  0.00000000E+00  0.00000000E+00  0.00000000E+00
  0.00000000E+00  0.00000000E+00  0.00000000E+00
  0.00000000E+00  0.00000000E+00  0.00000000E+00
  0.00000000E+00  0.00000000E+00  0.00000000E+00
  0.00000000E+00  0.00000000E+00  0.00000000E+00
  0.00000000E+00  0.00000000E+00  0.00000000E+00
  0.00000000E+00  0.00000000E+00  0.00000000E+00
  0.00000000E+00  0.00000000E+00  0.00000000E+00
  0.00000000E+00  0.00000000E+00  0.00000000E+00
  0.00000000E+00  0.00000000E+00  0.00000000E+00
  0.00000000E+00  0.00000000E+00  0.00000000E+00
  0.00000000E+00  0.00000000E+00  0.00000000E+00
  0.00000000E+00  0.00000000E+00  0.00000000E+00
  0.00000000E+00  0.00000000E+00  0.00000000E+00
  0.00000000E+00  0.00000000E+00  0.00000000E+00
  0.00000000E+00  0.00000000E+00  0.00000000E+00
  0.00000000E+00  0.00000000E+00  0.00000000E+00
  0.00000000E+00  0.00000000E+00  0.00000000E+00
  0.00000000E+00  0.00000000E+00  0.00000000E+00
  0.00000000E+00  0.00000000E+00  0.00000000E+00
  0.00000000E+00  0.00000000E+00  0.00000000E+00
  0.00000000E+00  0.00000000E+00  0.00000000E+00
  0.00000000E+00  0.00000000E+00  0.00000000E+00
  0.00000000E+00  0.00000000E+00  0.00000000E+00
  0.00000000E+00  0.00000000E+00  0.00000000E+00
  0.00000000E+00  0.00000000E+00  0.00000000E+00
  0.00000000E+00  0.00000000E+00  0.00000000E+00
  0.00000000E+00  0.00000000E+00  0.00000000E+00
  0.00000000E+00  0.00000000E+00  0.00000000E+00
  0.00000000E+00  0.00000000E+00  0.00000000E+00
  0.00000000E+00  0.00000000E+00  0.00000000E+00
  0.00000000E+00  0.00000000E+00  0.00000000E+00
  0.00000000E+00  0.00000000E+00  0.00000000E+00
  0.00000000E+00  0.00000000E+00  0.00000000E+00
  0.00000000E+00  0.00000000E+00  0.00000000E+00
  0.00000000E+00  0.00000000E+00  0.00000000E+00
  0.00000000E+00  0.00000000E+00  0.00000000E+00
