Ru Ta  N  Cu                            
   1.00000000000000     
    18.1096308199999996    0.0000000000000000    0.0000000000000000
     0.0000000000000000   23.3551997799999995    0.0000000000000000
     0.0000000000000000    0.0000000000000000   30.4818170799999990
   Ru   Ta   N    Cu
    64   240   240     4
Selective dynamics
Direct
  0.0689125596742987  0.0111582212740056  0.5332662857805872   T   T   T
  0.2819295544728891  0.4984844721620542  0.5269307107081904   T   T   T
  0.4409811284519405  0.0626154194410271  0.5193132089677714   T   T   T
  0.0683347744686300  0.2604289570089250  0.5337600246658926   T   T   T
  0.2848824801386348  0.2483297206225378  0.5253359806779587   T   T   T
  0.4358071862606847  0.3081210544424000  0.5199787624496952   T   T   T
  0.0678414420305385  0.1250782566670777  0.5334620121639772   T   T   T
  0.2854870177292124  0.1313382990542674  0.5251985728954908   T   T   T
  0.4453186237413659  0.1843505990731058  0.5207966820504689   T   T   T
  0.0679592513531952  0.3719373317839287  0.5329936956760934   T   T   T
  0.2800149283880402  0.3813563701620815  0.5274094023026379   T   T   T
  0.4274518413438534  0.4366258612545078  0.5210928427684471   T   T   T
  0.1693494966215033  0.4362012719616659  0.5488414880650329   T   T   T
  0.1868020254080787  0.3073982365055501  0.5527647998389860   T   T   T
  0.1749956476764451  0.1866090162318891  0.5496331816260681   T   T   T
  0.1878450705194244  0.0619765132438377  0.5519172858729745   T   T   T
  0.0696437328869398  0.5118656985257761  0.5329292659349927   T   T   T
  0.2848362286450120 -0.0013981798122792  0.5253659759296663   T   T   T
  0.4354909025505564  0.5659925340290074  0.5195912840261641   T   T   T
  0.0670453891133742  0.7608293147922320  0.5337045525493767   T   T   T
  0.2842199384363787  0.7488644343552916  0.5252199036239565   T   T   T
  0.4410403922833858  0.8115426078165729  0.5191843777495011   T   T   T
  0.0676504977930652  0.6221210844523553  0.5336108249741879   T   T   T
  0.2826595362043762  0.6327685041577984  0.5259674611173204   T   T   T
  0.4449315937928995  0.6900107540589389  0.5208287733632734   T   T   T
  0.0669618570104233  0.8723179372578731  0.5332043010027749   T   T   T
  0.2839810642172755  0.8821430805448668  0.5252029785280788   T   T   T
  0.4448764537587638  0.9369933139440297  0.5210277508960434   T   T   T
  0.1729949734291751  0.9351466761196052  0.5494849349579415   T   T   T
  0.1858955952645559  0.8118842987794290  0.5506031995215063   T   T   T
  0.1714416489606909  0.6890258154025908  0.5487207796465692   T   T   T
  0.1870507490890226  0.5630512789589259  0.5516607117133940   T   T   T
  0.5681129922700449  0.0035668865498636  0.5334769621601900   T   T   T
  0.7923525240360735  0.4987976372247570  0.5235287181680459   T   T   T
  0.9427374540381530  0.0598563269036002  0.5203083528887882   T   T   T
  0.5672293951124154  0.2451565981154991  0.5350764660662086   T   T   T
  0.7830723887913535  0.2461564148686771  0.5255789487978607   T   T   T
  0.9420575454376237  0.3098264194305617  0.5196980841663602   T   T   T
  0.5650675624156739  0.1142962142687739  0.5331386295167065   T   T   T
  0.7866906578385877  0.1231732114373866  0.5243302564673826   T   T   T
  0.9463115504835587  0.1881310053554644  0.5211345135278714   T   T   T
  0.5665321330442347  0.3536374728863246  0.5355951957525490   T   T   T
  0.7930980222424491  0.3766635395123749  0.5231491519187558   T   T   T
  0.9511853338154389  0.4374742710589684  0.5222764049375302   T   T   T
  0.6808567517264827  0.4366545563468571  0.5437708829156714   T   T   T
  0.6893112877119898  0.3200179546692511  0.5504719296640308   T   T   T
  0.6764979458089300  0.1858858202419975  0.5477855782524155   T   T   T
  0.6834971550902752  0.0670425420851349  0.5518752063359756   T   T   T
  0.5666361682750086  0.5214588573031501  0.5356736809208397   T   T   T
  0.7822197798148242 -0.0002209194257848  0.5254350507500559   T   T   T
  0.9421536351445952  0.5627515335086082  0.5196460373276973   T   T   T
  0.5657188380489866  0.7611790109112661  0.5333381881345264   T   T   T
  0.7861353375982232  0.7517392465452056  0.5246150487040612   T   T   T
  0.9402446065770986  0.8112329010285251  0.5191798140911029   T   T   T
  0.5666174140314600  0.6296643732280838  0.5351374544677068   T   T   T
  0.7812970345009874  0.6291709112333559  0.5258776511780512   T   T   T
  0.9447899707469649  0.6869962662382888  0.5212847747618994   T   T   T
  0.5668436400742067  0.8717859307745115  0.5332242879489166   T   T   T
  0.7820629114332863  0.8762170464970177  0.5256603505591257   T   T   T
  0.9462625120908313  0.9369654712828731  0.5209723712121104   T   T   T
  0.6754745732392757  0.9375620198167017  0.5483314746391559   T   T   T
  0.6835225240923006  0.8086537916997889  0.5516209000554073   T   T   T
  0.6749885373909225  0.6889851580309305  0.5480560307982948   T   T   T
  0.6890501473741134  0.5547231263835584  0.5509619137493085   T   T   T
  0.9996246524628063  0.9999635445867767  0.1022212275957983   F   F   F
  0.3339438256838960  0.0624457813299060  0.1075563970202325   F   F   F
  0.1656734882889026  0.0624869619810369  0.1076523577670159   F   F   F
  0.2496380332605455  0.1248777014917124  0.1827535963680589   F   F   F
  0.0820753910794778  0.0624168821917976  0.1887361965005994   F   F   F
  0.4168249566545654  0.0624128089775482  0.1889653308070223   F   F   F
  0.0001582438550104  0.1249179233738547  0.2747589936395440   T   T   T
  0.3319942718140381  0.0624115547585414  0.2731276964325227   T   T   T
  0.1675882266768890  0.0624307011894758  0.2727962399432642   T   T   T
  0.2491361831434197  0.1248988941601566  0.3593960784008775   T   T   T
  0.0836353630090472  0.0624672661389119  0.3591789470114997   T   T   T
  0.4159043726198317  0.0623205525275211  0.3589500911695467   T   T   T
  0.4959179075826993  0.1245204686419902  0.4435193941028451   T   T   T
  0.3315969276255322  0.0620977400617471  0.4451524825404582   T   T   T
  0.1648742019993418  0.0625843286601145  0.4468047666788816   T   T   T
  0.9996175425524214  0.1249358288969233  0.1022184789678420   F   F   F
  0.3339435537114426  0.1874256191358299  0.1075504356733603   F   F   F
  0.1656688965935942  0.1874633245330628  0.1076544484778310   F   F   F
  0.2496428192825420  0.2499248694537357  0.1827745152021549   F   F   F
  0.0820483011947246  0.1874164370395803  0.1887315368489411   F   F   F
  0.4168235962087010  0.1874178821048673  0.1889761876915443   F   F   F
  0.0001646851317581  0.2499045793174425  0.2747867870367484   T   T   T
  0.3320438639914793  0.1874560464302073  0.2731580780528152   T   T   T
  0.1675782940542599  0.1874602563243111  0.2728299462664386   T   T   T
  0.2490432279592333  0.2500005494107950  0.3595512202788813   T   T   T
  0.0835756837148452  0.1874760126882470  0.3594066792636191   T   T   T
  0.4157996725425920  0.1873758387620075  0.3587451204249072   T   T   T
  0.4971570473174384  0.2485909025825832  0.4439000532675995   T   T   T
  0.3319825343991714  0.1868680763128575  0.4439941060608020   T   T   T
  0.1641699094397207  0.1876207944174633  0.4478064759012707   T   T   T
  0.9996247444640574  0.2499647011854407  0.1022230082490267   F   F   F
  0.3339438339619036  0.3124448417397900  0.1075557633545969   F   F   F
  0.1656741876920407  0.3124866150128511  0.1076519504247102   F   F   F
  0.2496342491082189  0.3748782083517597  0.1827543288382500   F   F   F
  0.0820773763724816  0.3124181279228466  0.1887355922833933   F   F   F
  0.4168238893201348  0.3124134579098339  0.1889644027201030   F   F   F
  0.0001574559148515  0.3749174064999314  0.2747952721528428   T   T   T
  0.3320425565840091  0.3124641513701574  0.2732022383576364   T   T   T
  0.1675457977324207  0.3124746583746131  0.2729130897967674   T   T   T
  0.2491716721076679  0.3749396404074803  0.3596805078431573   T   T   T
  0.0837046276532086  0.3124972260884220  0.3594367213786182   T   T   T
  0.4160227784266508  0.3124420487042428  0.3591403256743423   T   T   T
  0.4983000094816342  0.3747551724949540  0.4445124506280943   T   T   T
  0.3325454360975187  0.3119193562435238  0.4452698058600679   T   T   T
  0.1656834035209160  0.3125130959120827  0.4472781072232642   T   T   T
  0.9996196554118555  0.3749345235867736  0.1022175688270863   F   F   F
  0.3339389444248013  0.4374272239936090  0.1075500232538360   F   F   F
  0.1656692123176882  0.4374660331456823  0.1076535614342404   F   F   F
  0.2496367764464793  0.9999279799998888  0.1827742299965678   F   F   F
  0.0820476334098430  0.4374171254006285  0.1887298800136392   F   F   F
  0.4168193524269412  0.4374154383080295  0.1889763507298241   F   F   F
  0.5002664618282843  0.4998622692230216  0.2748582195096147   T   T   T
  0.3321121551161705  0.4374113843893318  0.2732672178366681   T   T   T
  0.1674873326871960  0.4374239420977081  0.2729426291216128   T   T   T
  0.2491964527912885  0.4999622301421246  0.3597016103124562   T   T   T
  0.0835547713356465  0.4374712102878107  0.3597167372519218   T   T   T
  0.4159964566913344  0.4373833664390790  0.3593454518655795   T   T   T
  0.4981186895091040  0.4996865731793315  0.4445723274195820   T   T   T
  0.3334286501645013  0.4371510608040257  0.4452643062616187   T   T   T
  0.1645339889675624  0.4376306044300744  0.4479208559407095   T   T   T
  0.9996246524628063  0.4999635445867767  0.1022212275957983   F   F   F
  0.3339438256838960  0.5624457813299060  0.1075563970202325   F   F   F
  0.1656734882889026  0.5624869619810369  0.1076523577670159   F   F   F
  0.2496380332605455  0.6248777014917124  0.1827535963680589   F   F   F
  0.0820753910794778  0.5624168821917976  0.1887361965005994   F   F   F
  0.4168249566545654  0.5624128089775482  0.1889653308070223   F   F   F
  0.0001814427992257  0.6248799051134785  0.2747770677425655   T   T   T
  0.3320624309060320  0.5623358139386226  0.2732080289315129   T   T   T
  0.1675869830208068  0.5623663248743461  0.2729043312318123   T   T   T
  0.2490680094209056  0.6249129893390274  0.3596217816100839   T   T   T
  0.0837580654784688  0.5624003436660314  0.3593832302907387   T   T   T
  0.4159940898029503  0.5623134734184030  0.3592248221903988   T   T   T
  0.4972604954847428  0.6259443827729237  0.4438486283248070   T   T   T
  0.3325668664188452  0.5625859543506246  0.4455155026684405   T   T   T
  0.1658887831750643  0.5626359118269794  0.4473128644071598   T   T   T
  0.9996175425524214  0.6249358288969233  0.1022184789678420   F   F   F
  0.3339435537114426  0.6874256191358228  0.1075504356733603   F   F   F
  0.1656688965935942  0.6874633245330557  0.1076544484778310   F   F   F
  0.2496428192825420  0.7499248694537357  0.1827745152021549   F   F   F
  0.0820483011947246  0.6874164370395732  0.1887315368489411   F   F   F
  0.4168235962087010  0.6874178821048602  0.1889761876915443   F   F   F
  0.0001989503888303  0.7498721372473057  0.2747693222668011   T   T   T
  0.3320372446831798  0.6873532632773947  0.2731991299812061   T   T   T
  0.1676451303492141  0.6873620833769644  0.2728357479466504   T   T   T
  0.2489985008457936  0.7500390703391652  0.3595961986865907   T   T   T
  0.0836343405285871  0.6874166565454354  0.3594440769200678   T   T   T
  0.4158103076137005  0.6873917095189145  0.3587901801468514   T   T   T
  0.4962405391424839  0.7500906856781016  0.4435220399118460   T   T   T
  0.3320675314693240  0.6875740008289788  0.4441597766471859   T   T   T
  0.1639773512205067  0.6877598782257653  0.4481587817906246   T   T   T
  0.9996247444640574  0.7499647011854407  0.1022230082490267   F   F   F
  0.3339438339619036  0.8124448417397900  0.1075557633545969   F   F   F
  0.1656741876920407  0.8124866150128511  0.1076519504247102   F   F   F
  0.2496342491082189  0.8748782083517597  0.1827543288382500   F   F   F
  0.0820773763724816  0.8124181279228466  0.1887355922833933   F   F   F
  0.4168238893201348  0.8124134579098339  0.1889644027201030   F   F   F
  0.0001663732697433  0.8748885946785481  0.2747597175635796   T   T   T
  0.3319779417362319  0.8123907859789939  0.2731433736913951   T   T   T
  0.1676298035781794  0.8123809024675135  0.2728141335093274   T   T   T
  0.2491024685216717  0.8749504833284543  0.3595866779102121   T   T   T
  0.0837636776672169  0.8124395535617274  0.3592273070984083   T   T   T
  0.4158983834343116  0.8124736010584340  0.3589203204828268   T   T   T
  0.4957203851785347  0.8751324016579298  0.4439696262826680   T   T   T
  0.3319803148668979  0.8125560989574666  0.4451059892397929   T   T   T
  0.1653985600558768  0.8125901103658726  0.4474214239600701   T   T   T
  0.9996196554118555  0.8749345235867736  0.1022175688270863   F   F   F
  0.3339389444248013  0.9374272239936019  0.1075500232538360   F   F   F
  0.1656692123176882  0.9374660331456752  0.1076535614342404   F   F   F
  0.2496367764464793  0.4999279799998888  0.1827742299965678   F   F   F
  0.0820476334098430  0.9374171254006214  0.1887298800136392   F   F   F
  0.4168193524269412  0.9374154383080224  0.1889763507298241   F   F   F
  0.5001360630337381 -0.0000977778617940  0.2747330516654588   T   T   T
  0.3320709238018272  0.9374025741984991  0.2731929083009522   T   T   T
  0.1676416945085623  0.9374038590628611  0.2728078171071610   T   T   T
  0.2492176723347513 -0.0000469442092494  0.3594930430105673   T   T   T
  0.0835998188752571  0.9374365044815788  0.3592619370172447   T   T   T
  0.4158171144945592  0.9374366244624214  0.3588914038367989   T   T   T
  0.4953149797302055  0.9995333028487333  0.4442372422082034   T   T   T
  0.3321543159087703  0.9372606493211413  0.4444302095708535   T   T   T
  0.1641132249949406  0.9375432631855987  0.4477264011821730   T   T   T
  0.4996261485864011  0.9999638794554073  0.1022212895025945   F   F   F
  0.8339437371848675  0.0624482785398897  0.1075580759875550   F   F   F
  0.6656689243728380  0.0624780056916450  0.1076592327669417   F   F   F
  0.7496377014008289  0.1248750966894079  0.1827574333080477   F   F   F
  0.5820735458319604  0.0624174442172745  0.1887352315057669   F   F   F
  0.9168252921289621  0.0624138005358219  0.1889639379559043   F   F   F
  0.5001880186139731  0.1248989924612907  0.2747437791934671   T   T   T
  0.8320981897854973  0.0623950584306964  0.2732267504080784   T   T   T
  0.6677479192402759  0.0623878091415591  0.2728185670265647   T   T   T
  0.7493650755312867  0.1246653533090500  0.3597153201507738   T   T   T
  0.5836509649405206  0.0623194215303057  0.3590183765512134   T   T   T
  0.9161727183682999  0.0623114527552276  0.3591327600897439   T   T   T
  0.9950583391323972  0.1246178018423197  0.4445749668492313   T   T   T
  0.8324621250663342  0.0622407144982522  0.4452373294295199   T   T   T
  0.6651896438784808  0.0621172270824331  0.4469222371276875   T   T   T
  0.4996213536236240  0.1249348955726433  0.1022183024833154   F   F   F
  0.8339388961320680  0.1874236234033546  0.1075519903559652   F   F   F
  0.6656669566206190  0.1874574838225769  0.1076541056651124   F   F   F
  0.7496375557706187  0.2499211919418656  0.1827775726101990   F   F   F
  0.5820467926301731  0.1874136002736648  0.1887331258771638   F   F   F
  0.9168211714113710  0.1874148173649246  0.1889752459503455   F   F   F
  0.5002562283243879  0.2499666396521810  0.2747941422540228   T   T   T
  0.8321670367270709  0.1873938799821270  0.2732695646021602   T   T   T
  0.6677044032206713  0.1874078158035399  0.2728746093542628   T   T   T
  0.7491250824205073  0.2497394273814692  0.3598730964892373   T   T   T
  0.5836687301043996  0.1873356075761758  0.3593403840139218   T   T   T
  0.9160335280909047  0.1872929707851978  0.3590784592168653   T   T   T
  0.9955307890212042  0.2494220294322124  0.4442915889320342   T   T   T
  0.8322083465789013  0.1871344041809797  0.4447895745220785   T   T   T
  0.6642888369408635  0.1868275963424687  0.4481330722407154   T   T   T
  0.4996265847195431  0.2499624135589542  0.1022211658925301   F   F   F
  0.8339432913754052  0.3124470264806618  0.1075580597257542   F   F   F
  0.6656786166489255  0.3124812578813660  0.1076589101753385   F   F   F
  0.7496359798815462  0.3748756411498491  0.1827578042801292   F   F   F
  0.5820751330297256  0.3124154754956550  0.1887345581865603   F   F   F
  0.9168256971425777  0.3124110138011744  0.1889624020058491   F   F   F
  0.5002921399655537  0.3749318805351952  0.2748502472585933   T   T   T
  0.8320642437984571  0.3123998432520608  0.2733069612786500   T   T   T
  0.6677147939352913  0.3124063347864149  0.2729433058087287   T   T   T
  0.7488224413425320  0.3747179746563897  0.3600294067282068   T   T   T
  0.5838608744041391  0.3123230306235227  0.3595002569374458   T   T   T
  0.9162264681557092  0.3122889286563875  0.3592297090469615   T   T   T
  0.9934418164456873  0.3747368867216417  0.4454116480392771   T   T   T
  0.8319905278063155  0.3119156309529342  0.4451541514449416   T   T   T
  0.6648285065015380  0.3122649172873900  0.4482388977964225   T   T   T
  0.4996231203952064  0.3749337364865255  0.1022171720136171   F   F   F
  0.8339311317052278  0.4374224703005467  0.1075522038351053   F   F   F
  0.6656706818776428  0.4374574332997483  0.1076540871022118   F   F   F
  0.7496383104150084  0.9999213865668750  0.1827756388646549   F   F   F
  0.5820474546648100  0.4374150382907018  0.1887310280212660   F   F   F
  0.9168210958579976  0.4374163027642837  0.1889749839040178   F   F   F
  0.0001373043425972  0.4998963436385845  0.2747924933085323   T   T   T
  0.8321572502224973  0.4373733750977776  0.2734150913060925   T   T   T
  0.6676422291010236  0.4373977314893640  0.2730490263438243   T   T   T
  0.7487806619763578  0.4999726006531857  0.3600364603808799   T   T   T
  0.5836140191865596  0.4373754128190455  0.3599370218193834   T   T   T
  0.9162336439378277  0.4373695002041632  0.3592402528532821   T   T   T
  0.9938465192965232  0.4994555022925028  0.4453026910971762   T   T   T
  0.8313999321975675  0.4373871228969860  0.4437348606317258   T   T   T
  0.6631294352235095  0.4373420851650686  0.4492346460594555   T   T   T
  0.4996261485864011  0.4999638794554073  0.1022212895025945   F   F   F
  0.8339437371848675  0.5624482785398897  0.1075580759875550   F   F   F
  0.6656689243728380  0.5624780056916450  0.1076592327669417   F   F   F
  0.7496377014008289  0.6248750966894079  0.1827574333080477   F   F   F
  0.5820735458319604  0.5624174442172745  0.1887352315057669   F   F   F
  0.9168252921289621  0.5624138005358219  0.1889639379559043   F   F   F
  0.5002286778870900  0.6248108553295846  0.2747974238992921   T   T   T
  0.8320445346992218  0.5623647248469358  0.2732976104485458   T   T   T
  0.6677064857031043  0.5623713812430481  0.2729558827290351   T   T   T
  0.7490711929942316  0.6249158096631326  0.3598768732151852   T   T   T
  0.5838197057307826  0.5624158901911229  0.3595256712098516   T   T   T
  0.9161490234822609  0.5624077329746071  0.3592035868404387   T   T   T
  0.9955749284125348  0.6248488037096720  0.4442121620257781   T   T   T
  0.8320502002977550  0.5625882437683216  0.4452786538428032   T   T   T
  0.6647104770441398  0.5623995169682497  0.4482934184675212   T   T   T
  0.4996213536236240  0.6249348955726433  0.1022183024833154   F   F   F
  0.8339388961320680  0.6874236234033475  0.1075519903559652   F   F   F
  0.6656669566206190  0.6874574838225698  0.1076541056651124   F   F   F
  0.7496375557706187  0.7499211919418656  0.1827775726101990   F   F   F
  0.5820467926301731  0.6874136002736577  0.1887331258771638   F   F   F
  0.9168211714113710  0.6874148173649175  0.1889752459503455   F   F   F
  0.5002063856465455  0.7498750209726533  0.2747495796065074   T   T   T
  0.8321351109652430  0.6873623673054601  0.2732541747401145   T   T   T
  0.6676967126629630  0.6873645182310399  0.2728771760814703   T   T   T
  0.7492776506117979  0.7500004432210380  0.3596950300510600   T   T   T
  0.5836747281139156  0.6874216906373163  0.3593687871293888   T   T   T
  0.9159990564155870  0.6873901986515991  0.3589891722751159   T   T   T
  0.9959231737957717  0.7494085016585501  0.4440887532330131   T   T   T
  0.8320422316794280  0.6872131924019524  0.4446704988548579   T   T   T
  0.6642528982335867  0.6879439175846288  0.4481689884557638   T   T   T
  0.4996265847195431  0.7499624135589542  0.1022211658925301   F   F   F
  0.8339432913754052  0.8124470264806618  0.1075580597257542   F   F   F
  0.6656786166489255  0.8124812578813660  0.1076589101753385   F   F   F
  0.7496359798815462  0.8748756411498491  0.1827578042801292   F   F   F
  0.5820751330297256  0.8124154754956550  0.1887345581865603   F   F   F
  0.9168256971425777  0.8124110138011744  0.1889624020058491   F   F   F
  0.5001625737253140  0.8749007231315282  0.2747347196612970   T   T   T
  0.8321035810417708  0.8123694334131271  0.2732084639011663   T   T   T
  0.6677540564772535  0.8123823927427710  0.2728230270282812   T   T   T
  0.7493846981108331  0.8748330018088495  0.3596854449221315   T   T   T
  0.5837086537034778  0.8124703028988204  0.3590313196299624   T   T   T
  0.9160514071189235  0.8124016941386195  0.3591202981916677   T   T   T
  0.9954657338363777  0.8747721911621114  0.4440306917633223   T   T   T
  0.8325609278635577  0.8122702741509455  0.4453702832953971   T   T   T
  0.6653892100842080  0.8126682909700849  0.4469959678885082   T   T   T
  0.4996231203952064  0.8749337364865255  0.1022171720136171   F   F   F
  0.8339311317052278  0.9374224703005396  0.1075522038351053   F   F   F
  0.6656706818776428  0.9374574332997412  0.1076540871022118   F   F   F
  0.7496383104150084  0.4999213865668750  0.1827756388646549   F   F   F
  0.5820474546648100  0.9374150382906947  0.1887310280212660   F   F   F
  0.9168210958579976  0.9374163027642766  0.1889749839040178   F   F   F
  0.0001534808858232 -0.0001192244346487  0.2747559628384736   T   T   T
  0.8321358363082734  0.9373832480450464  0.2732186631391727   T   T   T
  0.6677219093261882  0.9373827749875843  0.2728074654933639   T   T   T
  0.7494018330281431 -0.0001162111031082  0.3596806215261970   T   T   T
  0.5835303936998720  0.9374274441294701  0.3592053853104927   T   T   T
  0.9159343169942366  0.9373553665767580  0.3589964651122432   T   T   T
  0.9956011160345906  0.9993872050810720  0.4441021162687452   T   T   T
  0.8321103620677525  0.9372832475741729  0.4450446864609796   T   T   T
  0.6644683906639169  0.9374221889071603  0.4477341752091733   T   T   T
  0.4054220745019208  0.9999222115495812  0.1371706404740110   F   F   F
  0.2498130538845231  0.9999469596221715  0.1043552466225179   F   F   F
  0.0938777968594522  0.9999465964224399  0.1371098030237761   F   F   F
  0.1543635830516692  0.1248899271375592  0.2204647086472562   F   F   F
  0.9995670073461937  0.1248966516782701  0.2080976692853085   F   F   F
  0.3446973568903360  0.1248674306196307  0.2206598414842134   F   F   F
  0.4003992274483951  0.1248642476558657  0.3066805196033978   T   T   T
  0.2495539845861050  0.1249473373093446  0.2918306055714890   T   T   T
  0.0994416952961256  0.1249816080800759  0.3070763060647989   T   T   T
  0.1518190666740302  0.1250979549187996  0.3933712569554096   T   T   T
  0.4995275718553705  0.1247763309792866  0.3757926455368611   T   T   T
  0.3474984530779682  0.1244956954905808  0.3921552015832649   T   T   T
  0.3991936102911587  0.1255750844246483  0.4781351937921776   T   T   T
  0.2501552923172845  0.1250703900430866  0.4635209966847107   T   T   T
  0.0949237046994786  0.1245736171886908  0.4723257549387567   T   T   T
  0.4054214644049878  0.1249282036816339  0.1371697875501496   F   F   F
  0.2498118312390858  0.1249501818115135  0.1042602234590362   F   F   F
  0.0938664600244081  0.1249385922007349  0.1371069089706722   F   F   F
  0.1543560911150905  0.2498790211591952  0.2204709660202369   F   F   F
  0.9995706735895027  0.2499094862395950  0.2080999580462830   F   F   F
  0.3447055266517580  0.2498932390428195  0.2206623926809286   F   F   F
  0.4004833271218589  0.2500261496243571  0.3067781806029902   T   T   T
  0.2495648619522848  0.2499680744262078  0.2919346345933105   T   T   T
  0.0994454378958205  0.2499991150219075  0.3071797921364558   T   T   T
  0.1517615604318258  0.2500737131599245  0.3937945613566081   T   T   T
  0.4996320571739508  0.2497215295091205  0.3761733687171049   T   T   T
  0.3474458988134356  0.2503001353280173  0.3923286458707398   T   T   T
  0.4004879870456108  0.2465605002943473  0.4779730645121680   T   T   T
  0.2505575520480753  0.2496242393156903  0.4635980431722487   T   T   T
  0.0948029166800642  0.2512719901193469  0.4732928429778143   T   T   T
  0.4054229972694188  0.2499207711709062  0.1371716336629376   F   F   F
  0.2498138581555835  0.2499451823925298  0.1043557657097551   F   F   F
  0.0938776901322669  0.2499459403779412  0.1371098843944125   F   F   F
  0.1543617400249389  0.3748920346981564  0.2204674382050342   F   F   F
  0.9995672189247742  0.3748993922795947  0.2080981530608312   F   F   F
  0.3446956533108718  0.3748674624887514  0.2206599019871973   F   F   F
  0.4005663508272584  0.3749709677469831  0.3069887815322133   T   T   T
  0.2495898771278401  0.3749632177211450  0.2920323183788038   T   T   T
  0.0992965202136808  0.3749887105853992  0.3073046989588935   T   T   T
  0.1519673526966539  0.3750881315984400  0.3937631723546469   T   T   T
  0.4997172673688806  0.3747153928078279  0.3766062543498269   T   T   T
  0.3473437913813434  0.3748207350473453  0.3928058553495923   T   T   T
  0.4024077035128185  0.3730969162808647  0.4777253255228534   T   T   T
  0.2510036128138631  0.3752902007415495  0.4643854742485307   T   T   T
  0.0944531733641696  0.3743692360734962  0.4722283876059507   T   T   T
  0.4054204481464510  0.3749288137657416  0.1371674470345781   F   F   F
  0.2498106243523637  0.3749504007233213  0.1042578114000037   F   F   F
  0.0938682935435935  0.3749385903486697  0.1371059653233644   F   F   F
  0.1543531827738107  0.9998787448957458  0.2204712064644667   F   F   F
  0.9995677263797802  0.9999081653989563  0.2081008624749074   F   F   F
  0.3447067510723798  0.9998918897834912  0.2206650007889195   F   F   F
  0.4005451490707195  0.4998148471803167  0.3070223103703301   T   T   T
  0.2496148482797605  0.4998788056645720  0.2920499014581006   T   T   T
  0.0993237098008660  0.4998789113918223  0.3072850494752838   T   T   T
  0.1519815907331407  0.5000079688216628  0.3937535472533762   T   T   T
  0.4996789568596585  0.4999855864476156  0.3766473521564329   T   T   T
  0.3475504308472490  0.0001808703339397  0.3924437766784823   T   T   T
  0.4021407667530290  0.5007166248628770  0.4778955203158312   T   T   T
  0.2509542704977603  0.4997738176379817  0.4641234078239089   T   T   T
  0.0948135966223242  0.0008959879212203  0.4725955159337583   T   T   T
  0.4054220745019208  0.4999222115495883  0.1371706404740110   F   F   F
  0.2498130538845231  0.4999469596221715  0.1043552466225179   F   F   F
  0.0938777968594522  0.4999465964224399  0.1371098030237761   F   F   F
  0.1543635830516692  0.6248899271375592  0.2204647086472562   F   F   F
  0.9995670073461937  0.6248966516782701  0.2080976692853085   F   F   F
  0.3446973568903360  0.6248674306196307  0.2206598414842134   F   F   F
  0.4004675800794605  0.6247491783155369  0.3068147162167000   T   T   T
  0.2495955371904615  0.6248629420741432  0.2919821788744193   T   T   T
  0.0994795639587324  0.6248599476347018  0.3071593878218933   T   T   T
  0.1517999293176225  0.6250584867833824  0.3937695120921745   T   T   T
  0.4996138762009084  0.6250010247196959  0.3761231558324015   T   T   T
  0.3474723942385400  0.6245774856150139  0.3924338192562563   T   T   T
  0.4009146450417734  0.6281287741037386  0.4780123407457788   T   T   T
  0.2507232345403289  0.6255488801769558  0.4638458942305749   T   T   T
  0.0948966578564164  0.6241947048144606  0.4729312695296465   T   T   T
  0.4054214644049878  0.6249282036816339  0.1371697875501496   F   F   F
  0.2498118312390858  0.6249501818115135  0.1042602234590362   F   F   F
  0.0938664600244081  0.6249385922007349  0.1371069089706722   F   F   F
  0.1543560911150905  0.7498790211591952  0.2204709660202369   F   F   F
  0.9995706735895027  0.7499094862395950  0.2080999580462830   F   F   F
  0.3447055266517580  0.7498932390428195  0.2206623926809286   F   F   F
  0.4004275032576495  0.7499155763485384  0.3067026799345808   T   T   T
  0.2495630432548788  0.7498861494551893  0.2919645206050078   T   T   T
  0.0995163166850908  0.7498835755655602  0.3071186797453472   T   T   T
  0.1516220060758793  0.7499690531853629  0.3937607318236697   T   T   T
  0.4995769683375214  0.7499869311367404  0.3758126374578359   T   T   T
  0.3474695486013311  0.7502868948555848  0.3922755712136516   T   T   T
  0.3995857735914025  0.7490561194881022  0.4780745346637991   T   T   T
  0.2504129592585130  0.7499051723217247  0.4633375835688084   T   T   T
  0.0945029015686613  0.7512757208717981  0.4734419695424077   T   T   T
  0.4054229972694188  0.7499207711709062  0.1371716336629376   F   F   F
  0.2498138581555835  0.7499451823925369  0.1043557657097551   F   F   F
  0.0938776901322669  0.7499459403779412  0.1371098843944125   F   F   F
  0.1543617400249389  0.8748920346981564  0.2204674382050342   F   F   F
  0.9995672189247742  0.8748993922795947  0.2080981530608312   F   F   F
  0.3446956533108718  0.8748674624887514  0.2206599019871973   F   F   F
  0.4004180098368390  0.8749084555368637  0.3067398964754969   T   T   T
  0.2495742556695367  0.8749028309330081  0.2919441908938457   T   T   T
  0.0994834978194671  0.8748985113777763  0.3070574784818094   T   T   T
  0.1516744922785175  0.8750846068152310  0.3936544047651634   T   T   T
  0.4996046172464751  0.8749998233744078  0.3761188380975143   T   T   T
  0.3476358596532157  0.8747374419914825  0.3923534025781223   T   T   T