Ta  N Cu                                
   1.00000000000000     
    18.1096308199999996    0.0000000000000000    0.0000000000000000
     0.0000000000000000   11.6775998899999998    0.0000000000000000
     0.0000000000000000    0.0000000000000000   23.4818170799999990
   Ta   N    Cu
   120   120     1
Direct
  0.9999897038135083  0.0000474042940627  0.2546912558240235
  0.3335426473506176  0.1249900976310835  0.2637123365426371
  0.1664711713017608  0.1249910818236466  0.2637119696336585
  0.2500035397604846  0.2499995643547793  0.3612781363006788
  0.0824761915942592  0.1250080818921154  0.3683124811418504
  0.4175280555143936  0.1250075184907195  0.3683142239916089
  0.0000940594385281  0.2500000504319242  0.4798349163189177
  0.3324091181747552  0.1249761382030006  0.4779493281684034
  0.1675962777952320  0.1249807349516726  0.4779475724076890
  0.2500053350188262  0.2499999633961816  0.5903441286654281
  0.0838922662230075  0.1250017214862926  0.5898891533904785
  0.4161214823197988  0.1249943748878743  0.5898879061352409
  0.9995254206428023  0.2500000832170461  0.7023349503346139
  0.3371794239939288  0.1224611355985124  0.7038531765686813
  0.1627470117287990  0.1224905099992875  0.7038919502271491
  0.0000003194431607  0.2500000423888992  0.2546946256440641
  0.3335425767453842  0.3750097795027105  0.2637124078982111
  0.1664711857834302  0.3750087792462141  0.2637120384959523
  0.2500042017069823  0.4999773443259455  0.3612881761971302
  0.0824762031452188  0.3749919176589011  0.3683124788324204
  0.4175280228743684  0.3749924884626132  0.3683142445249513
  0.9999711080008726  0.4999569418483094  0.4797770027339921
  0.3324091419296404  0.3750238131193536  0.4779492875484005
  0.1675962563033389  0.3750192156709116  0.4779475264003009
  0.2500018220129693  0.4999663744975694  0.5906094940091297
  0.0838923078640152  0.3749983389443908  0.5898892387122867
  0.4161214349650580  0.3750056948928106  0.5898880000909030
  0.9991734854761399  0.5001600128150786  0.7020078464365259
  0.3371791848414733  0.3775395926801847  0.7038536319416324
  0.1627472528599854  0.3775103042895255  0.7038923627169852
  0.9999897734433396  0.4999526399674051  0.2546912620906801
  0.3334738525076403  0.6249726232303537  0.2637449975726265
  0.1665356047498452  0.6249726759381640  0.2637424950639602
  0.2500054892082275  0.7499998535966619  0.3613070603138409
  0.0825036418892550  0.6249919901197032  0.3682976190426198
  0.4175035782240002  0.6249915947223318  0.3683004926454347
  0.9999402203486727  0.7500000043843488  0.4797425396207092
  0.3323739624208396  0.6249856515709210  0.4779753677404212
  0.1676285255182735  0.6249856999214821  0.4779755884174202
  0.2500053215702996  0.7500000858118538  0.5905619232026998
  0.0836129771408852  0.6250238934517690  0.5896540187999604
  0.4163966241632054  0.6250252854204559  0.5896542680603205
  0.9997673645855732  0.7500000402955079  0.7021750021764621
  0.3351088612259445  0.6257566348984230  0.7038888471464972
  0.1648954105199774  0.6257610006467030  0.7038870937672337
  0.0000023089046763  0.7500000033259048  0.2546916363050302
  0.3334738773122269  0.8750273953044491  0.2637450045915612
  0.1665356008466942  0.8750273027711452  0.2637424813434808
  0.2500041884665904  0.0000222744938959  0.3612882710400469
  0.0825036128330506  0.8750080651022351  0.3682976243122246
  0.4175035939323083  0.8750084350192134  0.3683004842818738
  0.9999710846313608  0.0000430681032808  0.4797769944844125
  0.3323739414339179  0.8750143071694644  0.4779753581775490
  0.1676285445557160  0.8750142853021251  0.4779755832781767
  0.2500018289715296  0.0000335482441516  0.5906095239839346
  0.0836129339122151  0.8749760987268590  0.5896539858009184
  0.4163966731018655  0.8749746917433683  0.5896542332721469
  0.9991734292106413  0.9998400482302311  0.7020078723305114
  0.3351092147558390  0.8742435015492027  0.7038887881353050
  0.1648950852685997  0.8742392528271380  0.7038870284553271
  0.5000172831941039  0.0000484976670192  0.2546907195378341
  0.8334826475184699  0.1250338108931261  0.2637409417317075
  0.6665225163630489  0.1250325039962480  0.2637405194594285
  0.7499988148633531  0.2500000350459790  0.3614027965903709
  0.5825703494608038  0.1250099975674489  0.3683539546523996
  0.9174349511352287  0.1250097258742212  0.3683536562287364
  0.4999132298493153  0.2500000557372940  0.4798356026779787
  0.8323852987188550  0.1250051811157385  0.4780853330011824
  0.6676212990559224  0.1250073622618156  0.4780874236588926
  0.7500017994083452  0.2500000176570413  0.5907844750965271
  0.5835088031147111  0.1250289910729248  0.5898769447777212
  0.9164979049324324  0.1250286443452648  0.5898775723839241
  0.5004044343858360  0.2500000520378609  0.7023533282984573
  0.8349035466750612  0.1249589704601527  0.7041753726862187
  0.6650784951275961  0.1249641496812481  0.7041698503063262
  0.5000067243843251  0.2499999755171916  0.2546940990993045
  0.8334826476537371  0.3749662318080876  0.2637409366935474
  0.6665225160546360  0.3749674613616376  0.2637405051262918
  0.7500004541202361  0.4999704222602768  0.3613946913599783
  0.5825703487314163  0.3749900535276956  0.3683539628762910
  0.9174349574577091  0.3749903196295843  0.3683536742598561
  0.5000368042941020  0.4999595806038930  0.4797769790420077
  0.8323853151457757  0.3749948801743797  0.4780853225891906
  0.6676212856535924  0.3749926743480546  0.4780874062045105
  0.7500021722918443  0.4999206768241533  0.5907772353980500
  0.5835087894621002  0.3749710397931994  0.5898769366959640
  0.9164979046446167  0.3749714030584030  0.5898775588423187
  0.5008070124941019  0.5001510983970309  0.7020083937050117
  0.8349035502119102  0.3750410997725304  0.7041753541962725
  0.6650784827849653  0.3750358789499441  0.7041698135092663
  0.5000172649339764  0.4999515337818065  0.2546906766744885
  0.8334177987635037  0.6249792358855079  0.2637671021794867
  0.6665846627578979  0.6249823868551728  0.2637669480148299
  0.7500014596661844  0.7500000179689165  0.3613958511934842
  0.5825684959447206  0.6249989854956245  0.3683412096703282
  0.9174361061774005  0.6249989061520085  0.3683408502763833
  0.5000692605093898  0.7500000043469748  0.4797428707090904
  0.8323757072076964  0.6249917830517063  0.4780862793377250
  0.6676161376001117  0.6249917035562523  0.4780832970003293
  0.7500032958417991  0.7500000156299497  0.5907875603922433
  0.5836591220401487  0.6250207362069393  0.5897978484832634
  0.9163482687974358  0.6250217419773033  0.5898012834658555
  0.5002296221773089  0.7500000229139683  0.7021727287942751
  0.8350614179656601  0.6251165101863289  0.7041898743193397
  0.6649368489285757  0.6251104327120589  0.7041900027562235
  0.5000042865055240  0.7500000178957997  0.2546911823916735
  0.8334178099065680  0.8750207741580028  0.2637671137236720
  0.6665846351300340  0.8750176813011231  0.2637669696880081
  0.7500004483612904  0.0000296576488213  0.3613946948689303
  0.5825684809407150  0.8750009992059117  0.3683412238870415
  0.9174361017084652  0.8750011392557823  0.3683408500350868
  0.5000368227626051  0.0000404341343500  0.4797769627882746
  0.8323757097527041  0.8750082669901739  0.4780862878459165
  0.6676161179003093  0.8750083561350317  0.4780832875311870
  0.7500021647386443  0.0000793646050582  0.5907772395556800
  0.5836591305706885  0.8749792719407862  0.5897978488422295
  0.9163482807041473  0.8749782629558758  0.5898012951012869
  0.5008071115304583  0.9998489314077074  0.7020083914562592
  0.8350614088280468  0.8748835533533015  0.7041898628712928
  0.6649368307230558  0.8748895983036086  0.7041900188454465
  0.4068980986241068  0.0000289567176420  0.3011008516929854
  0.2500049622153070  0.0000431298055765  0.2576708457626986
  0.0931109604283229  0.0000297571143535  0.3010980753221876
  0.1543802280266866  0.2499998386965344  0.4097739155545780
  0.9999818747954603  0.2500000241506097  0.3931137152486078
  0.3456310196116874  0.2499998410857321  0.4097780868953867
  0.4007450291992664  0.2500000288204083  0.5219875125065374
  0.2500027988058607  0.2500000406016325  0.5024036419855441
  0.0992639739048954  0.2500000335838503  0.5219839412987602
  0.1522966992877028  0.2500002030442032  0.6336870156909064
  0.0001502383824882  0.2500000043553114  0.6134324588110300
  0.3477120174543030  0.2500001890017511  0.6336926897376841
  0.4031108651303381  0.2500005122376145  0.7409271957182090
  0.2499482270021488  0.2500001966024686  0.7266155686355754
  0.0968087361540013  0.2500005071916337  0.7408652767708097
  0.4068890261624230  0.2500000483504386  0.3010946959840110
  0.2500063889860523  0.2499999087277898  0.2577862409397101
  0.0931211301698421  0.2499999912000489  0.3010912554747177
  0.1543931498432496  0.5000241872812288  0.4097924619578715
  0.9999751971278245  0.5000077468617378  0.3930722689569098
  0.3456134202840908  0.5000236527164362  0.4097948182159831
  0.4009455703252507  0.4999419485553003  0.5219210486291621
  0.2500023905400131  0.4999940504169890  0.5026056657611087
  0.0990626474982325  0.4999419809253432  0.5219209993234118
  0.1517664294912427  0.5005254443702075  0.6330693146346874
  0.0000069120198611  0.4999980513993434  0.6132386043252508
  0.3482413521589563  0.5005334695328423  0.6330611976740901
  0.4034854944090576  0.5005675819035554  0.7401766618039842
  0.2499981398157628  0.4991553735752620  0.7241101926788354
  0.0964991460004078  0.5005955886867954  0.7401787732468600
  0.4068981104954161  0.4999710665116508  0.3011008716439650
  0.2500049542088144  0.4999567896248603  0.2576709322669726
  0.0931109693905583  0.4999702973933269  0.3010981291809688
  0.1544026947945903  0.7499999919743380  0.4097998018762118
  0.9999846105123976  0.7500000201339938  0.3930513790138274
  0.3456050539352255  0.7499999827032661  0.4098029120594700
  0.4009710470338656  0.7499999719135053  0.5218736938847703
  0.2500028832896881  0.7499999944358008  0.5025731753162659
  0.0990372148615430  0.7499999973487813  0.5218728819576069
  0.1517510530781360  0.7500000541156890  0.6330530898062129
  0.0000122286732012  0.7499999798870919  0.6132906938287678
  0.3482607245738348  0.7500000433226635  0.6330525429460090
  0.4031046498105343  0.7500000375089423  0.7402877630734881
  0.2500027615582389  0.7500004417631303  0.7238781665346012
  0.0968982005936501  0.7500000747611330  0.7402829445213900
  0.4068899475701581  0.7499999750785659  0.3010915515965208
  0.2500041053064930  0.7500000135697906  0.2576557669691503
  0.0931185358340018  0.7500000251404553  0.3010892823868057
  0.1543930376504579  0.9999757037085161  0.4097924872883111
  0.9999751651425521  0.9999923054273144  0.3930722695782208
  0.3456135109455118  0.9999762167088635  0.4097948264637617
  0.4009455984220377  0.0000580299649096  0.5219210192008741
  0.2500023919174125  0.0000059265347897  0.5026056653913650
  0.0990626241448275  0.0000580095709850  0.5219209692171221
  0.1517663087918404  0.9994744278565741  0.6330692194516142
  0.0000068735081648  0.0000019724555073  0.6132386087691145
  0.3482414941536642  0.9994663734230030  0.6330611035448790
  0.4034856870028318  0.9994326537300047  0.7401766591738088
  0.2499981685531912  0.0008454130308406  0.7241100038610950
  0.0964989969514044  0.9994046821895216  0.7401787885188944
  0.9068741750449802  0.0000177709673126  0.3011104096668323
  0.7500029307892240  0.0000430816970465  0.2575845633323783
  0.5931311014958544  0.0000178264761914  0.3011112412451014
  0.6544119066569813  0.2500000387755261  0.4098886176714786
  0.5000245045948564  0.2500000181232352  0.3931144677447230
  0.8455882459417486  0.2500000344400878  0.4098859233491005
  0.9010051266862451  0.2500000267744160  0.5220128397619260
  0.7500035331502481  0.2500000472884567  0.5027460061503717
  0.5989982385726204  0.2500000113446313  0.5220154137869130
  0.6516601142207521  0.2500000170967621  0.6331840208869339
  0.4998562060945862  0.2500000170733890  0.6134422191694877
  0.8483430092065598  0.2500000187790852  0.6331858344012734
  0.9030317985635810  0.2500000374917005  0.7404507602078287
  0.7499917183689024  0.2500000286392572  0.7238357562077379
  0.5969140416573504  0.2500000385551643  0.7404230633885609
  0.9068770454167749  0.2500000329544596  0.3011253977097054
  0.7500020491778199  0.2500000047529033  0.2576312848917797
  0.5931287288851669  0.2500000262419569  0.3011263419388144
  0.6544264595437701  0.5000106679458634  0.4098806378379732
  0.5000311562793192  0.5000087134738274  0.3930735855568224
  0.8455756415833450  0.5000123793981631  0.4098788785324410
  0.9009340083256917  0.4999213104056448  0.5219973478025365
  0.7500033561775974  0.4999634313164681  0.5027437291055866
  0.5990737863448697  0.4999209049074537  0.5219973885940780
  0.6516924176708251  0.4999053416516384  0.6331687529006839
  0.5000016246941024  0.4999983563989329  0.6132385615954532
  0.8483100971047416  0.4999033001630248  0.6331693373163271
  0.9028825176957753  0.4998981147599215  0.7405079582493209
  0.7499985057477038  0.5000423393164118  0.7237855824370760
  0.5971093879188110  0.4998925054764297  0.7405025208982120
  0.9068741970561061  0.4999822672766734  0.3011104056820732
  0.7500029044878034  0.4999569353845152  0.2575846105533401
  0.5931310858791533  0.4999821575655388  0.3011112203560695
  0.6544287264237327  0.7500000371960053  0.4098807273494929
  0.5000215478820181  0.7499999852654232  0.3930518321837151
  0.8455752632892972  0.7500000256680086  0.4098804944598013
  0.9009150565327640  0.7500000160544616  0.5219894850261201
  0.7500029097557491  0.7500000339396383  0.5027494704354767
  0.5990944140332980  0.7500000118504867  0.5219884210374499
  0.6517086111240549  0.7500000019736485  0.6331756312354300
  0.4999987629841096  0.7499999753065069  0.6132889260512177
  0.8482967745121228  0.7499999960753911  0.6331770447331018
  0.9030547774257333  0.7500000044321729  0.7404443720849805
  0.7500002400220644  0.7500000088002478  0.7238008506417458
  0.5969435741307354  0.7499999872136573  0.7404384623084895
  0.9068810282816178  0.7500000162764836  0.3011102225620557
  0.7500033004502603  0.7500000074879782  0.2575214886684874
  0.5931243433780866  0.7499999936396842  0.3011108601991692
  0.6544264324855902  0.9999893685667631  0.4098806506175177
  0.5000311701971484  0.9999913275463255  0.3930735802983792
  0.8455756440508189  0.9999876524747248  0.4098788765112658
  0.9009339971228176  0.0000787451231288  0.5219973608195283
  0.7500033615405629  0.0000365730965879  0.5027437416491829
  0.5990737805833408  0.0000791468682415  0.5219973866066341
  0.6516924142543680  0.0000946974444426  0.6331687650292328
  0.5000016713645938  0.0000016622184683  0.6132385435522894
  0.8483101076134066  0.0000967238349440  0.6331693471944981
  0.9028824531405308  0.0001019528920035  0.7405080130359692
  0.7499985162392974  0.9999577081994082  0.7237855623914048
  0.5971094643773354  0.0001075654185031  0.7405025791402642
  0.2515925676622042  0.2499540084571167  0.8051729398850975
 
  0.00000000E+00  0.00000000E+00  0.00000000E+00
  0.00000000E+00  0.00000000E+00  0.00000000E+00
  0.00000000E+00  0.00000000E+00  0.00000000E+00
  0.00000000E+00  0.00000000E+00  0.00000000E+00
  0.00000000E+00  0.00000000E+00  0.00000000E+00
  0.00000000E+00  0.00000000E+00  0.00000000E+00
  0.00000000E+00  0.00000000E+00  0.00000000E+00
  0.00000000E+00  0.00000000E+00  0.00000000E+00
  0.00000000E+00  0.00000000E+00  0.00000000E+00
  0.00000000E+00  0.00000000E+00  0.00000000E+00
  0.00000000E+00  0.00000000E+00  0.00000000E+00
  0.00000000E+00  0.00000000E+00  0.00000000E+00
  0.00000000E+00  0.00000000E+00  0.00000000E+00
  0.00000000E+00  0.00000000E+00  0.00000000E+00
  0.00000000E+00  0.00000000E+00  0.00000000E+00
  0.00000000E+00  0.00000000E+00  0.00000000E+00
  0.00000000E+00  0.00000000E+00  0.00000000E+00
  0.00000000E+00  0.00000000E+00  0.00000000E+00
  0.00000000E+00  0.00000000E+00  0.00000000E+00
  0.00000000E+00  0.00000000E+00  0.00000000E+00
  0.00000000E+00  0.00000000E+00  0.00000000E+00
  0.00000000E+00  0.00000000E+00  0.00000000E+00
  0.00000000E+00  0.00000000E+00  0.00000000E+00
  0.00000000E+00  0.00000000E+00  0.00000000E+00
  0.00000000E+00  0.00000000E+00  0.00000000E+00
  0.00000000E+00  0.00000000E+00  0.00000000E+00
  0.00000000E+00  0.00000000E+00  0.00000000E+00
  0.00000000E+00  0.00000000E+00  0.00000000E+00
  0.00000000E+00  0.00000000E+00  0.00000000E+00
  0.00000000E+00  0.00000000E+00  0.00000000E+00
  0.00000000E+00  0.00000000E+00  0.00000000E+00
  0.00000000E+00  0.00000000E+00  0.00000000E+00
  0.00000000E+00  0.00000000E+00  0.00000000E+00
  0.00000000E+00  0.00000000E+00  0.00000000E+00
  0.00000000E+00  0.00000000E+00  0.00000000E+00
  0.00000000E+00  0.00000000E+00  0.00000000E+00
  0.00000000E+00  0.00000000E+00  0.00000000E+00
  0.00000000E+00  0.00000000E+00  0.00000000E+00
  0.00000000E+00  0.00000000E+00  0.00000000E+00
  0.00000000E+00  0.00000000E+00  0.00000000E+00
  0.00000000E+00  0.00000000E+00  0.00000000E+00
  0.00000000E+00  0.00000000E+00  0.00000000E+00
  0.00000000E+00  0.00000000E+00  0.00000000E+00
  0.00000000E+00  0.00000000E+00  0.00000000E+00
  0.00000000E+00  0.00000000E+00  0.00000000E+00
  0.00000000E+00  0.00000000E+00  0.00000000E+00
  0.00000000E+00  0.00000000E+00  0.00000000E+00
  0.00000000E+00  0.00000000E+00  0.00000000E+00
  0.00000000E+00  0.00000000E+00  0.00000000E+00
  0.00000000E+00  0.00000000E+00  0.00000000E+00
  0.00000000E+00  0.00000000E+00  0.00000000E+00
  0.00000000E+00  0.00000000E+00  0.00000000E+00
  0.00000000E+00  0.00000000E+00  0.00000000E+00
  0.00000000E+00  0.00000000E+00  0.00000000E+00
  0.00000000E+00  0.00000000E+00  0.00000000E+00
  0.00000000E+00  0.00000000E+00  0.00000000E+00
  0.00000000E+00  0.00000000E+00  0.00000000E+00
  0.00000000E+00  0.00000000E+00  0.00000000E+00
  0.00000000E+00  0.00000000E+00  0.00000000E+00
  0.00000000E+00  0.00000000E+00  0.00000000E+00
  0.00000000E+00  0.00000000E+00  0.00000000E+00
  0.00000000E+00  0.00000000E+00  0.00000000E+00
  0.00000000E+00  0.00000000E+00  0.00000000E+00
  0.00000000E+00  0.00000000E+00  0.00000000E+00
  0.00000000E+00  0.00000000E+00  0.00000000E+00
  0.00000000E+00  0.00000000E+00  0.00000000E+00
  0.00000000E+00  0.00000000E+00  0.00000000E+00
  0.00000000E+00  0.00000000E+00  0.00000000E+00
  0.00000000E+00  0.00000000E+00  0.00000000E+00
  0.00000000E+00  0.00000000E+00  0.00000000E+00
  0.00000000E+00  0.00000000E+00  0.00000000E+00
  0.00000000E+00  0.00000000E+00  0.00000000E+00
  0.00000000E+00  0.00000000E+00  0.00000000E+00
  0.00000000E+00  0.00000000E+00  0.00000000E+00
  0.00000000E+00  0.00000000E+00  0.00000000E+00
  0.00000000E+00  0.00000000E+00  0.00000000E+00
  0.00000000E+00  0.00000000E+00  0.00000000E+00
  0.00000000E+00  0.00000000E+00  0.00000000E+00
  0.00000000E+00  0.00000000E+00  0.00000000E+00
  0.00000000E+00  0.00000000E+00  0.00000000E+00
  0.00000000E+00  0.00000000E+00  0.00000000E+00
  0.00000000E+00  0.00000000E+00  0.00000000E+00
  0.00000000E+00  0.00000000E+00  0.00000000E+00
  0.00000000E+00  0.00000000E+00  0.00000000E+00
  0.00000000E+00  0.00000000E+00  0.00000000E+00
  0.00000000E+00  0.00000000E+00  0.00000000E+00
  0.00000000E+00  0.00000000E+00  0.00000000E+00
  0.00000000E+00  0.00000000E+00  0.00000000E+00
  0.00000000E+00  0.00000000E+00  0.00000000E+00
  0.00000000E+00  0.00000000E+00  0.00000000E+00
  0.00000000E+00  0.00000000E+00  0.00000000E+00
  0.00000000E+00  0.00000000E+00  0.00000000E+00
  0.00000000E+00  0.00000000E+00  0.00000000E+00
  0.00000000E+00  0.00000000E+00  0.00000000E+00
  0.00000000E+00  0.00000000E+00  0.00000000E+00
  0.00000000E+00  0.00000000E+00  0.00000000E+00
  0.00000000E+00  0.00000000E+00  0.00000000E+00
  0.00000000E+00  0.00000000E+00  0.00000000E+00
  0.00000000E+00  0.00000000E+00  0.00000000E+00
  0.00000000E+00  0.00000000E+00  0.00000000E+00
  0.00000000E+00  0.00000000E+00  0.00000000E+00
  0.00000000E+00  0.00000000E+00  0.00000000E+00
  0.00000000E+00  0.00000000E+00  0.00000000E+00
  0.00000000E+00  0.00000000E+00  0.00000000E+00
  0.00000000E+00  0.00000000E+00  0.00000000E+00
  0.00000000E+00  0.00000000E+00  0.00000000E+00
  0.00000000E+00  0.00000000E+00  0.00000000E+00
  0.00000000E+00  0.00000000E+00  0.00000000E+00
  0.00000000E+00  0.00000000E+00  0.00000000E+00
  0.00000000E+00  0.00000000E+00  0.00000000E+00
  0.00000000E+00  0.00000000E+00  0.00000000E+00
  0.00000000E+00  0.00000000E+00  0.00000000E+00
  0.00000000E+00  0.00000000E+00  0.00000000E+00
  0.00000000E+00  0.00000000E+00  0.00000000E+00
  0.00000000E+00  0.00000000E+00  0.00000000E+00
  0.00000000E+00  0.00000000E+00  0.00000000E+00
  0.00000000E+00  0.00000000E+00  0.00000000E+00
  0.00000000E+00  0.00000000E+00  0.00000000E+00
  0.00000000E+00  0.00000000E+00  0.00000000E+00
  0.00000000E+00  0.00000000E+00  0.00000000E+00
  0.00000000E+00  0.00000000E+00  0.00000000E+00
  0.00000000E+00  0.00000000E+00  0.00000000E+00
  0.00000000E+00  0.00000000E+00  0.00000000E+00
  0.00000000E+00  0.00000000E+00  0.00000000E+00
  0.00000000E+00  0.00000000E+00  0.00000000E+00
  0.00000000E+00  0.00000000E+00  0.00000000E+00
  0.00000000E+00  0.00000000E+00  0.00000000E+00
  0.00000000E+00  0.00000000E+00  0.00000000E+00
  0.00000000E+00  0.00000000E+00  0.00000000E+00
  0.00000000E+00  0.00000000E+00  0.00000000E+00
  0.00000000E+00  0.00000000E+00  0.00000000E+00
  0.00000000E+00  0.00000000E+00  0.00000000E+00
  0.00000000E+00  0.00000000E+00  0.00000000E+00
  0.00000000E+00  0.00000000E+00  0.00000000E+00
  0.00000000E+00  0.00000000E+00  0.00000000E+00
  0.00000000E+00  0.00000000E+00  0.00000000E+00
  0.00000000E+00  0.00000000E+00  0.00000000E+00
  0.00000000E+00  0.00000000E+00  0.00000000E+00
  0.00000000E+00  0.00000000E+00  0.00000000E+00
  0.00000000E+00  0.00000000E+00  0.00000000E+00
  0.00000000E+00  0.00000000E+00  0.00000000E+00
  0.00000000E+00  0.00000000E+00  0.00000000E+00
  0.00000000E+00  0.00000000E+00  0.00000000E+00
  0.00000000E+00  0.00000000E+00  0.00000000E+00
  0.00000000E+00  0.00000000E+00  0.00000000E+00
  0.00000000E+00  0.00000000E+00  0.00000000E+00
  0.00000000E+00  0.00000000E+00  0.00000000E+00
  0.00000000E+00  0.00000000E+00  0.00000000E+00
  0.00000000E+00  0.00000000E+00  0.00000000E+00
  0.00000000E+00  0.00000000E+00  0.00000000E+00
  0.00000000E+00  0.00000000E+00  0.00000000E+00
  0.00000000E+00  0.00000000E+00  0.00000000E+00
  0.00000000E+00  0.00000000E+00  0.00000000E+00
  0.00000000E+00  0.00000000E+00  0.00000000E+00
  0.00000000E+00  0.00000000E+00  0.00000000E+00
  0.00000000E+00  0.00000000E+00  0.00000000E+00
  0.00000000E+00  0.00000000E+00  0.00000000E+00
  0.00000000E+00  0.00000000E+00  0.00000000E+00
  0.00000000E+00  0.00000000E+00  0.00000000E+00
  0.00000000E+00  0.00000000E+00  0.00000000E+00
  0.00000000E+00  0.00000000E+00  0.00000000E+00
  0.00000000E+00  0.00000000E+00  0.00000000E+00
  0.00000000E+00  0.00000000E+00  0.00000000E+00
  0.00000000E+00  0.00000000E+00  0.00000000E+00
  0.00000000E+00  0.00000000E+00  0.00000000E+00
  0.00000000E+00  0.00000000E+00  0.00000000E+00
  0.00000000E+00  0.00000000E+00  0.00000000E+00
  0.00000000E+00  0.00000000E+00  0.00000000E+00
  0.00000000E+00  0.00000000E+00  0.00000000E+00
  0.00000000E+00  0.00000000E+00  0.00000000E+00
  0.00000000E+00  0.00000000E+00  0.00000000E+00
  0.00000000E+00  0.00000000E+00  0.00000000E+00
  0.00000000E+00  0.00000000E+00  0.00000000E+00
  0.00000000E+00  0.00000000E+00  0.00000000E+00
  0.00000000E+00  0.00000000E+00  0.00000000E+00
  0.00000000E+00  0.00000000E+00  0.00000000E+00
  0.00000000E+00  0.00000000E+00  0.00000000E+00
  0.00000000E+00  0.00000000E+00  0.00000000E+00
  0.00000000E+00  0.00000000E+00  0.00000000E+00
  0.00000000E+00  0.00000000E+00  0.00000000E+00
  0.00000000E+00  0.00000000E+00  0.00000000E+00
  0.00000000E+00  0.00000000E+00  0.00000000E+00
  0.00000000E+00  0.00000000E+00  0.00000000E+00
  0.00000000E+00  0.00000000E+00  0.00000000E+00
  0.00000000E+00  0.00000000E+00  0.00000000E+00
  0.00000000E+00  0.00000000E+00  0.00000000E+00
  0.00000000E+00  0.00000000E+00  0.00000000E+00
  0.00000000E+00  0.00000000E+00  0.00000000E+00
  0.00000000E+00  0.00000000E+00  0.00000000E+00
  0.00000000E+00  0.00000000E+00  0.00000000E+00
  0.00000000E+00  0.00000000E+00  0.00000000E+00
  0.00000000E+00  0.00000000E+00  0.00000000E+00
  0.00000000E+00  0.00000000E+00  0.00000000E+00
  0.00000000E+00  0.00000000E+00  0.00000000E+00
  0.00000000E+00  0.00000000E+00  0.00000000E+00
  0.00000000E+00  0.00000000E+00  0.00000000E+00
  0.00000000E+00  0.00000000E+00  0.00000000E+00
  0.00000000E+00  0.00000000E+00  0.00000000E+00
  0.00000000E+00  0.00000000E+00  0.00000000E+00
  0.00000000E+00  0.00000000E+00  0.00000000E+00
  0.00000000E+00  0.00000000E+00  0.00000000E+00
  0.00000000E+00  0.00000000E+00  0.00000000E+00
  0.00000000E+00  0.00000000E+00  0.00000000E+00
  0.00000000E+00  0.00000000E+00  0.00000000E+00
  0.00000000E+00  0.00000000E+00  0.00000000E+00
  0.00000000E+00  0.00000000E+00  0.00000000E+00
  0.00000000E+00  0.00000000E+00  0.00000000E+00
  0.00000000E+00  0.00000000E+00  0.00000000E+00
  0.00000000E+00  0.00000000E+00  0.00000000E+00
  0.00000000E+00  0.00000000E+00  0.00000000E+00
  0.00000000E+00  0.00000000E+00  0.00000000E+00
  0.00000000E+00  0.00000000E+00  0.00000000E+00
  0.00000000E+00  0.00000000E+00  0.00000000E+00
  0.00000000E+00  0.00000000E+00  0.00000000E+00
  0.00000000E+00  0.00000000E+00  0.00000000E+00
  0.00000000E+00  0.00000000E+00  0.00000000E+00
  0.00000000E+00  0.00000000E+00  0.00000000E+00
  0.00000000E+00  0.00000000E+00  0.00000000E+00
  0.00000000E+00  0.00000000E+00  0.00000000E+00
  0.00000000E+00  0.00000000E+00  0.00000000E+00
  0.00000000E+00  0.00000000E+00  0.00000000E+00
  0.00000000E+00  0.00000000E+00  0.00000000E+00
  0.00000000E+00  0.00000000E+00  0.00000000E+00
  0.00000000E+00  0.00000000E+00  0.00000000E+00
  0.00000000E+00  0.00000000E+00  0.00000000E+00
  0.00000000E+00  0.00000000E+00  0.00000000E+00
  0.00000000E+00  0.00000000E+00  0.00000000E+00
  0.00000000E+00  0.00000000E+00  0.00000000E+00
  0.00000000E+00  0.00000000E+00  0.00000000E+00
  0.00000000E+00  0.00000000E+00  0.00000000E+00
  0.00000000E+00  0.00000000E+00  0.00000000E+00
  0.00000000E+00  0.00000000E+00  0.00000000E+00
  0.00000000E+00  0.00000000E+00  0.00000000E+00
  0.00000000E+00  0.00000000E+00  0.00000000E+00
  0.00000000E+00  0.00000000E+00  0.00000000E+00
  0.00000000E+00  0.00000000E+00  0.00000000E+00
  0.00000000E+00  0.00000000E+00  0.00000000E+00
  0.00000000E+00  0.00000000E+00  0.00000000E+00
  0.00000000E+00  0.00000000E+00  0.00000000E+00
  0.00000000E+00  0.00000000E+00  0.00000000E+00
  0.00000000E+00  0.00000000E+00  0.00000000E+00
