Ta  N Cu 
 1.0000000000000000
    18.1096308199999996    0.0000000000000000    0.0000000000000000
     0.0000000000000000   23.3551997799999995    0.0000000000000000
     0.0000000000000000    0.0000000000000000   30.4818170799999990
 240 240  29
Selective dynamics
Cartesian
 18.0507460000000002 23.3372859999999989  5.9429049999999997   F   F   F
  5.9378320000000002  1.3577950000000001  6.1378100000000000   F   F   F
  3.0529600000000001  1.3567300000000000  6.1382360000000000   F   F   F
  4.4950510000000001  2.8963280000000000  8.5353510000000004   F   F   F
  1.4662869999999999  1.4405980000000000  8.6227190000000000   F   F   F
  7.5214470000000002  1.4414590000000000  8.6232340000000001   F   F   F
 18.0778810000000014  2.8940500000000000 11.2377699999999994   F   F   F
  5.9904809999999999  1.4374600000000000 11.2151379999999996   F   F   F
  3.0014949999999998  1.4359070000000000 11.2129960000000004   F   F   F
  4.4996910000000003  2.8965310000000000 13.8778349999999993   F   F   F
  1.4867939999999999  1.4336180000000001 13.8359319999999997   F   F   F
  7.5070620000000003  1.4360619999999999 13.8372689999999992   F   F   F
 18.0871430000000011  2.8966669999999999 16.4681560000000005   F   F   F
  6.0411270000000004  1.4353110000000000 16.5289479999999998   F   F   F
  2.9600330000000001  1.4384630000000000 16.5233519999999992   F   F   F
 18.1097000000000001  2.8966759999999998  5.9420789999999997   F   F   F
  5.9374969999999996  4.4385909999999997  6.1384100000000004   F   F   F
  3.0535320000000001  4.4393739999999999  6.1394560000000000   F   F   F
  4.4943879999999998  5.8124279999999997  8.5546469999999992   F   F   F
  1.4649859999999999  4.3509919999999997  8.6227660000000004   F   F   F
  7.5211139999999999  4.3518100000000004  8.6230969999999996   F   F   F
 18.0760620000000003  5.8107720000000000 11.2412630000000000   F   F   F
  5.9898100000000003  4.3536630000000001 11.2169609999999995   F   F   F
  3.0011839999999999  4.3531259999999996 11.2122229999999998   F   F   F
  4.4985920000000004  5.8098710000000002 13.8766069999999999   F   F   F
  1.4863560000000000  4.3492319999999998 13.8324879999999997   F   F   F
  7.5083370000000000  4.3507999999999996 13.8432060000000003   F   F   F
 18.0808239999999998  5.8163330000000002 16.4594890000000014   F   F   F
  6.0219940000000003  4.3298459999999999 16.5326790000000017   F   F   F
  2.9448550000000000  4.3556980000000003 16.5169330000000016   F   F   F
 18.0504590000000000  5.8116899999999996  5.9446680000000001   F   F   F
  5.9383200000000000  7.1958650000000004  6.1374890000000004   F   F   F
  3.0510180000000000  7.1941210000000000  6.1387820000000000   F   F   F
  4.4922560000000002  8.7332409999999996  8.5348489999999995   F   F   F
  1.4640270000000000  7.2748010000000001  8.6225079999999998   F   F   F
  7.5203970000000000  7.2759109999999998  8.6225059999999996   F   F   F
 18.0787079999999989  8.7323140000000006 11.2433399999999999   F   F   F
  5.9917350000000003  7.2723180000000003 11.2155500000000004   F   F   F
  2.9992030000000001  7.2726990000000002 11.2097759999999997   F   F   F
  4.4882039999999996  8.7320300000000000 13.8634939999999993   F   F   F
  1.4841489999999999  7.2690809999999999 13.8307190000000002   F   F   F
  7.5072660000000004  7.2698010000000002 13.8373279999999994   F   F   F
 18.1067539999999987  8.7314380000000007 16.4450170000000000   F   F   F
  5.9595560000000001  7.2475550000000002 16.4784989999999993   F   F   F
  2.9285679999999998  7.2608420000000002 16.5061810000000015   F   F   F
 18.1132999999999988  8.7265720000000009  5.9467299999999996   F   F   F
  5.9345679999999996 10.2755799999999997  6.1352890000000002   F   F   F
  3.0542690000000001 10.2768210000000000  6.1387760000000000   F   F   F
  4.4945510000000004 23.3350620000000006  8.5544569999999993   F   F   F
  1.4613069999999999 10.1885949999999994  8.6228040000000004   F   F   F
  7.5204800000000001 10.1892530000000008  8.6190990000000003   F   F   F
 18.0793520000000001 23.3326959999999985 11.2377420000000008   F   F   F
  5.9890869999999996 10.1930949999999996 11.2090169999999993   F   F   F
  2.9935659999999999 10.1934059999999995 11.2084279999999996   F   F   F
  4.4995339999999997 23.3342959999999984 13.8791770000000003   F   F   F
  1.4851369999999999 10.1953239999999994 13.8448840000000004   F   F   F
  7.5003760000000002 10.1924960000000002 13.8213069999999991   F   F   F
 18.0827789999999986 23.3329440000000012 16.4706219999999988   F   F   F
  5.9614130000000003 10.1766649999999998 16.4530630000000002   F   F   F
  2.9124180000000002 10.1693160000000002 16.5120649999999998   F   F   F
 18.0661829999999988 11.6503999999999994  5.9358779999999998   F   F   F
  5.9349369999999997 13.0349570000000003  6.1371019999999996   F   F   F
  3.0539510000000001 13.0314680000000003  6.1394849999999996   F   F   F
  4.4904089999999997 14.5758729999999996  8.5311979999999998   F   F   F
  1.4592760000000000 13.1164579999999997  8.6212610000000005   F   F   F
  7.5222540000000002 13.1176469999999998  8.6176990000000000   F   F   F
 18.0810679999999984 14.5735749999999999 11.2458779999999994   F   F   F
  5.9895040000000002 13.1170629999999999 11.2065599999999996   F   F   F
  2.9954519999999998 13.1150810000000000 11.2092460000000003   F   F   F
  4.4866500000000000 14.5791559999999993 13.8578019999999995   F   F   F
  1.4936419999999999 13.1142439999999993 13.8581430000000001   F   F   F
  7.4926789999999999 13.1200969999999995 13.8203220000000009   F   F   F
 18.0720789999999987 14.5669240000000002 16.4676100000000005   F   F   F
  5.9893369999999999 13.1222840000000005 16.4426050000000004   F   F   F
  2.8888410000000002 13.1122569999999996 16.5463570000000004   F   F   F
  0.0149000000000000 14.5762260000000001  5.9453279999999999   F   F   F
  5.9359960000000003 16.1167389999999990  6.1363139999999996   F   F   F
  3.0537869999999998 16.1182259999999999  6.1393209999999998   F   F   F
  4.4917140000000000 17.4969690000000000  8.5495099999999997   F   F   F
  1.4609930000000000 16.0333819999999996  8.6214180000000002   F   F   F
  7.5227149999999998 16.0346040000000016  8.6183610000000002   F   F   F
 18.0802599999999991 17.4962219999999995 11.2390450000000008   F   F   F
  5.9875759999999998 16.0376280000000015 11.2080810000000000   F   F   F
  2.9972829999999999 16.0349080000000015 11.2100299999999997   F   F   F
  4.4944170000000003 17.4970590000000001 13.8756699999999995   F   F   F
  1.4910310000000000 16.0353349999999999 13.8449310000000008   F   F   F
  7.4980370000000001 16.0432929999999985 13.8283480000000001   F   F   F
 18.0764330000000015 17.4929209999999991 16.4591220000000007   F   F   F
  5.9893650000000003 16.0752419999999994 16.4819700000000005   F   F   F
  2.9151650000000000 16.0571330000000003 16.5328480000000013   F   F   F
 18.0661319999999996 17.5003759999999993  5.9333070000000001   F   F   F
  5.9358129999999996 18.8758459999999992  6.1343940000000003   F   F   F
  3.0552100000000002 18.8741699999999994  6.1366470000000000   F   F   F
  4.4938279999999997 20.4170610000000003  8.5346940000000000   F   F   F
  1.4645500000000000 18.9600730000000013  8.6220529999999993   F   F   F
  7.5217140000000002 18.9613200000000006  8.6201100000000004   F   F   F
 18.0800319999999992 20.4153440000000010 11.2366989999999998   F   F   F
  5.9882070000000001 18.9566659999999985 11.2108640000000008   F   F   F
  2.9998179999999999 18.9545269999999988 11.2114110000000000   F   F   F
  4.4959080000000000 20.4168120000000002 13.8726579999999995   F   F   F
  1.4861450000000000 18.9573700000000009 13.8345400000000005   F   F   F
  7.5036839999999998 18.9632779999999990 13.8319539999999996   F   F   F
 18.0818359999999991 20.4125230000000002 16.4681789999999992   F   F   F
  6.0134290000000004 18.9968059999999994 16.5144780000000004   F   F   F
  2.9482740000000001 18.9630739999999989 16.5192629999999987   F   F   F
  0.0045790000000000 20.4234919999999995  5.9442649999999997   F   F   F
  5.9395300000000004 21.9574749999999987  6.1359630000000003   F   F   F
  3.0518619999999999 21.9571499999999986  6.1376220000000004   F   F   F
  4.4894420000000004 11.6549940000000003  8.5491879999999991   F   F   F
  1.4665049999999999 21.8722090000000016  8.6224580000000000   F   F   F
  7.5209380000000001 21.8734679999999990  8.6218959999999996   F   F   F
 18.0784979999999997 11.6528729999999996 11.2480189999999993   F   F   F
  5.9896149999999997 21.8750579999999992 11.2125869999999992   F   F   F
  3.0014170000000000 21.8740150000000000 11.2121089999999999   F   F   F
  4.4844260000000000 11.6547079999999994 13.8519459999999999   F   F   F
  1.4865120000000001 21.8743729999999985 13.8354060000000008   F   F   F
  7.5062100000000003 21.8777459999999984 13.8347680000000004   F   F   F
 18.0533129999999993 11.6431170000000002 16.4985959999999992   F   F   F
  6.0426130000000002 21.8865659999999984 16.5265820000000012   F   F   F
  2.9581089999999999 21.8781299999999987 16.5232449999999993   F   F   F
  9.0483340000000005 23.3377380000000016  5.9415440000000004   F   F   F
 14.9945880000000002  1.5172260000000000  6.1409840000000004   F   F   F
 12.1027480000000001  1.5156380000000000  6.1407200000000000   F   F   F
 13.5493079999999999  2.8950339999999999  8.5521030000000007   F   F   F
 10.5161320000000007  1.4334410000000000  8.6234190000000002   F   F   F
 16.5812130000000018  1.4339080000000000  8.6219789999999996   F   F   F
  9.0229189999999999  2.8951669999999998 11.2393859999999997   F   F   F
 15.0453720000000004  1.4348479999999999 11.2123489999999997   F   F   F
 12.0552840000000003  1.4351470000000000 11.2120960000000007   F   F   F
 13.5575259999999993  2.8924979999999998 13.8748339999999999   F   F   F
 10.5435400000000001  1.4319569999999999 13.8369330000000001   F   F   F
 16.5616640000000004  1.4317740000000001 13.8352599999999999   F   F   F
  9.0195000000000007  2.9043169999999998 16.4663199999999996   F   F   F
 15.0930149999999994  1.4257540000000000 16.5244390000000010   F   F   F
 12.0148279999999996  1.4144800000000000 16.5262799999999999   F   F   F
  8.9887949999999996  2.8969800000000001  5.9415490000000002   F   F   F
 14.9939169999999997  4.2786229999999996  6.1415889999999997   F   F   F
 12.1021780000000003  4.2781630000000002  6.1398809999999999   F   F   F
 13.5483220000000006  5.8107920000000002  8.5401600000000002   F   F   F
 10.5155069999999995  4.3570409999999997  8.6229680000000002   F   F   F
 16.5810330000000015  4.3579939999999997  8.6219780000000004   F   F   F
  9.0214540000000003  5.8098669999999997 11.2411670000000008   F   F   F
 15.0464660000000006  4.3520050000000001 11.2124729999999992   F   F   F
 12.0543259999999997  4.3520870000000000 11.2123840000000001   F   F   F
 13.5555040000000009  5.8072530000000002 13.8636730000000004   F   F   F
 10.5462019999999992  4.3480480000000004 13.8412330000000008   F   F   F
 16.5572009999999992  4.3461489999999996 13.8401589999999999   F   F   F
  9.0070329999999998  5.8427199999999999 16.4707210000000011   F   F   F
 15.1245980000000007  4.3303000000000003 16.5409539999999993   F   F   F
 12.0234819999999996  4.2965570000000000 16.5224839999999986   F   F   F
  9.0481800000000003  5.8119420000000002  5.9423089999999998   F   F   F
 14.9906279999999992  7.3441419999999997  6.1408620000000003   F   F   F
 12.1040010000000002  7.3428730000000000  6.1385490000000003   F   F   F
 13.5499279999999995  8.7276360000000004  8.5490510000000004   F   F   F
 10.5151939999999993  7.2663430000000000  8.6216200000000001   F   F   F
 16.5803119999999993  7.2664920000000004  8.6210269999999998   F   F   F
  9.0195190000000007  8.7307939999999995 11.2357530000000008   F   F   F
 15.0473780000000001  7.2706999999999997 11.2119959999999992   F   F   F
 12.0512929999999994  7.2708870000000001 11.2117109999999993   F   F   F
 13.5657960000000006  8.7293070000000004 13.8591239999999996   F   F   F
 10.5399940000000001  7.2668010000000001 13.8305670000000003   F   F   F
 16.5646030000000017  7.2675979999999996 13.8341030000000007   F   F   F
  9.0163309999999992  8.7288829999999997 16.4587739999999982   F   F   F
 15.1177320000000002  7.2442859999999998 16.4904529999999987   F   F   F
 12.0359560000000005  7.2571950000000003 16.4510749999999994   F   F   F
  8.9850870000000000  8.7267499999999991  5.9447479999999997   F   F   F
 14.9907260000000004 10.0950670000000002  6.1298779999999997   F   F   F
 12.1062600000000007 10.0957469999999994  6.1282530000000000   F   F   F
 13.5492399999999993 23.3355670000000011  8.5403979999999997   F   F   F
 10.5183870000000006 10.1908189999999994  8.6209659999999992   F   F   F
 16.5777970000000003 10.1914610000000003  8.6236700000000006   F   F   F
  9.0230859999999993 23.3337460000000014 11.2381329999999995   F   F   F
 15.0506659999999997 10.1914339999999992 11.2139439999999997   F   F   F
 12.0531729999999992 10.1914079999999991 11.2067630000000005   F   F   F
 13.5536949999999994 23.3303979999999989 13.8744750000000003   F   F   F
 10.5333769999999998 10.1950760000000002 13.8167720000000003   F   F   F
 16.5637909999999984 10.1951739999999997 13.8445149999999995   F   F   F
  9.0266369999999991 23.3327050000000007 16.4716969999999989   F   F   F
 15.0967540000000007 10.1849769999999999 16.4840860000000013   F   F   F
 12.0552609999999998 10.1946119999999993 16.4177989999999987   F   F   F
  9.0348269999999999 11.6511429999999994  5.9323189999999997   F   F   F
 15.0728170000000006 13.1254819999999999  6.1725740000000000   F   F   F
 12.0282990000000005 13.1241669999999999  6.1700580000000000   F   F   F
 13.5496870000000005 14.5748020000000000  8.4591060000000002   F   F   F
 10.5162350000000000 13.1093930000000007  8.6223820000000000   F   F   F
 16.5807980000000015 13.1095170000000003  8.6250389999999992   F   F   F
  9.0206710000000001 14.5785710000000002 11.2338959999999997   F   F   F
 15.0497080000000008 13.1138670000000008 11.2071980000000000   F   F   F
 12.0591360000000005 13.1147460000000002 11.2009969999999992   F   F   F
 13.5623090000000008 14.5766220000000004 13.8586729999999996   F   F   F
 10.5366320000000009 13.1208489999999998 13.8204360000000008   F   F   F
 16.5648690000000016 13.1163240000000005 13.8473059999999997   F   F   F
  9.0513949999999994 14.5868389999999994 16.4317689999999992   F   F   F
 15.1256470000000007 13.1543559999999999 16.5304609999999990   F   F   F
 12.0736100000000004 13.1448009999999993 16.4595869999999991   F   F   F
  8.9757870000000004 14.5760269999999998  5.9436020000000003   F   F   F
 15.0714129999999997 16.0231169999999992  6.1711689999999999   F   F   F
 12.0276099999999992 16.0245509999999989  6.1689930000000004   F   F   F
 13.5487649999999995 17.5210830000000009  8.4894130000000008   F   F   F
 10.5169110000000003 16.0404459999999993  8.6220719999999993   F   F   F
 16.5794679999999985 16.0404470000000003  8.6234450000000002   F   F   F
  9.0215709999999998 17.4991120000000002 11.2347370000000009   F   F   F
 15.0444309999999994 16.0358750000000008 11.2024349999999995   F   F   F
 12.0569050000000004 16.0372100000000017 11.2023370000000000   F   F   F
 13.5552799999999998 17.4969619999999999 13.8653030000000008   F   F   F
 10.5395020000000006 16.0413530000000009 13.8255560000000006   F   F   F
 16.5646969999999989 16.0366980000000012 13.8296770000000002   F   F   F
  9.0289050000000000 17.4845550000000003 16.4433940000000014   F   F   F
 15.1235379999999999 16.0504730000000002 16.5094460000000005   F   F   F
 12.0874480000000002 16.0627269999999989 16.4647240000000004   F   F   F
  9.0346849999999996 17.4995319999999985  5.9308810000000003   F   F   F
 14.9921310000000005 19.0545389999999983  6.1270699999999998   F   F   F
 12.1068540000000002 19.0543939999999985  6.1257409999999997   F   F   F
 13.5494360000000000 20.4198710000000005  8.5489200000000007   F   F   F
 10.5204570000000004 18.9577780000000011  8.6212070000000001   F   F   F
 16.5770209999999985 18.9575920000000018  8.6215589999999995   F   F   F
  9.0216960000000004 20.4162959999999991 11.2356370000000005   F   F   F
 15.0443210000000001 18.9566270000000010 11.2085129999999999   F   F   F
 12.0567670000000007 18.9568000000000012 11.2094959999999997   F   F   F
 13.5551150000000007 20.4122659999999989 13.8718430000000001   F   F   F
 10.5413920000000001 18.9592770000000002 13.8315420000000007   F   F   F
 16.5629109999999997 18.9569240000000008 13.8278160000000003   F   F   F
  9.0242489999999993 20.4071290000000012 16.4636579999999988   F   F   F
 15.1056670000000004 18.9582039999999985 16.5136429999999983   F   F   F
 12.0291650000000008 18.9846930000000000 16.5172239999999988   F   F   F
  8.9854629999999993 20.4243220000000001  5.9432760000000000   F   F   F
 14.9932409999999994 21.8055009999999996  6.1384169999999996   F   F   F
 12.1054700000000004 21.8065280000000001  6.1368020000000003   F   F   F
 13.5500939999999996 11.6282219999999992  8.4918279999999999   F   F   F
 10.5170019999999997 21.8810989999999990  8.6210240000000002   F   F   F
 16.5807949999999984 21.8817769999999996  8.6212300000000006   F   F   F
  9.0200750000000003 11.6534189999999995 11.2342390000000005   F   F   F
 15.0454100000000004 21.8744000000000014 11.2111660000000004   F   F   F
 12.0553249999999998 21.8741480000000017 11.2119429999999998   F   F   F
 13.5683330000000009 11.6598699999999997 13.8530630000000006   F   F   F
 10.5424159999999993 21.8740929999999985 13.8348180000000003   F   F   F
 16.5624450000000003 21.8724150000000002 13.8324669999999994   F   F   F
  9.0299890000000005 11.6730190000000000 16.4175380000000004   F   F   F
 15.0954910000000009 21.8718560000000011 16.5219290000000001   F   F   F
 12.0099490000000007 21.8732119999999988 16.5226779999999991   F   F   F
  7.3317920000000001 23.3362830000000017  7.0470240000000004   F   F   F
  4.4957680000000000 23.3344670000000001  5.3685650000000003   F   F   F
  1.6588490000000000 23.3352630000000012  7.0474340000000000   F   F   F
  2.7374220000000000  2.8954610000000001  9.6159689999999998   F   F   F
 18.0760849999999991  2.8957570000000001  9.1928800000000006   F   F   F
  6.2516259999999999  2.8968069999999999  9.6179260000000006   F   F   F
  7.2368980000000001  2.8966539999999998 12.2461310000000001   F   F   F
  4.4958729999999996  2.8949720000000001 11.8012589999999999   F   F   F
  1.7552099999999999  2.8935740000000001 12.2410960000000006   F   F   F
  2.7152569999999998  2.8911560000000001 14.8524069999999995   F   F   F
 18.0791819999999994  2.8924409999999998 14.3954799999999992   F   F   F
  6.2841220000000000  2.8950520000000002 14.8599589999999999   F   F   F
  7.2703160000000002  2.9059100000000000 17.3836009999999987   F   F   F
  4.5020519999999999  2.9080420000000000 16.9921170000000004   F   F   F
  1.7267420000000000  2.8925500000000000 17.3727449999999983   F   F   F
  7.3064450000000001  2.8974489999999999  7.0362640000000001   F   F   F
  4.4952050000000003  2.8979910000000002  6.3951320000000003   F   F   F
  1.6835110000000000  2.8969779999999998  7.0355809999999996   F   F   F
  2.7311150000000000  5.8131240000000002  9.6234050000000000   F   F   F
 18.0789690000000007  5.8132679999999999  9.1957719999999998   F   F   F
  6.2571880000000002  5.8141030000000002  9.6263719999999999   F   F   F
  7.2358339999999997  5.8110220000000004 12.2487209999999997   F   F   F
  4.4964860000000000  5.8138699999999996 11.8022449999999992   F   F   F
  1.7546029999999999  5.8111800000000002 12.2398480000000003   F   F   F
  2.7110889999999999  5.8063909999999996 14.8493999999999993   F   F   F
 18.0762089999999986  5.8072150000000002 14.3885220000000000   F   F   F
  6.2860030000000000  5.8042559999999996 14.8716489999999997   F   F   F
  7.2364740000000003  5.8451380000000004 17.4385480000000008   F   F   F
  4.4774570000000002  5.8187100000000003 16.9973929999999989   F   F   F
  1.7149980000000000  5.8107899999999999 17.3759839999999990   F   F   F
  7.3318279999999998  5.8142560000000003  7.0474980000000000   F   F   F
  4.4959970000000000  5.8175359999999996  5.3714940000000002   F   F   F
  1.6573300000000000  5.8135130000000004  7.0483570000000002   F   F   F
  2.7353010000000002  8.7323830000000005  9.6149220000000000   F   F   F
 18.0742219999999989  8.7312960000000004  9.1970720000000004   F   F   F
  6.2497740000000004  8.7330850000000009  9.6158549999999998   F   F   F
  7.2328970000000004  8.7314729999999994 12.2394970000000001   F   F   F
  4.4928480000000004  8.7335689999999992 11.7933760000000003   F   F   F
  1.7563230000000001  8.7342119999999994 12.2407059999999994   F   F   F
  2.7056840000000002  8.7284889999999997 14.8487650000000002   F   F   F
 18.0807770000000012  8.7335609999999999 14.3812099999999994   F   F   F
  6.2754230000000000  8.7259370000000001 14.8432569999999995   F   F   F
  7.1973710000000004  8.7374019999999994 17.3455089999999998   F   F   F
  4.4630260000000002  8.7309230000000007 16.9860669999999985   F   F   F
  1.7132840000000000  8.7309350000000006 17.3802729999999990   F   F   F
  7.3049439999999999  8.7328440000000001  7.0374949999999998   F   F   F
  4.4941599999999999  8.7329380000000008  6.4002710000000000   F   F   F
  1.6836670000000000  8.7326180000000004  7.0388500000000001   F   F   F
  2.7312699999999999 23.3336569999999988  9.6240159999999992   F   F   F
 18.0802580000000006 23.3340850000000017  9.1927710000000005   F   F   F
  6.2577689999999997 23.3347650000000009  9.6247399999999992   F   F   F
  7.2371480000000004 23.3342729999999996 12.2450069999999993   F   F   F
  4.4960930000000001 23.3333410000000008 11.8037229999999997   F   F   F
  1.7552120000000000 23.3320639999999990 12.2437260000000006   F   F   F
  2.7146300000000001 23.3327910000000003 14.8528120000000001   F   F   F
 18.0787639999999996 23.3308089999999986 14.3965490000000003   F   F   F
  6.2854080000000003 23.3357899999999994 14.8570759999999993   F   F   F
  7.2722360000000004 23.3359379999999987 17.3781579999999991   F   F   F
  4.5013820000000004 23.3354849999999985 16.9918900000000015   F   F   F
  1.7300860000000000 23.3345699999999994 17.3691439999999986   F   F   F
  7.3280680000000000 11.6463289999999997  7.0456009999999996   F   F   F
  4.4958900000000002 11.6544810000000005  5.3664839999999998   F   F   F
  1.6601060000000001 11.6462909999999997  7.0506180000000001   F   F   F
  2.7322060000000001 14.5752430000000004  9.6142859999999999   F   F   F
 18.0717719999999993 14.5748770000000007  9.2004219999999997   F   F   F
  6.2507929999999998 14.5766700000000000  9.6104319999999994   F   F   F
  7.2302549999999997 14.5806930000000001 12.2341739999999994   F   F   F
  4.4918040000000001 14.5760349999999992 11.7875470000000000   F   F   F
  1.7590040000000000 14.5720460000000003 12.2504000000000008   F   F   F
  2.7234240000000001 14.5790950000000006 14.8812040000000003   F   F   F
 18.0815640000000002 14.5728170000000006 14.3942180000000004   F   F   F
  6.2620730000000000 14.5892099999999996 14.8489930000000001   F   F   F
  7.2462790000000004 14.5716739999999998 17.3072510000000008   F   F   F
  4.4913319999999999 14.5683240000000005 17.1228100000000012   F   F   F
  1.7048749999999999 14.5747959999999992 17.3941760000000016   F   F   F
  7.2975199999999996 14.5758869999999998  7.0355800000000004   F   F   F
  4.4937129999999996 14.5759869999999996  6.3890250000000002   F   F   F
  1.6918139999999999 14.5749209999999998  7.0384630000000001   F   F   F
  2.7288800000000002 17.4937369999999994  9.6228770000000008   F   F   F
 18.0748600000000010 17.4966560000000015  9.1952429999999996   F   F   F
  6.2564089999999997 17.4953949999999985  9.6205520000000000   F   F   F
  7.2333460000000001 17.4985259999999982 12.2402320000000007   F   F   F
  4.4945940000000002 17.4954129999999992 11.7996560000000006   F   F   F
  1.7559240000000000 17.4938380000000002 12.2450559999999999   F   F   F
  2.7120720000000000 17.5017549999999993 14.8572720000000000   F   F   F
 18.0788699999999984 17.4945810000000002 14.3870839999999998   F   F   F
  6.2829600000000001 17.5120910000000016 14.8634009999999996   F   F   F
  7.2474210000000001 17.5052160000000008 17.4029150000000001   F   F   F
  4.4827560000000002 17.4905590000000011 17.0032220000000009   F   F   F
  1.7170639999999999 17.4985220000000012 17.3770489999999995   F   F   F
  7.3281549999999998 17.5047500000000014  7.0454610000000004   F   F   F
  4.4962140000000002 17.4962799999999987  5.3671970000000000   F   F   F
  1.6609750000000001 17.5040240000000011  7.0487169999999999   F   F   F
  2.7361789999999999 20.4152790000000017  9.6156360000000003   F   F   F
 18.0754139999999985 20.4162619999999997  9.1919140000000006   F   F   F
  6.2516489999999996 20.4160269999999997  9.6150760000000002   F   F   F
  7.2347109999999999 20.4171109999999985 12.2399349999999991   F   F   F
  4.4953200000000004 20.4150300000000016 11.7979450000000003   F   F   F
  1.7566700000000000 20.4148570000000014 12.2414140000000007   F   F   F
  2.7139240000000000 20.4182249999999996 14.8522119999999997   F   F   F
 18.0790539999999993 20.4139540000000004 14.3934200000000008   F   F   F
  6.2808989999999998 20.4224199999999989 14.8519790000000000   F   F   F
  7.2670440000000003 20.4105580000000018 17.3749169999999999   F   F   F
  4.4983820000000003 20.4101050000000015 16.9875079999999983   F   F   F
  1.7265269999999999 20.4183759999999985 17.3718830000000004   F   F   F
  7.3050970000000000 20.4179479999999991  7.0362809999999998   F   F   F
  4.4956149999999999 20.4184680000000007  6.3986929999999997   F   F   F
  1.6852430000000000 20.4167570000000005  7.0372079999999997   F   F   F
  2.7266400000000002 11.6557709999999997  9.6227219999999996   F   F   F
 18.0745420000000010 11.6522179999999995  9.2018219999999999   F   F   F
  6.2544050000000002 11.6558209999999995  9.6182630000000007   F   F   F
  7.2296069999999997 11.6552749999999996 12.2328960000000002   F   F   F
  4.4906870000000003 11.6542600000000007 11.7847480000000004   F   F   F
  1.7561000000000000 11.6570730000000005 12.2516210000000001   F   F   F
  2.7218979999999999 11.6517750000000007 14.8781320000000008   F   F   F
 18.0767540000000011 11.6567410000000002 14.4172770000000003   F   F   F
  6.2591770000000002 11.6513270000000002 14.8406190000000002   F   F   F
  7.2399120000000003 11.6665949999999992 17.3078049999999983   F   F   F
  4.4807300000000003 11.6465730000000001 17.1168140000000015   F   F   F
  1.6883530000000000 11.6458490000000001 17.3879880000000000   F   F   F
 16.3677940000000000 23.3365520000000011  7.0367020000000000   F   F   F
 13.5497209999999999 23.3385069999999999  6.4078210000000002   F   F   F
 10.7308789999999998 23.3361370000000008  7.0370730000000004   F   F   F
 11.7849839999999997  2.8954689999999998  9.6225830000000006   F   F   F
  9.0204909999999998  2.8963450000000002  9.1942579999999996   F   F   F
 15.3134940000000004  2.8951039999999999  9.6227090000000004   F   F   F
 16.2911000000000001  2.8926850000000002 12.2447879999999998   F   F   F
 13.5503219999999995  2.8931249999999999 11.7996289999999995   F   F   F
 10.8090480000000007  2.8946760000000000 12.2457320000000003   F   F   F
 11.7743169999999999  2.8839630000000001 14.8543710000000004   F   F   F
  9.0260390000000008  2.8939830000000000 14.3988309999999995   F   F   F
 15.3360669999999999  2.8856540000000002 14.8597059999999992   F   F   F
 16.3290539999999993  2.8836170000000001 17.3771589999999989   F   F   F
 13.5562470000000008  2.8988839999999998 17.0054009999999991   F   F   F
 10.7847050000000007  2.8923120000000000 17.3704280000000004   F   F   F
 16.3921139999999994  2.8965839999999998  7.0460130000000003   F   F   F
 13.5481929999999995  2.8971719999999999  5.3891280000000004   F   F   F
 10.7061440000000001  2.8965489999999998  7.0468549999999999   F   F   F
 11.7884639999999994  5.8131180000000002  9.6167180000000005   F   F   F
  9.0162530000000007  5.8134870000000003  9.1959909999999994   F   F   F
 15.3087440000000008  5.8138909999999999  9.6165389999999995   F   F   F
 16.2865059999999993  5.8095489999999996 12.2435849999999995   F   F   F
 13.5495230000000006  5.8129499999999998 11.7930379999999992   F   F   F
 10.8105440000000002  5.8091759999999999 12.2436690000000006   F   F   F
 11.7769089999999998  5.7952450000000004 14.8666040000000006   F   F   F
  9.0244230000000005  5.8152039999999996 14.4047429999999999   F   F   F
 15.3290089999999992  5.7963459999999998 14.8669209999999996   F   F   F
 16.3398530000000015  5.8008430000000004 17.3918450000000000   F   F   F
 13.5674229999999998  5.8486779999999996 17.1169590000000014   F   F   F
 10.8023000000000007  5.7748739999999996 17.3833620000000018   F   F   F
 16.3671700000000016  5.8124359999999999  7.0372960000000004   F   F   F
 13.5478909999999999  5.8107350000000002  6.4065009999999996   F   F   F
 10.7295510000000007  5.8121729999999996  7.0383899999999997   F   F   F
 11.7849690000000002  8.7315450000000006  9.6199390000000005   F   F   F
  9.0200019999999999  8.7322260000000007  9.1920889999999993   F   F   F
 15.3132880000000000  8.7314089999999993  9.6226149999999997   F   F   F
 16.2900320000000001  8.7340710000000001 12.2433569999999996   F   F   F
 13.5510280000000005  8.7331810000000001 11.7932129999999997   F   F   F
 10.8052560000000000  8.7314679999999996 12.2342849999999999   F   F   F
 11.7692929999999993  8.7315860000000001 14.8151069999999994   F   F   F
  9.0204789999999999  8.7366399999999995 14.3995210000000000   F   F   F
 15.3521180000000008  8.7276369999999996 14.8560070000000000   F   F   F
 16.3619279999999989  8.7165569999999999 17.4055600000000013   F   F   F
 13.5617929999999998  8.7502119999999994 16.9298949999999984   F   F   F
 10.8203750000000003  8.7549720000000004 17.3106979999999986   F   F   F
 16.3913440000000001  8.7273110000000003  7.0439629999999998   F   F   F
 13.5481529999999992  8.7138299999999997  5.3598359999999996   F   F   F