Mo  S Ru                                
   1.00000000000000     
    15.9215000000000000    0.0000000000000000    0.0000000000000000
    -7.9622500000000000   13.7910219999999999    0.0000000000000000
     0.0000000000000000    0.0000000000000000   13.5822000000000003
   Mo   S    Ru
    25    50     2
Direct
  0.1300973573458677  0.0647474013280984  0.6713101690551824
  0.1233567827580373  0.2613710722909772  0.6690866972928333
  0.1302892865930190  0.4649280223045480  0.6714447775549175
  0.1331585019257844  0.6658595020871587  0.6737574230724235
  0.1331110119431216  0.8666292189650591  0.6737794944659541
  0.3315380873062210  0.0676510446932355  0.6818225770856117
  0.3169312464688048  0.2643231916792530  0.6796310431221571
  0.3180424732423859  0.4532549940556478  0.6786564148231164
  0.3318270667955971  0.6633945821459548  0.6806935054157606
  0.3323409886905040  0.8657542697762963  0.6788580425271320
  0.5310899028710381  0.0657669457807657  0.6808819481696631
  0.5354030509134731  0.2680937293279300  0.6934353950593746
  0.5444646548737992  0.4775875149134876  0.7031100316171006
  0.5349148916457054  0.6655394360249431  0.6896393384122987
  0.5311552782151168  0.8645162263478525  0.6801701592256180
  0.7297377804462357  0.0645835030453270  0.6741006108476881
  0.7320068059151339  0.2659457314743179  0.6765089507138953
  0.7374511112886140  0.4672167318850668  0.6785953497377903
  0.7378419960570426  0.6698320375308882  0.6775366583271349
  0.7319255752514309  0.8653793398514935  0.6757058753385508
  0.9282165859360703  0.0634463782113315  0.6689724606679377
  0.9281335151473158  0.2643139924682032  0.6690371915319204
  0.9334934328461131  0.4661571116239784  0.6711753630048065
  0.9353824860420374  0.6675167117152654  0.6723080214456090
  0.9336231659053311  0.8670149297972571  0.6707738775840042
  0.0613809923191653  0.1291423945256014  0.5536121387333424
  0.0587800726545566  0.1282149111423863  0.7842582327918635
  0.0613289558621730  0.3317967649686722  0.5536720867425160
  0.0585308935107562  0.3299935526623514  0.7842316269573999
  0.0668701073173921  0.5340183106515894  0.5562314247199609
  0.0653212462874961  0.5315126140848463  0.7873090201392969
  0.0688326472565066  0.7340950074291328  0.5576382573408694
  0.0670966411189511  0.7332471188629839  0.7883681720592293
  0.0671456966338155  0.9324084150774254  0.5560035352973784
  0.0651646116761952  0.9331976459100702  0.7871652723923859
  0.2679854606203520  0.1340935364723208  0.5614251247784523
  0.2582043753824266  0.1306610517508346  0.7925102316471637
  0.2582961241795019  0.3288618798739691  0.5583454744531053
  0.2405356460497714  0.3229751462643335  0.8000327007020545
  0.2674654956520541  0.5328894342092880  0.5610813653883255
  0.2592775054592380  0.5275620097789968  0.7922186645452740
  0.2694081000779249  0.7328240381490474  0.5631455241349954
  0.2635762775352006  0.7310556343407129  0.7925321820358917
  0.2696546979144827  0.9363267274973381  0.5636281300723525
  0.2631868542261699  0.9311755922263245  0.7928456283401530
  0.4668390511620117  0.1391262748725239  0.5710098256007541
  0.4633697302149500  0.1286126451941527  0.7996291042415820
  0.4673179732922250  0.3407871690124225  0.5914476345223960
  0.4897439264605552  0.3237058390494454  0.8557070297046891
  0.4660495903948316  0.5273195609963466  0.5845696795487640
  0.4867016212705835  0.5543271000266259  0.8457262465984456
  0.4668418425691883  0.7279025660867902  0.5691374386849262
  0.4639991844388121  0.7328490390843143  0.7978798785444354
  0.4656007225553296  0.9326904764664192  0.5649128996101282
  0.4646231629024200  0.9315732073749885  0.7950575801624424
  0.6609917194438921  0.1317477724902147  0.5619466477114230
  0.6669681285420523  0.1325182280561137  0.7920585753676335
  0.6594290796841804  0.3314838030241702  0.5679104203938437
  0.6753094311187127  0.3358980314573188  0.7972958667236583
  0.6631073902433897  0.5308850325755756  0.5700191472096492
  0.6949142458040569  0.5476455670514824  0.8010509878897878
  0.6601209285462559  0.7280641810315558  0.5659076455064209
  0.6739200079185323  0.7378808917836324  0.7956779285204689
  0.6611752321899189  0.9291193968334355  0.5614461024289668
  0.6668855311151418  0.9334345915971696  0.7915488516908127
  0.8597227380970338  0.1297069970332956  0.5549294350299263
  0.8645134639112371  0.1319560874220969  0.7854297003248334
  0.8610443427502474  0.3320158689695845  0.5562336152204352
  0.8674332254055983  0.3330667593976031  0.7871333231747570
  0.8657293830762285  0.5330595882927298  0.5578897295444349
  0.8738099974845284  0.5354322195770536  0.7889452343541024
  0.8664294869662044  0.7325445703594298  0.5572820422139344
  0.8736782951498938  0.7381879359453265  0.7885576095729903
  0.8613625518940395  0.9289360093984058  0.5558425821639474
  0.8671326230549283  0.9336326693376762  0.7866876675208587
  0.5695015089427145  0.4810757852826768  0.8987405477918529
  0.4008974519637647  0.3924893849238345  0.8302040763506611
 
  0.00000000E+00  0.00000000E+00  0.00000000E+00
  0.00000000E+00  0.00000000E+00  0.00000000E+00
  0.00000000E+00  0.00000000E+00  0.00000000E+00
  0.00000000E+00  0.00000000E+00  0.00000000E+00
  0.00000000E+00  0.00000000E+00  0.00000000E+00
  0.00000000E+00  0.00000000E+00  0.00000000E+00
  0.00000000E+00  0.00000000E+00  0.00000000E+00
  0.00000000E+00  0.00000000E+00  0.00000000E+00
  0.00000000E+00  0.00000000E+00  0.00000000E+00
  0.00000000E+00  0.00000000E+00  0.00000000E+00
  0.00000000E+00  0.00000000E+00  0.00000000E+00
  0.00000000E+00  0.00000000E+00  0.00000000E+00
  0.00000000E+00  0.00000000E+00  0.00000000E+00
  0.00000000E+00  0.00000000E+00  0.00000000E+00
  0.00000000E+00  0.00000000E+00  0.00000000E+00
  0.00000000E+00  0.00000000E+00  0.00000000E+00
  0.00000000E+00  0.00000000E+00  0.00000000E+00
  0.00000000E+00  0.00000000E+00  0.00000000E+00
  0.00000000E+00  0.00000000E+00  0.00000000E+00
  0.00000000E+00  0.00000000E+00  0.00000000E+00
  0.00000000E+00  0.00000000E+00  0.00000000E+00
  0.00000000E+00  0.00000000E+00  0.00000000E+00
  0.00000000E+00  0.00000000E+00  0.00000000E+00
  0.00000000E+00  0.00000000E+00  0.00000000E+00
  0.00000000E+00  0.00000000E+00  0.00000000E+00
  0.00000000E+00  0.00000000E+00  0.00000000E+00
  0.00000000E+00  0.00000000E+00  0.00000000E+00
  0.00000000E+00  0.00000000E+00  0.00000000E+00
  0.00000000E+00  0.00000000E+00  0.00000000E+00
  0.00000000E+00  0.00000000E+00  0.00000000E+00
  0.00000000E+00  0.00000000E+00  0.00000000E+00
  0.00000000E+00  0.00000000E+00  0.00000000E+00
  0.00000000E+00  0.00000000E+00  0.00000000E+00
  0.00000000E+00  0.00000000E+00  0.00000000E+00
  0.00000000E+00  0.00000000E+00  0.00000000E+00
  0.00000000E+00  0.00000000E+00  0.00000000E+00
  0.00000000E+00  0.00000000E+00  0.00000000E+00
  0.00000000E+00  0.00000000E+00  0.00000000E+00
  0.00000000E+00  0.00000000E+00  0.00000000E+00
  0.00000000E+00  0.00000000E+00  0.00000000E+00
  0.00000000E+00  0.00000000E+00  0.00000000E+00
  0.00000000E+00  0.00000000E+00  0.00000000E+00
  0.00000000E+00  0.00000000E+00  0.00000000E+00
  0.00000000E+00  0.00000000E+00  0.00000000E+00
  0.00000000E+00  0.00000000E+00  0.00000000E+00
  0.00000000E+00  0.00000000E+00  0.00000000E+00
  0.00000000E+00  0.00000000E+00  0.00000000E+00
  0.00000000E+00  0.00000000E+00  0.00000000E+00
  0.00000000E+00  0.00000000E+00  0.00000000E+00
  0.00000000E+00  0.00000000E+00  0.00000000E+00
  0.00000000E+00  0.00000000E+00  0.00000000E+00
  0.00000000E+00  0.00000000E+00  0.00000000E+00
  0.00000000E+00  0.00000000E+00  0.00000000E+00
  0.00000000E+00  0.00000000E+00  0.00000000E+00
  0.00000000E+00  0.00000000E+00  0.00000000E+00
  0.00000000E+00  0.00000000E+00  0.00000000E+00
  0.00000000E+00  0.00000000E+00  0.00000000E+00
  0.00000000E+00  0.00000000E+00  0.00000000E+00
  0.00000000E+00  0.00000000E+00  0.00000000E+00
  0.00000000E+00  0.00000000E+00  0.00000000E+00
  0.00000000E+00  0.00000000E+00  0.00000000E+00
  0.00000000E+00  0.00000000E+00  0.00000000E+00
  0.00000000E+00  0.00000000E+00  0.00000000E+00
  0.00000000E+00  0.00000000E+00  0.00000000E+00
  0.00000000E+00  0.00000000E+00  0.00000000E+00
  0.00000000E+00  0.00000000E+00  0.00000000E+00
  0.00000000E+00  0.00000000E+00  0.00000000E+00
  0.00000000E+00  0.00000000E+00  0.00000000E+00
  0.00000000E+00  0.00000000E+00  0.00000000E+00
  0.00000000E+00  0.00000000E+00  0.00000000E+00
  0.00000000E+00  0.00000000E+00  0.00000000E+00
  0.00000000E+00  0.00000000E+00  0.00000000E+00
  0.00000000E+00  0.00000000E+00  0.00000000E+00
  0.00000000E+00  0.00000000E+00  0.00000000E+00
  0.00000000E+00  0.00000000E+00  0.00000000E+00
  0.00000000E+00  0.00000000E+00  0.00000000E+00
  0.00000000E+00  0.00000000E+00  0.00000000E+00
