generated by phonopy                    
   1.00000000000000     
     5.2081214946409498    0.0000000000000000    0.0000000000000000
    -2.6040607473204749    4.5103655203548412    0.0000000000000000
    -0.0000000000000000   -0.0000000000000000    8.6072853060053536
   B    N    Ga
    15    16     1
Direct
  0.1669392213768930  0.3330607786231071  0.0073015121560821
  0.6661215572462283  0.3330607786231071  0.0073015121560821
  0.1669392213768930  0.8338784427537717  0.0073015121560821
  0.6666666666666714  0.8333333333333286  0.0089500691759299
  0.1627455476151472  0.3372544523848527  0.5007256160593884
  0.6745089047697197  0.3372544523848527  0.5007256160593884
  0.1627455476151472  0.8254910952302803  0.5007256160593884
  0.3333333333333286  0.1666666666666714  0.2539865766124176
  0.8365281028113901  0.1730562056227948  0.2520127651232757
  0.3269437943772052  0.6634718971886099  0.2520127651232757
  0.8365281028113901  0.6634718971886099  0.2520127651232757
  0.3333333333333286  0.1666666666666714  0.7546666029224584
  0.8349019966705638  0.1698039933411419  0.7647360709494565
  0.3301960066588580  0.6650980033294362  0.7647360709494565
  0.8349019966705638  0.6650980033294362  0.7647360709494565
  0.3333333333333286  0.1666666666666714  0.9420728907324328
  0.8353187706824301  0.1706375413648743  0.9480195621484871
  0.3293624586351256  0.6646812293175699  0.9480195621484871
  0.8353187706824301  0.6646812293175699  0.9480195621484871
  0.3333333333333286  0.1666666666666714  0.4408583330924953
  0.8511130511284402  0.2022261022568941  0.4319381696396550
  0.2977738977431059  0.6488869488715598  0.4319381696396550
  0.8511130511284402  0.6488869488715598  0.4319381696396550
  0.1676119487522706  0.3323880512477295  0.1901082844082349
  0.6647761024954731  0.3323880512477295  0.1901082844082349
  0.1676119487522706  0.8352238975045269  0.1901082844082349
  0.6666666666666714  0.8333333333333286  0.1943304656283866
  0.1659965526661880  0.3340034473338120  0.6937559404812005
  0.6680068946676382  0.3340034473338120  0.6937559404812005
  0.1659965526661880  0.8319931053323618  0.6937559404812005
  0.6666666666666714  0.8333333333333286  0.7254415146202862
  0.6666666666666714  0.8333333333333286  0.5138997843182979
 
  0.00000000E+00  0.00000000E+00  0.00000000E+00
  0.00000000E+00  0.00000000E+00  0.00000000E+00
  0.00000000E+00  0.00000000E+00  0.00000000E+00
  0.00000000E+00  0.00000000E+00  0.00000000E+00
  0.00000000E+00  0.00000000E+00  0.00000000E+00
  0.00000000E+00  0.00000000E+00  0.00000000E+00
  0.00000000E+00  0.00000000E+00  0.00000000E+00
  0.00000000E+00  0.00000000E+00  0.00000000E+00
  0.00000000E+00  0.00000000E+00  0.00000000E+00
  0.00000000E+00  0.00000000E+00  0.00000000E+00
  0.00000000E+00  0.00000000E+00  0.00000000E+00
  0.00000000E+00  0.00000000E+00  0.00000000E+00
  0.00000000E+00  0.00000000E+00  0.00000000E+00
  0.00000000E+00  0.00000000E+00  0.00000000E+00
  0.00000000E+00  0.00000000E+00  0.00000000E+00
  0.00000000E+00  0.00000000E+00  0.00000000E+00
  0.00000000E+00  0.00000000E+00  0.00000000E+00
  0.00000000E+00  0.00000000E+00  0.00000000E+00
  0.00000000E+00  0.00000000E+00  0.00000000E+00
  0.00000000E+00  0.00000000E+00  0.00000000E+00
  0.00000000E+00  0.00000000E+00  0.00000000E+00
  0.00000000E+00  0.00000000E+00  0.00000000E+00
  0.00000000E+00  0.00000000E+00  0.00000000E+00
  0.00000000E+00  0.00000000E+00  0.00000000E+00
  0.00000000E+00  0.00000000E+00  0.00000000E+00
  0.00000000E+00  0.00000000E+00  0.00000000E+00
  0.00000000E+00  0.00000000E+00  0.00000000E+00
  0.00000000E+00  0.00000000E+00  0.00000000E+00
  0.00000000E+00  0.00000000E+00  0.00000000E+00
  0.00000000E+00  0.00000000E+00  0.00000000E+00
  0.00000000E+00  0.00000000E+00  0.00000000E+00
  0.00000000E+00  0.00000000E+00  0.00000000E+00
