Ta  N  W Cu                             
   1.00000000000000     
    18.1096308199999996    0.0000000000000000    0.0000000000000000
     0.0000000000000000   23.3551997799999995    0.0000000000000000
     0.0000000000000000    0.0000000000000000   30.4818171199999988
   Ta   N    W    Cu
   216   240    24     4
Direct
  0.0000461224650081  0.0000312970540790  0.1976359673837038
  0.3343443406216622  0.0625551729081764  0.2030963924146079
  0.1656434636040345  0.0624969304260077  0.2029896081128442
  0.2500299220942566  0.1250026029382667  0.2780125653322258
  0.0828485217878949  0.0624852920133492  0.2842781930133143
  0.4173540856439217  0.0624846907307273  0.2843771132587989
  0.9999606377372530  0.1252084813524519  0.3699986157641320
  0.3324011911834290  0.0624852596918686  0.3688059858439914
  0.1673804415042781  0.0625146109566757  0.3688004049954330
  0.2497706475525590  0.1253005199958253  0.4554662224896475
  0.0841545549605272  0.0626636888721421  0.4546255308087694
  0.4164369489320734  0.0625177575157494  0.4548969755852355
  0.3336190190575365  0.0623526745889293  0.5419478608941830
  0.1630387700189928  0.0628634140422122  0.5418123860664323
  0.9998367828899859  0.1249182051146462  0.1975425500083290
  0.3342547624256085  0.1872714755643727  0.2028649937937317
  0.1658232988936277  0.1872927072189157  0.2027752262095390
  0.2500686844491042  0.2500403775590883  0.2779379425328443
  0.0826747305353663  0.1874546559510080  0.2840691262234358
  0.4172049488313547  0.1874662879537681  0.2841289450054845
  0.9999424749003083  0.2500286622622525  0.3696513301840056
  0.3325552995246284  0.1874581229822283  0.3686098203406445
  0.1673981108875111  0.1874952844017841  0.3685553959956707
  0.2500045326772451  0.2502094654938603  0.4546527909306590
  0.0833700468586400  0.1877115669715295  0.4545768552104050
  0.4158055360857489  0.1876399963306667  0.4545035110938613
  0.3358862916900378  0.1868871572776314  0.5410095512996307
  0.1657721761666480  0.1886771731893901  0.5417836979112565
  0.0000446104939584  0.2499468987103626  0.1974062445332265
  0.3343130709476583  0.3124876252218982  0.2025890128046939
  0.1659126999609200  0.3124762545455368  0.2026325274490901
  0.2501972671053565  0.3750259785332659  0.2776029647481764
  0.0828126231500406  0.3124505342004795  0.2838339490799413
  0.4173729000041035  0.3124803393962949  0.2838587550160838
  0.9999412092993936  0.3752061967537088  0.3693104416160722
  0.3324738150337012  0.3124156809753345  0.3682225128302719
  0.1671805290024295  0.3125201678411784  0.3680944154238404
  0.2501126866730345  0.3753216090527189  0.4539603662404517
  0.0839770444922792  0.3128740310867855  0.4540491430761193
  0.4158409761418085  0.3125658527645143  0.4543504777585525
  0.3332308107570867  0.3122703998242287  0.5410026224223827
  0.9997313537994614  0.3750279807886230  0.1972202998440267
  0.3343731029789723  0.4373760549596142  0.2024693188630522
  0.1659340419298445  0.4373073197789310  0.2024273496700459
  0.2499541158968412  0.9999983231957117  0.2783157859118504
  0.0824961509960929  0.4375075544578593  0.2835828084690490
  0.4173664341818082  0.4375151513736952  0.2837845577659692
  0.9999614055543233  0.9999656734605082  0.3701622197554286
  0.3326325360050220  0.4374909587567686  0.3681009502897439
  0.1674489840506723  0.4375020246739467  0.3678099354679745
  0.2496794079445337  0.0000712965688408  0.4556991488757802
  0.0833714415706979  0.4376423334365285  0.4535886682440449
  0.4151632985185927  0.4375424905486724  0.4541616462348870
  0.3349856290675817  0.4374159824261810  0.5404554246045592
  0.0000326764795773  0.5000481064600280  0.1971821419342064
  0.3343908473963282  0.5627045857913018  0.2024087019046448
  0.1658626623578670  0.5627428327183281  0.2024238959052127
  0.2501575121736934  0.6249125862395530  0.2776824146705650
  0.0827769868410897  0.5625551730155749  0.2836204580762924
  0.4174086874584191  0.5625335438183114  0.2837389381800506
  0.9999771985140384  0.6250682425973153  0.3693445007959255
  0.3325155304759875  0.5625279955325979  0.3679454203339390
  0.1673876856625895  0.5625049617615687  0.3677318847558979
  0.2502056878128300  0.6248181493730272  0.4540355156076856
  0.0838695406755576  0.5623631545983656  0.4537657298388922
  0.4154851156029409  0.5624829721057978  0.4540947902461312
  0.3338289112038311  0.5625343797016171  0.5404979747199476
  0.9996952006591258  0.6250732962552590  0.1972574500441482
  0.3342704499092761  0.6875232754027252  0.2026332712057979
  0.1659068377989428  0.6875577022073358  0.2025755109955583
  0.2501108486788581  0.7500154634679674  0.2780252145371449
  0.0825499257146305  0.6876087668623967  0.2838654746195388
  0.4172963695013578  0.6875645457976347  0.2839553139199609
  0.0000154154490986  0.7497880702042039  0.3696799357822655
  0.3326370987218326  0.6875593048514332  0.3683707270699372
  0.1674772502585711  0.6875206409593204  0.3681654988537630
  0.2498639977847645  0.7496832708614676  0.4547425414503081
  0.0836723924296976  0.6873049348097595  0.4539487989577893
  0.4154544271420448  0.6873073132215097  0.4543232646795232
  0.3347338350250055  0.6877751011123223  0.5407875345571824
  0.0000610964136172  0.7500358559060274  0.1974169282171232
  0.3342624148477071  0.8126989139303902  0.2029518079492618
  0.1657808144041439  0.8127596686446310  0.2029100315717116
  0.2499544996647032  0.8749800467614790  0.2781534451127712
  0.0828465249894563  0.8125798303012388  0.2841915627053737
  0.4173584317820414  0.8125402659504317  0.2841879138352894
  0.9999505649307139  0.8750719918426384  0.3700596456355001
  0.3323860923495161  0.8126074247876574  0.3685939889458254
  0.1673229014372168  0.8125283297327641  0.3686605317244229
  0.2496903103511343  0.8746721879019645  0.4555089772098171
  0.0840555264710261  0.8121427133841550  0.4544199695191438
  0.4162965558185050  0.8123625379871982  0.4547521894695805
  0.3339018959519464  0.8127558674639204  0.5414589258165492
  0.1632768309616566  0.8110818073974713  0.5415177618637230
  0.9997879000712828  0.8750206211434914  0.1976319045110344
  0.3343334718205355  0.9374575150217268  0.2031129583961047
  0.1656217375564708  0.9374938769135568  0.2030099243113384
  0.2502144547305249  0.5001389657303079  0.2777735962821808
  0.0826867060438303  0.9375443247794166  0.2843332119946638
  0.4172319383724528  0.9375278929924917  0.2843551360977301
  0.9999631042281578  0.4999704244116501  0.3691949756540254
  0.3324616635794442  0.9375329270662434  0.3688142480601755
  0.1674355364770577  0.9375685393205018  0.3688876544647997
  0.2502168212345097  0.4998661348280251  0.4537931843950531
  0.0834889073872986  0.9374553305302413  0.4549248400602082
  0.4158708440807359  0.9374481819833349  0.4546707465738251
  0.3362051892935156  0.9375230866522415  0.5416321746498269
  0.1659579923761711  0.9371642806779903  0.5421741711733574
  0.5000675952464633  0.0000102159505175  0.1976920671354847
  0.8342438844030511  0.0623812698666626  0.2031249815835778
  0.6655945316577814  0.0624323738654411  0.2031303986716821
  0.7498209141892005  0.1250672723960022  0.2784282854481503
  0.5827169459424439  0.0625078641922983  0.2844806195342429
  0.9171665371363815  0.0624956394079135  0.2843599774053160
  0.5000147051995896  0.1249959488695751  0.3701154980608337
  0.8324188396440917  0.0625159409492539  0.3688499152085569
  0.6674005603267403  0.0624820268935338  0.3690085975281505
  0.7497495744369047  0.1252765399264746  0.4556068084880280
  0.5834030409663811  0.0625226203580169  0.4550523650994194
  0.9159258741456213  0.0626361363615544  0.4546018910949954
  0.8365730700548184  0.0625322752414732  0.5417551189545904
  0.6655595866082038  0.0624250816717336  0.5422567180503037
  0.5003529604966062  0.1249725592219377  0.1976016407765115
  0.8341848459917358  0.1874428928346461  0.2029233912849406
  0.6656439670789851  0.1874637112723150  0.2029815759356950
  0.7499021724313479  0.2500924814945478  0.2781584416799276
  0.5828064637990877  0.1874821527233408  0.2843971094837698
  0.9173051017437359  0.1874451597056819  0.2841622220322151
  0.5000558955489112  0.2501323021161141  0.3698618270905456
  0.8322989372524603  0.1874523346850978  0.3686604418805786
  0.6672203211350904  0.1875055861698200  0.3690022471121281
  0.7497786564552129  0.2501176490995434  0.4550909392401579
  0.5835823742451254  0.1876530466186495  0.4548781755731710
  0.9162876408933727  0.1876381167184888  0.4545687744037892
  0.8344899356069462  0.1873757641733604  0.5415585150446773
  0.6638770765703725  0.1871128036587635  0.5418431697850821
  0.5001704846326263  0.2500399477323469  0.1974839462945610
  0.8340646302597676  0.3122963414685955  0.2027882739259042
  0.6657831179838283  0.3123501442072651  0.2028217229681744
  0.7498650530700246  0.3750446834074523  0.2781562144473426
  0.5827371603923552  0.3124983541649087  0.2841435653815054
  0.9170959693140972  0.3124690857761792  0.2839377566327101
  0.5000685951104487  0.3750980656061387  0.3695881233148697
  0.8325590117292236  0.3125006258681680  0.3683368373667619
  0.6674416074454967  0.3124939315667064  0.3686301229113269
  0.7502033657603704  0.3752032357600896  0.4545774731017929
  0.5832908072606600  0.3126154468135169  0.4546094678548656
  0.9154483873965020  0.3126482861496029  0.4541122861898472
  0.8387608802414590  0.3126883302015386  0.5409657009135316
  0.5004733403486057  0.3749841093941200  0.1973349692825792
  0.8339664929005366  0.4376177567855208  0.2025809546995987
  0.6657952162641152  0.4376273989971580  0.2026998647399552
  0.7498937890457071  0.0000567896068375  0.2783244668756737
  0.5828058807804055  0.4375255864126757  0.2840614223371745
  0.9173859212817419  0.4375125029277172  0.2837574754163441
  0.4999597655397139  0.0000958896294634  0.3702335027924661
  0.8324547160986597  0.4375413555630487  0.3681733629303707
  0.6674385840972690  0.4375353716539081  0.3686420136118542
  0.7498906078963117  0.0001122440197605  0.4557998410238611
  0.5831921298368883  0.4375971117422850  0.4545785766766812
  0.9157944396446993  0.4375980564858182  0.4539199596394923
  0.8371843831218158  0.4376313728562735  0.5409572275594101
  0.5001995974624194  0.5001203621120709  0.1972750919699848
  0.8342320138997437  0.5624834649388220  0.2025457861095958
  0.6656568372380320  0.5624564909986134  0.2026327073867762
  0.7499280219397662  0.6249140763652576  0.2782473567997457
  0.5827634173571354  0.5625637232855638  0.2840675559592896
  0.9170780461978154  0.5625776580326942  0.2837900258625510
  0.5001523449495764  0.6249396359097688  0.3696677344619914
  0.8326070633271314  0.5625849905870126  0.3682025173024428
  0.6674652357379713  0.5625596404037339  0.3685926933419736
  0.7502395523552110  0.6250405779004709  0.4546680422489260
  0.5829645297702015  0.5624777729568677  0.4545415622257778
  0.9153433595269291  0.5625347212766201  0.4540496927198348
  0.8400767159705183  0.5625323340495498  0.5408888612573719
  0.5005057351841273  0.6249502975110346  0.1973571285089974
  0.8340573604171340  0.6877977368666919  0.2026884359977785
  0.6657408867207693  0.6877408610558362  0.2028271195112765
  0.7499339200437873  0.7499998845249252  0.2781484315290612
  0.5828231048811219  0.6875439946585686  0.2842350811715519
  0.9173457888279302  0.6875926529427119  0.2839069319874028
  0.5000927169778038  0.7499142719463023  0.3698915897670076
  0.8324035922419597  0.6876163184209290  0.3684264253653780
  0.6672642674817837  0.6875496757587101  0.3687840804333078
  0.7502400189344627  0.7499497779749831  0.4550765432947799
  0.5836385647681936  0.6874606812402533  0.4547502282204476
  0.9162364400643881  0.6874999571879741  0.4542621425774627
  0.8358391532776395  0.6874589122281591  0.5412781472500825
  0.5001055341703520  0.7500271561663254  0.1975227031282145
  0.8341283146562333  0.8124982430181973  0.2030100021013723
  0.6657178783429316  0.8124942115529734  0.2030231862774983
  0.7499227571659759  0.8749657390785401  0.2784445179646582
  0.5827726888760836  0.8125346992045195  0.2843692179507826
  0.9171063500872307  0.8126028086846588  0.2842161525446230
  0.5000215608018479  0.8748705026442920  0.3701949863821383
  0.8324768378034904  0.8125773898810777  0.3686813550865367
  0.6674623537404756  0.8125782940071673  0.3689076201426147
  0.7498987312168452  0.8748562013563017  0.4556491451271754
  0.5832912398831098  0.8124759099245935  0.4550105636024142
  0.9159118481487738  0.8124123124176705  0.4544009123543873
  0.8375012650418725  0.8127866127704735  0.5414023435349122
  0.6665513825216536  0.8129303253678799  0.5420999884914721
  0.5003093167768355  0.8750123388903503  0.1976701379238008
  0.8342391024835649  0.9376474013588307  0.2031289029042469
  0.6656416628877793  0.9376430833984699  0.2031781133831885
  0.7498818457365530  0.5001521328380036  0.2780092167367627
  0.5828133531154194  0.9375283425064111  0.2844795227841530
  0.9173148024560689  0.9375531235685983  0.2844199744879035
  0.5001229743932498  0.5000531218241662  0.3695360287695379
  0.8323893795857416  0.9375890215310960  0.3689259347962732
  0.6673082793070222  0.9375494964902060  0.3690736222286546
  0.7502120272466328  0.5000135840522972  0.4544494977117566
  0.5839772323069496  0.9375094990062465  0.4548996663585427
  0.9166743543232769  0.9375264292961205  0.4549180706155482
  0.8337805745259317  0.9376559492595220  0.5420622085011289
  0.6632018898723970  0.9377414647100579  0.5419122444018001
  0.4058654085401514  0.0000115085308607  0.2327149059542819
  0.2500048575010965  0.9999794826664186  0.2006131891048213
  0.0941969292273583  0.9999806703326186  0.2326878312953227
  0.1549942551141612  0.1250053585274031  0.3160641900963341
  0.0000084103249307  0.1249485023348171  0.3033270286691732
  0.3450186043897290  0.1249380907875093  0.3161025095737031
  0.4010634558062520  0.1250137681881611  0.4026179985926888
  0.2499138915741241  0.1250478432149791  0.3876986220534420
  0.0988337326900393  0.1251427084663632  0.4025984712262769
  0.1515637173489708  0.1258336393781292  0.4881491664948285
  0.9999574664676771  0.1253482383559970  0.4739091940527942
  0.3479994534708055  0.1248609447880185  0.4880282233287545
  0.4056318196943920  0.1249876134856223  0.5695904915225967
  0.2497739754563923  0.1263492790741978  0.5581249840936309
  0.0946655111989045  0.1269405813208380  0.5697889690622944
  0.4060058918454033  0.1249466357098825  0.2325417693503056
  0.2499877700113160  0.1248734048997093  0.1992671448124028
  0.0941707732472850  0.1249372838506631  0.2324819453782467
  0.1548761591635284  0.2499121733688412  0.3157539404646172
  0.9999813910857469  0.2500554699583972  0.3030450000337126
  0.3451576552269842  0.2499821462881116  0.3158496793141552
  0.4011336002497501  0.2500950475406611  0.4023332284973336
  0.2499187368148199  0.2500209764679724  0.3871359369882441
  0.0988067003106963  0.2501775485364419  0.4022906416258891
  0.1521400675265951  0.2508810240120383  0.4875101391530805
  0.9999257603471889  0.2506462919833439  0.4733730701075274
  0.3477180973694018  0.2503213126719146  0.4877245543801934
  0.4053334972134266  0.2507956080041112  0.5690894469283663
  0.2481279235175577  0.2532931981893682  0.5578532108501690
  0.0959160685174894  0.2536342229060935  0.5686962790714674
  0.4058405243565346  0.2499171724718963  0.2323271400192510
  0.2500596370714092  0.2498751562428225  0.1999956494576480
  0.0943288180462716  0.2498779315296105  0.2322894381180731
  0.1548763186086433  0.3750596346324429  0.3154113105016165
  0.9999664507920727  0.3749188122881009  0.3027699019605876
  0.3452992622835040  0.3749466262344185  0.3155727394068606
  0.4010849508317094  0.3749899382105326  0.4021095844025098
  0.2498789006954709  0.3749508586733725  0.3866265348943827
  0.0988155010440295  0.3751510481958178  0.4019218838554650
  0.1526449728623334  0.3758831371550642  0.4868261204802451
  0.0000372018451742  0.3754952056625811  0.4731102399548135
  0.3475107013883445  0.3748734785213728  0.4873590348100620
  0.4023602472453618  0.3750944734552988  0.5690793672197643
  0.2466446927376751  0.3764778559110198  0.5572057060928230
  0.0983459717189632  0.3770277236243942  0.5681148434645564
  0.4059830178325470  0.3749842298470512  0.2320580802023287
  0.2501231124402281  0.3749657379923406  0.1987106224053434
  0.0942428701972275  0.3749351377048527  0.2319825403046138
  0.1549347496431608  0.9999875427052274  0.3162782556936108
  0.0000106694548450  0.0000985581733204  0.3034718815825954
  0.3450630229705780  0.0000295981452041  0.3162614031289550
  0.4010453211507183  0.0000141576137267  0.4027289628433124
  0.2499115416497233  0.0000069490035273  0.3878845602437835
  0.0988429244157345  0.0000272660255831  0.4027575921245301
  0.1515668387132294  0.9998244159904957  0.4883568786752122
  0.0000080368892839  0.0002780728814287  0.4739255322362865
  0.3480155652256585  0.0001708392994573  0.4881464269839100
  0.4058376369364609  0.0003907739223692  0.5695924294680452
  0.2498592558813399  0.0000364703845648  0.5583087751310600
  0.0940662520843389  0.9994525533342440  0.5698208824215527
  0.4058454337205859  0.5000167247753851  0.2320572016702940
  0.2500852938129228  0.5000600902761860  0.2003808216558127
  0.0944421225323140  0.5000198654821659  0.2319441166981520
  0.1547980675378113  0.6251461303555104  0.3154257816716211
  0.9999585990083588  0.6249651394311826  0.3028019397483916
  0.3453135631271280  0.6250869716228564  0.3155780646482853
  0.4011408413224444  0.6249155181010977  0.4020719440437617
  0.2499744775889781  0.6249397137522692  0.3867152926091748
  0.0989108084260266  0.6248467331804477  0.4019094336061002
  0.1526641080548785  0.6245961770327071  0.4868975721503901
  0.0001809858573196  0.6247210659379334  0.4730305298539790
  0.3475673416747682  0.6247157171698206  0.4873519597475280
  0.4031573872681520  0.6246283417680516  0.5690036793757258
  0.2466283852413937  0.6234947858322926  0.5573270629064453
  0.0981893238752960  0.6238971249504957  0.5681211057759299
  0.4059825348677535  0.6250896000485895  0.2320818029549088
  0.2500846115111059  0.6250779788732146  0.1986886974986675
  0.0942447637422177  0.6251678975738102  0.2319977273653677
  0.1548748839105656  0.7500254657509942  0.3158313804639761
  0.9999642342459794  0.7501351386773862  0.3030779472155771
  0.3452127059794705  0.7500967120176156  0.3159142860001225
  0.4011397327286446  0.7499969374419209  0.4024026693165226
  0.2499588559531674  0.7500458486420456  0.3871996711174290
  0.0988684799525785  0.7498041060940537  0.4022910528771959
  0.1520267917247153  0.7486902649646865  0.4876399670531839
  0.0001037204894700  0.7494164954048088  0.4737096446329545
  0.3477301996157749  0.7499333502066747  0.4876965458279585
  0.4038576820349746  0.7498330796170620  0.5692616166913069
  0.2481119176069626  0.7467436698874437  0.5577653239052225
  0.0970577326220123  0.7453190317551446  0.5692283849341351
  0.4058325884877618  0.7500611049375934  0.2324025889156331
  0.2500324223275214  0.7501395730105358  0.2002273072179648
  0.0943464329044872  0.7501246262480450  0.2323441046845716
  0.1549169487585047  0.8751168629540018  0.3161454249493829
  0.9999816776794432  0.8749759392424039  0.3033946065458082
  0.3450113777458270  0.8750361052228897  0.3161604119937849
  0.4011210906352503  0.8749236425928615  0.4026485318015247
  0.2499402573798335  0.8750504042322120  0.3877494636559149
  0.0988278455741849  0.8749954468547756  0.4026573518873988
  0.1515178520469647  0.8745837601973605  0.4881914780496999
  0.0000063549641638  0.8745600427847009  0.4738065378244585
  0.3479891241271531  0.8747542421104555  0.4880265631719780
  0.4060651480975324  0.8738491407541389  0.5694141156480725
  0.2497559146202661  0.8736935834266291  0.5581964547668861
  0.0942630009348164  0.8742478751692033  0.5697252373057893
  0.4059445559476345  0.8750512602101281  0.2325698118033444
  0.2500136314177936  0.8751312937730376  0.1993594145878603
  0.0941045562788361  0.8750937694809764  0.2325462697692018
  0.1546901939374550  0.4999056906024819  0.3153199781631244
  0.9999736558733190  0.5001347546485064  0.3026698988282632
  0.3454768429969590  0.4999892083736768  0.3154877970934962
  0.4011265025656527  0.5000024746019776  0.4020057075566186
  0.2499215293133616  0.5000101958777634  0.3864975309530791
  0.0988754238549845  0.5000282276466592  0.4017969267235273
  0.1527077371952217  0.4998268499144842  0.4866638098984097
  0.0000723029741110  0.4999037914780047  0.4729767561946048
  0.3475183651686464  0.5001215779465369  0.4871991556182849
  0.4024902065537930  0.5001028210044112  0.5689019096884351
  0.2465690520867412  0.4998573381263824  0.5571098991517829
  0.0985617046013729  0.4994821394554094  0.5680357533157618
  0.9058320110947946  0.9999857468223823  0.2327149487147295
  0.7499093332853022  0.0000351592428842  0.1997290576850546
  0.5941721615332654  0.0000225276282890  0.2328240006145492
  0.6547892297671254  0.1249961058462290  0.3163923220000200
  0.4999666418641056  0.1250689841877630  0.3034461773430124
  0.8450368519391276  0.1250279085880663  0.3162042827459572
  0.9010659815403841  0.1251075552352958  0.4026134221007851
  0.7498743805213266  0.1250078368731096  0.3878650761332807
  0.5987548235198759  0.1250345612416410  0.4029182837828458
  0.6514858882351433  0.1251477158955154  0.4883990619520091
  0.4997614868781497  0.1254305380548857  0.4738209024356692
  0.8480362503552499  0.1253335754625198  0.4881291723348085
  0.9061380285456480  0.1261109895864010  0.5693431522262244
  0.7497046567962968  0.1265848461293047  0.5583538464249784
  0.5945023487940944  0.1252495757962251  0.5701381636319951
  0.9056919052324659  0.1249516750124897  0.2326332483096536
  0.7499243793902650  0.1249279633166296  0.2006334927305744
  0.5942748517574046  0.1249901003153440  0.2328239058039756
  0.6547828059170087  0.2500516888494175  0.3161677828844134
  0.4999559995215392  0.2499632376852077  0.3032412444668466
  0.8450580324971355  0.2498930078687351  0.3159229077160148
  0.9010266978214432  0.2499994462070418  0.4022637941873839
  0.7498950728497249  0.2500416180056249  0.3875288331535955
  0.5987342546407532  0.2502355789924451  0.4027279979708780
  0.6517026189272244  0.2504748063169657  0.4882642809881403
  0.4996350848714854  0.2506932576172787  0.4738202186356375
  0.8479109071252822  0.2498581337691448  0.4878299587788959
  0.9061918711076729  0.2495841464900934  0.5693321129440818
  0.7492426042842197  0.2537427628603410  0.5579827962914905
  0.5967816043837573  0.2519746201590678  0.5707885537833803
  0.9057762857176570  0.2498859186190714  0.2323544201633467
  0.7499247441346242  0.2498588003354314  0.1994142491822188
  0.5943221455742176  0.2499260424104364  0.2325797423003166
  0.6546487817197644  0.3750502942362388  0.3160548756089412
  0.4999998037737825  0.3750354308772827  0.3030130865254250
  0.8451648139316745  0.3750548965376339  0.3157048756782928
  0.9010876093658879  0.3751408789591721  0.4020117062305602
  0.7499756913482187  0.3750043042799120  0.3871894865717422
  0.5986931465062781  0.3751757729513514  0.4026301892537845
  0.6524531606536144  0.3751473935385761  0.4876966231407920
  0.4995597482882346  0.3753308444674985  0.4734610379658903
  0.8482472907276062  0.3753984548528990  0.4874945237919164
  0.9067958631852449  0.3756709418516735  0.5690370116841024
  0.7491774593961580  0.3763218110693387  0.5574892055449894
  0.6024571913254775  0.3760620690474994  0.5699795377146017
  0.9055598308588273  0.3749732403093020  0.2321892791100666
  0.7499223733764282  0.3749564822685443  0.2002869287713835
  0.5945007207794717  0.3749888345995132  0.2324685057332943
  0.6549154583263999  0.0000292020957673  0.3164342697496707
  0.4999830671739929  0.9999629941160890  0.3035477184850990
  0.8449641727487602  0.0000031011616954  0.3162992011922583
  0.9010917236852833  0.0000449146876420  0.4027518008229549
  0.7499514981078761  0.0000352713149852  0.3880015930209595
  0.5988060736836047  0.0000510885017633  0.4028943795181661
  0.6515957653366868  0.0002414475315575  0.4884165637707625
  0.4998129935709130  0.9999092460456893  0.4740098950720295
  0.8482076056108951  0.9998794656339953  0.4882486302170079
  0.9058668606557774  0.9995806749978655  0.5696452776445184
  0.7498609978150341  0.0001284285717915  0.5584409140389397
  0.5939245741713250  0.0004835654280484  0.5700146885659905
  0.9056640243214389  0.5000227206048891  0.2320619495162930
  0.7499375779798925  0.5001212020558370  0.1990943190955150
  0.5943661754112313  0.5000521391920358  0.2323922518894079
  0.6546727490467177  0.6250253888454722  0.3160910808433215
  0.4999947761916204  0.6250510640678399  0.3030641245284826
  0.8452488278593151  0.6251991665043164  0.3157552415353635
  0.9010711442343933  0.6251041706939802  0.4020479606734995
  0.7499688794552029  0.6250345762737268  0.3873013437608748
  0.5987122763688717  0.6249253502962873  0.4027023320050915
  0.6524800049514710  0.6248073797680647  0.4877933791136186
  0.4996132872542631  0.6245717304348162  0.4738418083434155
  0.8483213453584710  0.6253368039448191  0.4876003706268008
  0.9069412245704527  0.6253580684696587  0.5691775033603506
  0.7493192968493432  0.6234404387174166  0.5577024352504623
  0.6018111385002243  0.6242714530794728  0.5701063081369639
  0.9055211467964597  0.6251511677789310  0.2322273798360399
  0.7499504870816764  0.6250577241862274  0.2008638573525161
  0.5945395768627577  0.6250883045235867  0.2325429482927603
  0.6548194248107606  0.7500457460644370  0.3161884655636484
  0.4999976345338837  0.7499906783778485  0.3032733719372018
  0.8450516259732694  0.7500517627633272  0.3159793106652913
  0.9011610164395378  0.7499711935149236  0.4023475786488717
  0.7499848395613782  0.7500751436585631  0.3875503927992980
  0.5988436280853975  0.7499084577741897  0.4027953414763417
  0.6520764261119254  0.7497830536539567  0.4881863266549331
  0.4997120962804331  0.7492929763065916  0.4734856134807828
  0.8482366866420250  0.7497728718081618  0.4879082582235554
  0.9068689537210730  0.7493593549794682  0.5691083707919944
  0.7494880329206666  0.7468504966519021  0.5582153559195930
  0.5983133264686273  0.7493337167850527  0.5707721545326123
  0.9057670535652136  0.7501102823631243  0.2323720664923741
  0.7499005446563203  0.7501147488770030  0.1990804807281350
  0.5942768216732830  0.7500571726620038  0.2325875995304827
  0.6548928566994192  0.8750141440017600  0.3164064916892357
  0.5000072181210768  0.8750358158249014  0.3035104716585835
  0.8450429877565355  0.8751265707240634  0.3162559115748209
  0.9011023651937862  0.8750557766403020  0.4026468520909603
  0.7499230069939173  0.8750834944741825  0.3878798495132472
  0.5987800372026371  0.8748936041350959  0.4029048128723716
  0.6516730849001036  0.8747190959908764  0.4883930763827991
  0.4998555863252037  0.8747501571184841  0.4742738270313254
  0.8481488594700863  0.8752010748877765  0.4881202846193489
  0.9061021205869864  0.8753573137991495  0.5694749124956076
  0.7499639245719081  0.8736666866011404  0.5583085026881918
  0.5942435603481186  0.8735325075722002  0.5700038640377372
  0.9056626957522838  0.8751107824558915  0.2326946143490218
  0.7499347937142105  0.8751040151774845  0.2006872391949059
  0.5943610482340347  0.8750525998145093  0.2328219152496018
  0.6546621479255137  0.5000307217862314  0.3159843662933284
  0.5000079722780697  0.5000288140141294  0.3029511515137031
  0.8452042876219679  0.4999586544117562  0.3155896818438038
  0.9010917346731091  0.5000265693722170  0.4019147744814120
  0.7499673754115790  0.5000765317903912  0.3870933935124583
  0.5986475190331007  0.4999918157048313  0.4026103391834397
  0.6524854925594639  0.5001404330751882  0.4875674656741324
  0.4995647830580410  0.5000559409851988  0.4737706867416307
  0.8482588969523732  0.4998025011313558  0.4874409566197144
  0.9068860788630886  0.4996381657684239  0.5690958186577788
  0.7495329647824036  0.5001209461258966  0.5575579257548924
  0.6023701344013617  0.4998603772675096  0.5704277977813703
  0.0003111400626707  0.1333386759866428  0.5407469918139256
  0.0003224661744881  0.2450297638461549  0.5401913354208929
  0.0012549313748380  0.3828178234311252  0.5397062866767968
  0.1628731155554277  0.3138318719512796  0.5392014170051525
  0.0000932780320468  0.9929854602937880  0.5408904743916736
  0.1655378841921333  0.4380028207673874  0.5389824584416019
  0.0012238416138572  0.6305389716597674  0.5396739989072685
  0.1634281481168216  0.5620821445746031  0.5389845380518921
  0.0009108748536164  0.7410578544370026  0.5404273550989416
  0.1651377649124797  0.6864201322486494  0.5395698564232134
  0.0003504185669243  0.8814357386710512  0.5407374730925838
  0.0014085714627043  0.4932666244301060  0.5395611478957747
  0.4998443197089628  0.1201319259138600  0.5408601229204066
  0.4987119680671412  0.2559444964600246  0.5405288418768777
  0.4975106606613195  0.3746026954086545  0.5401949163761728
  0.6694874854340966  0.3119709178304788  0.5389189562025223
  0.4999541586925886  0.0064464168461242  0.5409131807076690
  0.6697228736909224  0.4379233733323602  0.5385038248550558
  0.4977288604954069  0.6224637519769871  0.5405624602899195
  0.6710666352102663  0.5623896265688018  0.5385564811614358
  0.4984684609267589  0.7515794020094688  0.5402508547989271
  0.6679114806574660  0.6880381862088427  0.5389358630495025
  0.5001997135531155  0.8675256979680910  0.5410958956629059
  0.4978908222979328  0.5008247219108455  0.5405769652295689
  0.5590318247475494  0.6859915734796687  0.6055994053498068
  0.5604181168373330  0.5619641771953923  0.6070298587787377
  0.5640692958218949  0.3158339635855043  0.6078553657773469
  0.5556061796818099  0.4375698763573439  0.6061099413075937
 
  0.00000000E+00  0.00000000E+00  0.00000000E+00
  0.00000000E+00  0.00000000E+00  0.00000000E+00
  0.00000000E+00  0.00000000E+00  0.00000000E+00