Ta  N  W Cu                             
   1.00000000000000     
    18.1096308199999996    0.0000000000000000    0.0000000000000000
     0.0000000000000000   23.3551997799999995    0.0000000000000000
     0.0000000000000000    0.0000000000000000   30.4818171199999988
   Ta   N    W    Cu
   228   240    12     1
Direct
  0.0000029339322509  0.0000847262199883  0.1975167140212122
  0.3341860567527490  0.0625585457781241  0.2026702870213697
  0.1657719912477660  0.0626130582019897  0.2027622334999535
  0.2498950794076293  0.1251173086745325  0.2778984484079530
  0.0827736662327467  0.0626470631898428  0.2840906204634095
  0.4170802216437224  0.0625772030288019  0.2839801377573963
  0.0000082723894579  0.1251585715816219  0.3698863553157139
  0.3324683877934191  0.0626478490100837  0.3684106430547018
  0.1673124848248619  0.0626621393077897  0.3683972821191048
  0.2502694548196374  0.1254868120815047  0.4550387938151346
  0.0839702816145405  0.0626635081775433  0.4546579018926735
  0.4160831562912577  0.0627087223639791  0.4543008738143754
  0.0000041549032517  0.1252446766038418  0.5410785239419837
  0.3352365147183463  0.0631239267732440  0.5418453702381001
  0.9999989033663752  0.1251074697087518  0.1975100076969056
  0.3341667428736201  0.1875474413043889  0.2026687679043846
  0.1657826226502692  0.1875763986619461  0.2027402823903159
  0.2499694664358287  0.2500986171131601  0.2778998300912647
  0.0827196360378650  0.1876369553727386  0.2840701956913847
  0.4171303857658089  0.1875764177597290  0.2840049944381278
  0.0000012100515860  0.2501585645273821  0.3698440844682338
  0.3324460374490741  0.1876272945079478  0.3684321474123138
  0.1673702752942319  0.1876519217452355  0.3684747569433071
  0.2505114628997873  0.2497888252182392  0.4550382378330795
  0.0836285745035710  0.1876871761197876  0.4547011650434030
  0.4162357914279724  0.1875995372284365  0.4543084605253824
  0.9999994252851820  0.2500875610491846  0.5410667024485392
  0.3357114280398505  0.1873577054785969  0.5416418864489785
  0.1656783644333757  0.1877136549938285  0.5419084831189025
  0.9999977241509441  0.2500705468511697  0.1975128140383760
  0.3341941797894634  0.3125565167152189  0.2026628467780824
  0.1657709383861032  0.3126102168819358  0.2027533211896468
  0.2498945417337310  0.3750979137173971  0.2778982513646184
  0.0827778848296958  0.3126351335593966  0.2840859569459724
  0.4170750647545773  0.3125754742150306  0.2839833949981454
  0.0000086116698199  0.3751640803827385  0.3698861099285367
  0.3324621644297423  0.3126374398155178  0.3684092081291297
  0.1673238984925121  0.3126597612991731  0.3683949903608834
  0.2502786524675855  0.3755179875087151  0.4550407968437113
  0.0839563497582319  0.3126533390443313  0.4546469946214557
  0.4160895796757487  0.3126656974616537  0.4543110759418738
  0.0000040570907416  0.3752785221538844  0.5410681975571947
  0.3352672383662778  0.3130093993518628  0.5418508243233120
  0.9999991398092973  0.3750951311683792  0.1975104383884485
  0.3341573104135520  0.4375443321758539  0.2026764053278356
  0.1657914411525567  0.4375658804740397  0.2027472738307665
  0.2499698932760523  0.0001036212290657  0.2778961515537688
  0.0827185125454264  0.4376339895771935  0.2840697658466809
  0.4171318475948524  0.4375740768645926  0.2840020615047507
  0.0000073258841198  0.0001695680069176  0.3698551126939478
  0.3324539416295522  0.4376158042871481  0.3684389134122057
  0.1673589168834155  0.4376504884088916  0.3684744938394289
  0.2505168832054068  0.9997988277187844  0.4550249149271011
  0.0836412182310227  0.4376767979755627  0.4547246288512667
  0.4162438249944245  0.4375632562423490  0.4543049104360506
  0.0000102746488295  0.0000873671687529  0.5410607954089457
  0.3357008238930277  0.4372385283128466  0.5416311054900333
  0.1656706147290734  0.4376489832219264  0.5419044566038025
  0.0000009557899432  0.5000591295460666  0.1975200629366398
  0.3341911767372068  0.5625577562160586  0.2026672020180058
  0.1657866339976763  0.5626180588315464  0.2027670356425801
  0.2498836554218400  0.6250900040447149  0.2778771465892760
  0.0827403178216173  0.5626281123062995  0.2840908605293677
  0.4170787536542946  0.5625747630910141  0.2839812676207174
  0.0000258444907431  0.6251558768230652  0.3699174680877562
  0.3324457551194584  0.5626338413989345  0.3684054778911019
  0.1673277341016970  0.5626590453704097  0.3683822557626257
  0.2502236978417542  0.6254567379122804  0.4550315096207243
  0.0839191985707046  0.5626428743105407  0.4546603071994113
  0.4160607225422552  0.5626117060316389  0.4542662302025491
  0.0000310113088418  0.6252554504270549  0.5410593395569236
  0.3353839302280193  0.5629283712087414  0.5418534667607915
  0.0000011450920141  0.6250890447801964  0.1975135212122865
  0.3341708127594103  0.6875498336447308  0.2026716360028402
  0.1657972554935441  0.6875725694949963  0.2027571504686705
  0.2499455531214494  0.7500954310961703  0.2778688185807070
  0.0826761350111198  0.6876335267522009  0.2840490247442276
  0.4171293795042530  0.6875791819916017  0.2840071105613475
  0.0000299557485377  0.7501653399364585  0.3699008907929766
  0.3325309258159095  0.6876202822294530  0.3684458563013990
  0.1673992402434337  0.6876445680034848  0.3684223631462373
  0.2504295419191394  0.7497996069170583  0.4549631369373017
  0.0835579512025362  0.6876836562892734  0.4547178529618847
  0.4160910271692302  0.6875685569363341  0.4542822880325090
  0.0001312035174124  0.7501122702153964  0.5410248520006675
  0.3347689693953768  0.6870399573491923  0.5413217775246864
  0.1654731773707070  0.6876824693171528  0.5418690718507762
  0.0000147695334931  0.7500770145404090  0.1975124970477324
  0.3341993365706202  0.8125549618035350  0.2026651180949202
  0.1657832322455377  0.8126102392369390  0.2027661525591924
  0.2498857939594501  0.8751203016356328  0.2778793280227063
  0.0827303414298726  0.8126398934454215  0.2840716337490079
  0.4170781934180567  0.8125714023816499  0.2839941630125651
  0.0000218038371713  0.8751517833699509  0.3699181128389810
  0.3325465824108420  0.8126470574696540  0.3684307433410154
  0.1673392096243731  0.8126612238946223  0.3683495166135415
  0.2502157701134493  0.8755345351479136  0.4550273334235584
  0.0838817886220298  0.8126610494366560  0.4546543821390259
  0.4159702253706783  0.8126982323420293  0.4543141785696392
  0.0000244260093964  0.8752723104905868  0.5410690525689219
  0.3343796251189275  0.8132777319027511  0.5415003474627369
  0.9999990152395668  0.8751064432656008  0.1975118159615263
  0.3341568955516649  0.9375451424445345  0.2026761462490612
  0.1657873721527210  0.9375708184901725  0.2027566154841978
  0.2499721127758789  0.5000922714963281  0.2778937247826150
  0.0826875619450007  0.9376448272360633  0.2840704680202677
  0.4171344851278675  0.9375758982224269  0.2839981050733087
  0.0000079583935175  0.5001560106723275  0.3698588877205324
  0.3324301051180143  0.9376286039017074  0.3684228322636613
  0.1673660041890628  0.9376522746983937  0.3684590049977317
  0.2505184604807482  0.4997845451830401  0.4550401421764718
  0.0835706277156945  0.9377006903023357  0.4547200601917538
  0.4162018304023007  0.9376608624447229  0.4542520591587831
  0.0000316033372556  0.5000960701240942  0.5410742453315578
  0.3358302841288889  0.9374461811164281  0.5416368902126436
  0.1656877774244450  0.9378110122076535  0.5418721755930278
  0.5000013500741645  0.0000460292264606  0.1975084725838769
  0.8342230612904231  0.0626139555124112  0.2027651191073900
  0.6658188407628174  0.0625551186607964  0.2026719053271222
  0.7501084408321717  0.1251188787420006  0.2778984891587513
  0.5829101317556322  0.0625850813184599  0.2839795685006123
  0.9172307569016525  0.0626480853654670  0.2840932557929889
  0.5000005034566897  0.1251342518818817  0.3696416151237614
  0.8327045584239841  0.0626662007594589  0.3683973877801776
  0.6675484699567420  0.0626456871047765  0.3683939335893669
  0.7497178603841874  0.1254907210491183  0.4550309757681674
  0.5838705311419758  0.0627175134274864  0.4542848541837969
  0.9160487900499348  0.0626801268220447  0.4546551053512573
  0.4999990050350576  0.1250654578547170  0.5409999897582694
  0.6647037179185347  0.0632235255119795  0.5418620266970180
  0.4999995339490440  0.1250762041023918  0.1974880240213324
  0.8342129230059996  0.1875702614166315  0.2027389883922552
  0.6658429136361619  0.1875541477906992  0.2026720761067082
  0.7500411078531855  0.2500989704045651  0.2779031363697015
  0.5828651207159936  0.1875772565271703  0.2840006013351584
  0.9172765342039000  0.1876401492637427  0.2840696597008474
  0.4999938070264633  0.2501031475391358  0.3696090794088178
  0.8326483938098335  0.1876529025314255  0.3684771626444032
  0.6675729883448085  0.1876325066368025  0.3684230549011929
  0.7494887195121223  0.2497915842156644  0.4550324818560938
  0.5837568527971584  0.1876156941085512  0.4542915083062340
  0.9163660832494926  0.1876866759629578  0.4547164025896961
  0.8343381993773846  0.1877270132367457  0.5419068378456942
  0.6642460197988598  0.1874138871710613  0.5416528508090224
  0.4999975773249759  0.2500288944962961  0.1975030969807676
  0.8342326826647408  0.3126081948146577  0.2027517580793585
  0.6658141031288380  0.3125504000975639  0.2026663804196360
  0.7501076489142520  0.3750988668526460  0.2778985433947838
  0.5829203918788792  0.3125740945797517  0.2839792661942795
  0.9172216651656200  0.3126368114634488  0.2840878768178285
  0.5000003793467442  0.3751178481411870  0.3696421592416641
  0.8326943180738766  0.3126594937598313  0.3684022241575704
  0.6675541527839854  0.3126284154163130  0.3684018278444512
  0.7497220081159242  0.3755045200666416  0.4550294754848139
  0.5839016643697903  0.3126442028697056  0.4542954006110378
  0.9160360345219232  0.3126494394948267  0.4546576248454528
  0.5000006034975542  0.3751103677910450  0.5409981075184405
  0.6647158478514328  0.3129349428683028  0.5418606985995424
  0.5000004415631096  0.3750542959342482  0.1974935460489604
  0.8342124038046919  0.4375731002701215  0.2027477136670726
  0.6658464513982878  0.4375484175263935  0.2026787049637662
  0.7500432590815720  0.0001052912366148  0.2778950442614416
  0.5828559409316014  0.4375691620776436  0.2839999376740820
  0.9172829492008816  0.4376304570776526  0.2840711099881972
  0.4999961962442612  0.0001331692819733  0.3696055419280739
  0.8326553969101340  0.4376468638279434  0.3684726444165065
  0.6675650730133142  0.4376147441963525  0.3684173847692449
  0.7494957770967048  0.9998270810728798  0.4550147868725389
  0.5837275899628906  0.4375526103726202  0.4542856126560721
  0.9163817713146685  0.4376589025702486  0.4547189635548392
  0.8343133632528819  0.4375735561819099  0.5419082429882849
  0.6642150691380024  0.4370842611351762  0.5416543052077856
  0.5000035853068354  0.5000195298506682  0.1975140873669616
  0.8342209310410169  0.5626125608423038  0.2027683019278541
  0.6658215965696002  0.5625560134915091  0.2026759410007273
  0.7501090486594038  0.6251120668472652  0.2778824389872554
  0.5829044990104038  0.5625799243788521  0.2839820159430246
  0.9172308678544496  0.5626343985875550  0.2840914385061311
  0.5000394662788992  0.6251095986968451  0.3696561968449856
  0.8327036276279784  0.5626534833753212  0.3683921219103041
  0.6675423352473473  0.5626204906797980  0.3683814430661343
  0.7497327860148317  0.6254597392160406  0.4549581174988333
  0.5838309081744910  0.5625626197846216  0.4542567994355977
  0.9160184712153807  0.5626274380098621  0.4546625525639101
  0.5001409157219570  0.6255137046026391  0.5408770908324740
  0.6645662572097635  0.5624479369200444  0.5418351290174641
  0.5000027859529865  0.6250675295448929  0.1974912969089502
  0.8342175393681188  0.6875715576582877  0.2027529707744620
  0.6658400635024861  0.6875571545592649  0.2026799484645281
  0.7500198075006352  0.7500976082007469  0.2778893517881613
  0.5828359009385977  0.6875732043546137  0.2840122342878502
  0.9172788497319715  0.6876388116846215  0.2840695271419591
  0.5000142729892332  0.7501051282712297  0.3696537131114255
  0.8326348777526249  0.6876647527135304  0.3684780396925831
  0.6675486278912146  0.6876284038135125  0.3684734317026113
  0.7490494185027359  0.7498056816199608  0.4552548283526789
  0.5835072540545099  0.6875900891758491  0.4543834142328080
  0.9163116869255887  0.6876758015405073  0.4547145458015720
  0.8350442325510201  0.6876889418205820  0.5417856849304883
  0.6664209913184749  0.6859336040159434  0.5411612510664199
  0.4999900388759642  0.7500406333810545  0.1975034613239330
  0.8342322228073016  0.8126087797945516  0.2027599113527074
  0.6658125932446239  0.8125472620885290  0.2026734089044169
  0.7501075335031189  0.8751020151883750  0.2778793010213931
  0.5828938736429876  0.8125776987715980  0.2839956755160031
  0.9172288978522758  0.8126364569445315  0.2840892595065228
  0.5000409803521606  0.8751452485996296  0.3696599016957336
  0.8326858095319452  0.8126467391204599  0.3684044809478095
  0.6675254363307772  0.8126344721390666  0.3684600541945144
  0.7497156465705572  0.8755251089590530  0.4549651959170333
  0.5836644180823427  0.8126539394152843  0.4544279602616470
  0.9159892556603424  0.8126703644461770  0.4546584466504697
  0.5001390416357907  0.8746556772927718  0.5408985178449086
  0.6668448881056506  0.8141277467251626  0.5413671235546431
  0.4999994465486708  0.8750616489880088  0.1974914899382725
  0.8342093963562220  0.9375775082197819  0.2027576215069615
  0.6658513267825867  0.9375477821761464  0.2026845442772043
  0.7500408434597574  0.5000903679340638  0.2778933605498253
  0.5828470016131959  0.9375745836562572  0.2839939518928105
  0.9172817299685647  0.9376379018593610  0.2840698358827183
  0.4999926462220188  0.5000683358313154  0.3696069167573697
  0.8326513029338827  0.9376546052604837  0.3684619267987443
  0.6675540834816402  0.9376415844642167  0.3683989644045695
  0.7495130020552665  0.4997723794078510  0.4550180448978196
  0.5836933086903215  0.9376940288363045  0.4542507105191760
  0.9163625144262824  0.9377069763866643  0.4547126295599355
  0.8344795234240152  0.9379190292884303  0.5418121874370811
  0.6640663112169776  0.9378735114313130  0.5416619943339782
  0.4055659486110841  0.0000443028676287  0.2322789852023419
  0.2499640458500068  0.0000836208610622  0.1993984051821656
  0.0943306894668439  0.0001122711249337  0.2323572693030656
  0.1549959142601622  0.1251802086500575  0.3158238550175412
  0.0000042445849004  0.1251285853912805  0.3031982286137662
  0.3449720088664918  0.1251155724959645  0.3157680148772357
  0.4008876949093576  0.1251886601188943  0.4021975397038773
  0.2497844323380534  0.1251095199150356  0.3872356866951705
  0.0990133162444522  0.1251610438840203  0.4024396599138242
  0.1523945763374286  0.1250664118441165  0.4876738980366113
  0.0000058218658410  0.1250066916314339  0.4731567258159046
  0.3483849790849192  0.1252031662678803  0.4878746266901430
  0.4026321922562346  0.1252738432963199  0.5702899444977803
  0.2492732528006840  0.1238333132402261  0.5575689556349985
  0.0987894218784859  0.1231133111122347  0.5695358703726683
  0.4055777987598006  0.1250733049478683  0.2322583365950237
  0.2499922278962501  0.1250648061007240  0.1993059084213087
  0.0943166058123097  0.1251175805390830  0.2323686980968915
  0.1549671692628181  0.2501053658194365  0.3157902825336691
  0.9999986871691746  0.2501594510938858  0.3031839614898217
  0.3449387291320676  0.2500873501136169  0.3157877573456105
  0.4009258867131820  0.2500806068829249  0.4021072537697918
  0.2499180916592962  0.2501657628066241  0.3872226784271504
  0.0990476755282756  0.2501562209395090  0.4024295391548094
  0.1526223496485812  0.2502581600703664  0.4877033406748339
  0.0000075909540200  0.2503494857302186  0.4732251192892889
  0.3484296667163704  0.2501187917060932  0.4878334888912548
  0.4074163078715713  0.2499260347260304  0.5695987261487403
  0.2498992885263576  0.2512708405127952  0.5580884462360132
  0.0987835176854688  0.2521839450589312  0.5695843062673305
  0.4055619930948282  0.2500453645347136  0.2322807823195916
  0.2499673135090532  0.2500799744593536  0.1993995759820351
  0.0943369683104009  0.2501094686202237  0.2323502306258618
  0.1549962553396327  0.3751774474512999  0.3158238413206718
  0.0000036534501433  0.3751206117076009  0.3031979093753137
  0.3449725703084852  0.3751214043883522  0.3157689311539968
  0.4008865919556257  0.3751585596113642  0.4022001015126691
  0.2497838363136466  0.3751208150781835  0.3872381039049699
  0.0990112960895431  0.3751688045393493  0.4024395159092720
  0.1523988882363838  0.3750490173729020  0.4876682369141676
  0.0000043863190413  0.3749903418347174  0.4731516997871026
  0.3483980611572761  0.3751898548088164  0.4878760718683779
  0.4026398143131900  0.3753127117484709  0.5702916898359831
  0.2492908735830213  0.3739150305245929  0.5575614446360220
  0.0987909014486519  0.3731049105386575  0.5695264636412034
  0.4055745019249670  0.3750713653740476  0.2322591383164223
  0.2499906714475628  0.3750604093247034  0.1993007559966600
  0.0943152372800071  0.3751102437700098  0.2323680987952415
  0.1549690862592996  0.0001069863080545  0.3157860156714776
  0.9999914623832211  0.0001588877388130  0.3031985293820583
  0.3449322503444279  0.0000818318215181  0.3157927960899372
  0.4009142768777636  0.0000963717344646  0.4020934471601691
  0.2499225101581359  0.0001668385336018  0.3872125262825676
  0.0990549841652495  0.0001446496689823  0.4024381393810827
  0.1526267044055061  0.0002499924400041  0.4876919176341943
  0.9999913407532475  0.0003519198994226  0.4732133894049468
  0.3484326094440675  0.0001245746868506  0.4878368517786811
  0.4074573106947952  0.9998233189766950  0.5696008679390445
  0.2499790307090635  0.0011682421226666  0.5580789830000725
  0.0988047038182742  0.0021843512818833  0.5695913986724932
  0.4055657438842957  0.5000510783828602  0.2322826065890808
  0.2499645410127798  0.5000793522746392  0.1993989947538566
  0.0943358024508640  0.5001094545460063  0.2323559240811974
  0.1549997763698769  0.6251739816530417  0.3158143324372276
  0.9999908832944442  0.6251317939788521  0.3032242946197599
  0.3449594284407951  0.6251207549080462  0.3157656535265545
  0.4008796021270555  0.6251449723804754  0.4021884860664358
  0.2497773371250460  0.6251335912702132  0.3872415695214428
  0.0990279818345599  0.6251749545683438  0.4024405030746578
  0.1523647439004776  0.6250386050093439  0.4876520006394003
  0.9999845347616017  0.6250349700182696  0.4731453619535770
  0.3483794517358447  0.6250791656430863  0.4878139349864909
  0.4026978540956350  0.6256465499643866  0.5701777134104020
  0.2492279919546192  0.6239352414743067  0.5575254782666974
  0.0987522808521462  0.6230715078212086  0.5695081892790910
  0.4055851853707964  0.6250731747657525  0.2322619166987039
  0.2499971957419831  0.6250655319398248  0.1992945186307580
  0.0943036219283400  0.6251069784628100  0.2323738313729891
  0.1549783959824111  0.7501057663987609  0.3157832409833503
  0.9999969131577089  0.7501572693951601  0.3032257066856232
  0.3449067094520046  0.7500836090224468  0.3157849385431248
  0.4009072305840533  0.7500915580994985  0.4021245167759062
  0.2499486426517166  0.7501630365901164  0.3871934660953045
  0.0990984969413446  0.7501486452123771  0.4024180478316381
  0.1525575266689572  0.7502613814450783  0.4876754422446226
  0.9999543483329560  0.7503553415002742  0.4731681764789712
  0.3481547477797875  0.7500895832606460  0.4878227745668013
  0.4067312757181156  0.7499379227574110  0.5694624564723725
  0.2496796740477834  0.7512619759001566  0.5581347024740850
  0.0987821435400420  0.7522072509527646  0.5696290457991040
  0.4055636264025395  0.7500500418077394  0.2322918511950220
  0.2499697326466759  0.7500828959726533  0.1993843884426241
  0.0943214664993519  0.7501119120426978  0.2323616353915767
  0.1549960415527778  0.8751771951839018  0.3158151503471132
  0.9999902116031976  0.8751187114329895  0.3032246910868608
  0.3449601034424887  0.8751150483420673  0.3157636062121014
  0.4008792048849443  0.8751969991613464  0.4021886559050216
  0.2497752820696988  0.8750979729819903  0.3872346808326341
  0.0990280899384004  0.8751623796056833  0.4024402841212904
  0.1523478351449583  0.8750857862987758  0.4876541794369800
  0.9999810584673270  0.8749639896147627  0.4731388943387671
  0.3483506396642255  0.8753282578974080  0.4878046175849704
  0.4026692084714014  0.8749205383021774  0.5701755527415813
  0.2491403688442375  0.8738625908637587  0.5575535900668100
  0.0987610725136889  0.8731032869389352  0.5695137815816409
  0.4055834231252291  0.8750675942846371  0.2322641242708130
  0.2499943873158585  0.8750613960428240  0.1992991333666367
  0.0943022975087118  0.8751220088112461  0.2323742105137043
  0.1549694405104773  0.5001062929268798  0.3157843658456443
  0.9999920276228238  0.5001542362989753  0.3031995760421822
  0.3449278838769700  0.5000943135491269  0.3157967764837295
  0.4009174291550153  0.5000715249904104  0.4020993862194260
  0.2499215025827226  0.5001604795649186  0.3872209308272332
  0.0990586807203826  0.5001653764533032  0.4024416939894593
  0.1526206031677688  0.5002712361041759  0.4877079047285804
  0.9999954375016173  0.5003659095579849  0.4732283691102452
  0.3484352035182781  0.5001205018467516  0.4878486847072523
  0.4074568607473736  0.5000170995271915  0.5696071508757043
  0.2499618921510063  0.5013705582333756  0.5580892949554936
  0.0988282881674749  0.5022005109693239  0.5695995903598785
  0.9056799813016809  0.0001169998162069  0.2323568449563496
  0.7500409522949383  0.0000806329082650  0.1993738017706477
  0.5944381318750658  0.0000476382750207  0.2322809034310538
  0.6550293853243474  0.1251180264959331  0.3157619248066013
  0.5000014553647745  0.1250630476126773  0.3029923238879704
  0.8450089590221239  0.1251774223992044  0.3158250596838030
  0.9009950696009668  0.1251617756671948  0.4024414020684119
  0.7502156972568841  0.1251083077834849  0.3872345693890438
  0.5991185738957299  0.1251910338820110  0.4021831649611087
  0.6515933201612469  0.1252220013714762  0.4878598326150581
  0.5000025456931212  0.1250282070410762  0.4729938397533644
  0.8476015210913772  0.1250703688316221  0.4876776633665756
  0.9012049130298081  0.1231105438663889  0.5695457982388632
  0.7507433398140506  0.1238140703456594  0.5575726337611187
  0.5973868924912082  0.1253044106250840  0.5703149116763129
  0.9056813010598574  0.1251186578273078  0.2323683574921844
  0.7500064250746803  0.1250665890505118  0.1993106901818322
  0.5944215334540814  0.1250745716444115  0.2322567101313879
  0.6550582851525562  0.2500878400289608  0.3157858941283536
  0.4999965952464507  0.2500914883886480  0.3029740213076124
  0.8450364359538085  0.2501064867819522  0.3157918052132729
  0.9009556452718712  0.2501551232605692  0.4024349399699361
  0.7500928577163819  0.2501631168582463  0.3872227829993520
  0.5990743966655003  0.2500791466579884  0.4021035432469162
  0.6515733707449556  0.2501174579142713  0.4878325305480686
  0.4999994207368204  0.2501917732048398  0.4725464125664089
  0.8473813253665270  0.2502593786148424  0.4877101354198317
  0.9012034294872322  0.2521798666219226  0.5695979350871170
  0.7501077154479461  0.2512670299560398  0.5580923358600387
  0.5926130065343571  0.2499307371724271  0.5695919985532072
  0.9056642953064653  0.2501094199967682  0.2323516303524897
  0.7500397865734243  0.2500809705987805  0.1993857984864960
  0.5944371927358603  0.2500463131997037  0.2322810907091153
  0.6550279938479662  0.3751165849809723  0.3157637706883278
  0.4999990813861288  0.3750629183409870  0.3029939722838506
  0.8450077977776118  0.3751768959167308  0.3158249428768443
  0.9009966319053575  0.3751666126779369  0.4024410247199199
  0.7502156133979483  0.3751230916550341  0.3872349522681731
  0.5991179908871729  0.3751532818066465  0.4021839902854225
  0.6515861318726621  0.3751569537086681  0.4878520263396666
  0.5000066881591820  0.3750616225181815  0.4729908547062891
  0.8475987470841346  0.3750526895798885  0.4876749338899273
  0.9011968558847059  0.3731094294003228  0.5695461043984409
  0.7507010260798523  0.3739362013983509  0.5575658030581039
  0.5973713472322828  0.3752643303543479  0.5703191858983345
  0.9056795648644851  0.3751094845828149  0.2323670413842436
  0.7500079567750859  0.3750597253569055  0.1993103604339979
  0.5944231523607826  0.3750710480117974  0.2322588434092694
  0.6550633228328522  0.0000908284517678  0.3157792311278484
  0.4999958642717814  0.0000895049295266  0.3029723567628224
  0.8450256683651034  0.0001114850162267  0.3157911504966364
  0.9009546017931171  0.0001515338003912  0.4024352811134477
  0.7500902450941425  0.0001754262336604  0.3872140299261488
  0.5990693187276435  0.0001219193260056  0.4020874143221249
  0.6515066411491404  0.0001897096258006  0.4878075190936713
  0.4999636100830287  0.0001968133553945  0.4725135867490664
  0.8473723105915312  0.0003131914173125  0.4877025944554632
  0.9011938572196598  0.0022469727967405  0.5695972671257294
  0.7499484551461961  0.0010295397392781  0.5580887489767292
  0.5926084829654101  0.9999179846436803  0.5696690924079064
  0.9056729095624760  0.5001063306390421  0.2323556783250211
  0.7500410699766320  0.5000812393783676  0.1993771554869639
  0.5944388205638802  0.5000447806352568  0.2322860893319785
  0.6550394241155004  0.6251347538385517  0.3157611019509190
  0.4999958378736125  0.6250689874676709  0.3030089448190836
  0.8449940903551791  0.6251856927606028  0.3158258467185604
  0.9009832744748394  0.6251645162978150  0.4024289329640283
  0.7502020874826130  0.6251367862438428  0.3872012371241453
  0.5991183152183908  0.6251645005639759  0.4021877953473663
  0.6515457616308282  0.6249020474354765  0.4877613417186737
  0.4999451167778162  0.6250612323520386  0.4729344198667960
  0.8476168421935242  0.6250016121024586  0.4876295581524488
  0.9012119004835526  0.6229223887306219  0.5695924545209863
  0.7507852376691915  0.6242142623030347  0.5574287816695147
  0.5978507450647541  0.6257692931658170  0.5704680211671729
  0.9056916908267212  0.6251134574061581  0.2323727388303922
  0.7500090361108604  0.6250688256902777  0.1993133941666514
  0.5944155648272300  0.6250797830938808  0.2322641552428166
  0.6550787914798164  0.7500878072919690  0.3158176252830316
  0.4999983885916137  0.7500918923169380  0.3030037453375343
  0.8450023442327819  0.7501076223447356  0.3158078043121364
  0.9009358016295579  0.7501542620544726  0.4024171308108535
  0.7499854620164328  0.7501660064429458  0.3873826426910156
  0.5990664986066250  0.7500831436174877  0.4022063139280547
  0.6509887988820040  0.7500289729182015  0.4886148205577712
  0.4996646112042740  0.7501768636769341  0.4726812120862149
  0.8472557257785169  0.7502567513037874  0.4876667026584443
  0.9015356893821007  0.7522040880870193  0.5697087282055904
  0.7507427380138694  0.7512965116084231  0.5585973624507545
  0.5936573353407866  0.7498284572720308  0.5706949667773600
  0.9056745981414593  0.7501119619863346  0.2323560935327507
  0.7500479927502681  0.7500810231186819  0.1993932084187691
  0.5944207570946176  0.7500493785804139  0.2322874155356587
  0.6550412775297190  0.8750971466288604  0.3157595534248188
  0.4999962583958180  0.8750557755259223  0.3030112541531977
  0.8449939979404348  0.8751608729365046  0.3158251949675446
  0.9009757434500258  0.8751668616566519  0.4024271613986556
  0.7501964268904970  0.8751003309744547  0.3872041884894841
  0.5991276962235332  0.8751636533269718  0.4021939118005236
  0.6515748205629990  0.8754695642420671  0.4878117697668429
  0.4999587779225152  0.8750591310653988  0.4729403249335320
  0.8476218304360401  0.8751244071536206  0.4876392737461401
  0.9012464695171118  0.8732295960071710  0.5696150506775695
  0.7510398459986192  0.8737830247504306  0.5575360240413900
  0.5978986753137718  0.8746149061224600  0.5705735589170970
  0.9056892816023918  0.8751119746825111  0.2323723932288289
  0.7500151155881269  0.8750605208011777  0.1993164332932622
  0.5944136578706605  0.8750616635481805  0.2322630169646800
  0.6550674918648838  0.5000851485748967  0.3157825657561872
  0.4999940667902294  0.5000944769400277  0.3029746265455202
  0.8450239992819490  0.5001040622866597  0.3157903649073646
  0.9009513189147782  0.5001593836086329  0.4024428213763827
  0.7500927219464657  0.5001523857788541  0.3872163310155869
  0.5990651324711962  0.5000464827949074  0.4020910133552178
  0.6515392173407548  0.5000424708580340  0.4878123302283512
  0.4999672677775706  0.5002063789546511  0.4725281891681590
  0.8473801939102756  0.5001931050471171  0.4877255201523099
  0.9012110088605709  0.5021272614047447  0.5695974121941703
  0.7500826977606394  0.5014899201181677  0.5581203681801412
  0.5926778972988558  0.4999121736925289  0.5696587073767674
  0.1646292384835064  0.0626659128733991  0.5403564203414746
  0.1646426889065182  0.3125999036248999  0.5403658863212186
  0.1646501345717866  0.5625415946938688  0.5403431281411386
  0.1644537758927314  0.8126447172761786  0.5403412002936676
  0.8353878737752112  0.0627491773319520  0.5403544831304927
  0.4999976535944199  0.2499885113238207  0.5398046607920364
  0.8353889606212377  0.3125914242187804  0.5403757867527617
  0.5000284119480014  0.9998424842134739  0.5397861196212546
  0.8355703454245500  0.5624361491876897  0.5402874213699249
  0.4976569584680917  0.7500751979422660  0.5397615418679038
  0.8360459502087139  0.8126559898216783  0.5402881599420155
  0.5000477463841477  0.5001165214381089  0.5397956492254110
  0.6011487083520919  0.7538903205440306  0.6296135121685040
 
  0.00000000E+00  0.00000000E+00  0.00000000E+00
  0.00000000E+00  0.00000000E+00  0.00000000E+00
  0.00000000E+00  0.00000000E+00  0.00000000E+00
  0.00000000E+00  0.00000000E+00  0.00000000E+00
  0.00000000E+00  0.00000000E+00  0.00000000E+00
  0.00000000E+00  0.00000000E+00  0.00000000E+00