generated by phonopy                    
   1.00000000000000     
     5.1168079782436005    0.0000000000000847    0.0000000000000000
    -2.5584039890716457    4.4312856954064541    0.0000000000000000
     0.0000000000000000    0.0000000000000000   25.0000000000000000
   B    N    Ga
    11    12     1
Direct
  0.0000278769617410  0.5005357499234847 -0.0030784001546052
  0.4998399910000018  0.5001599790000029  0.9968770868292555
  0.0000278769617410 -0.0000279159617405 -0.0030784001546052
  0.4994642200765131 -0.0000279159617405 -0.0030784001546052
  0.5033078874886171  0.0018939252443070  0.2625196577777376
  0.9981060877556909  0.4966921715113832  0.2625196577777376
  0.4998399910000018  0.5001599790000029  0.2626965960448924
  0.9981060877556910  0.0018939252443076  0.2625196577777376
  0.1629370141319483  0.3317085270659773  0.1289194895055724
  0.6682915029340250  0.3317085270659775  0.1289194895055724
  0.6682915029340248  0.8370629418680552  0.1289194895055724
  0.1665388646670244  0.3335094453335150 -0.0030361592977101
  0.6664905846664878  0.3335094453335150 -0.0030361592977101
  0.1665066779999975  0.8334932920000000  0.9965333149003930
  0.6664905846664878  0.8334611053329728 -0.0030361592977101
  0.1663444268298220  0.3334122259149082  0.2638458459707343
  0.6665878330850864  0.3334122259149083  0.2638458459707343
  0.1665066779999975  0.8334932920000000  0.2603821624383599
  0.6665878330850863  0.8336555431701755  0.2638458459707343
  0.9852431521228204  0.4709662702456484  0.1288994815165417
  0.4998399910000018  0.5001599790000029  0.1329382264259560
  0.9852431521228192  0.0147568638771737  0.1288994815165417
  0.5290337597543625  0.0147568638771808  0.1288994815165417
  0.1665066779999975  0.8334932920000000  0.1591828704063356
 
  0.00000000E+00  0.00000000E+00  0.00000000E+00
  0.00000000E+00  0.00000000E+00  0.00000000E+00
  0.00000000E+00  0.00000000E+00  0.00000000E+00
  0.00000000E+00  0.00000000E+00  0.00000000E+00
  0.00000000E+00  0.00000000E+00  0.00000000E+00
  0.00000000E+00  0.00000000E+00  0.00000000E+00
  0.00000000E+00  0.00000000E+00  0.00000000E+00
  0.00000000E+00  0.00000000E+00  0.00000000E+00
  0.00000000E+00  0.00000000E+00  0.00000000E+00
  0.00000000E+00  0.00000000E+00  0.00000000E+00
  0.00000000E+00  0.00000000E+00  0.00000000E+00
  0.00000000E+00  0.00000000E+00  0.00000000E+00
  0.00000000E+00  0.00000000E+00  0.00000000E+00
  0.00000000E+00  0.00000000E+00  0.00000000E+00
  0.00000000E+00  0.00000000E+00  0.00000000E+00
  0.00000000E+00  0.00000000E+00  0.00000000E+00
  0.00000000E+00  0.00000000E+00  0.00000000E+00
  0.00000000E+00  0.00000000E+00  0.00000000E+00
  0.00000000E+00  0.00000000E+00  0.00000000E+00
  0.00000000E+00  0.00000000E+00  0.00000000E+00
  0.00000000E+00  0.00000000E+00  0.00000000E+00
  0.00000000E+00  0.00000000E+00  0.00000000E+00
  0.00000000E+00  0.00000000E+00  0.00000000E+00
  0.00000000E+00  0.00000000E+00  0.00000000E+00
