generated by phonopy
1.00000000000
        5.1086263657         0.0000000000         0.0000000000
       -2.5543131828         4.4242002111         0.0000000000
        0.0000000000         0.0000000000        25.0000000000
    B    N   Ga
   11   12    1
Direct
     0.999995768         0.500471532         0.999997079
     0.499839991         0.500159979         0.999985933
     0.999995768         0.000004193         0.999997079
     0.499528438         0.000004193         0.999997079
     0.504797339         0.002638651         0.255735159
     0.997361362         0.495202720         0.255735159
     0.499839991         0.500159979         0.256928653
     0.997361362         0.002638651         0.255735159
     0.161649898         0.331064969         0.132481217
     0.668935061         0.331064969         0.132481217
     0.668935061         0.838350058         0.132481217
     0.166535348         0.333507687         0.000047774
     0.666492343         0.333507687         0.000047774
     0.166506678         0.833493292         0.999639452
     0.666492343         0.833464622         0.000047774
     0.166369349         0.333424687         0.258565664
     0.666575372         0.333424687         0.258565664
     0.166506678         0.833493292         0.250750721
     0.666575372         0.833630621         0.258565664
     0.987296641         0.475073248         0.133793563
     0.499839991         0.500159979         0.135511354
     0.987296641         0.012703375         0.133793563
     0.524926782         0.012703375         0.133793563
     0.166506678         0.833493292         0.158142522
