Ta  N Cu                                
   1.00000000000000     
    10.4555999800000006    0.0000000000000000    0.0000000000000000
     0.0000000000000000   11.6775998899999998    0.0000000000000000
     0.0000000000000000    0.0000000000000000   24.0732377500000005
   Ta   N    Cu
    64    64     2
Selective dynamics
Direct
  0.4991785186325330  0.1250000003211298  0.3753726828051569   F   F   F
  0.2600588226580172  0.1250000003211298  0.3190980514078845   F   F   F
  0.2470962603561304  0.0000000000000000  0.4358978840493251   F   F   F
  0.2480983705353687  0.1249621373811373  0.5617992985356720   T   T   T
  0.9985096118526354  0.1249866005940820  0.5004227344940894   T   T   T
  0.9976253974991131  0.9994926215483680  0.6261147905207093   T   T   T
  0.5069491341205008  0.1256395770285438  0.7451796847100670   T   T   T
  0.2520658642153125  0.1238266699735465  0.6869456603558874   T   T   T
  0.4991785186325330  0.3750000001070433  0.3753726828051569   F   F   F
  0.2600588226580172  0.3750000001070433  0.3190980514078845   F   F   F
  0.2470962603561304  0.2499999997859135  0.4358978840493251   F   F   F
  0.2480959724472278  0.3750395493807889  0.5618030169988244   T   T   T
  0.9985152477277147  0.3750136593733518  0.5004243391816880   T   T   T
  0.9974905871356476  0.2499943027863173  0.6264440284014154   T   T   T
  0.5069267054327874  0.3743199179720675  0.7452027018235537   T   T   T
  0.2521041351643171  0.3761658063622181  0.6869575227706964   T   T   T
  0.4991785186325330  0.6249999998929567  0.3753726828051569   F   F   F
  0.2600588226580172  0.6249999998929567  0.3190980514078845   F   F   F
  0.2470962603561304  0.5000000004281731  0.4358978840493251   F   F   F
  0.2485794573576942  0.6250273431748661  0.5615564065911722   T   T   T
  0.9984907377597239  0.6250163114668357  0.5004439993418696   T   T   T
  0.9976247741106971  0.5005016613067201  0.6261212205871698   T   T   T
  0.5113547720861298  0.6241742535191906  0.7433860493956927   T   T   T
  0.2501054380615574  0.6254077393603081  0.6866619878886390   T   T   T
  0.4991785186325330  0.8750000005352163  0.3753726828051569   F   F   F
  0.2600588226580172  0.8750000005352163  0.3190980514078845   F   F   F
  0.2470962603561304  0.7500000002140865  0.4358978840493251   F   F   F
  0.2485777149431122  0.8749714738502820  0.5615534907212814   T   T   T
  0.9984891486361610  0.8749830664942773  0.5004425609626210   T   T   T
  0.9974879315974825  0.7500008590399589  0.6262538142702668   T   T   T
  0.5113770275886858  0.8758381276685446  0.7434015433177712   T   T   T
  0.2501187508674353  0.8746010128842235  0.6866600760906828   T   T   T
  0.9991784928090510  0.1250000003211298  0.3753726828051569   F   F   F
  0.7600587968345351  0.1250000003211298  0.3190980514078845   F   F   F
  0.7470962345326484  0.0000000000000000  0.4358978840493251   F   F   F
  0.7489898505010454  0.1250768346895701  0.5616885289252938   T   T   T
  0.4986219648250753  0.1249422890324857  0.5004051173347996   T   T   T
  0.4981683033461984  0.9987238631092602  0.6256104904847117   T   T   T
  0.0102523731374296  0.1232246027629885  0.7430968070903267   T   T   T
  0.7492039319000808  0.1248610410857692  0.6869710178716407   T   T   T
  0.9991784928090510  0.3750000001070433  0.3753726828051569   F   F   F
  0.7600587968345351  0.3750000001070433  0.3190980514078845   F   F   F
  0.7470962345326484  0.2499999997859135  0.4358978840493251   F   F   F
  0.7489963564143088  0.3749203872757471  0.5616903745499313   T   T   T
  0.4986211695592053  0.3750559576275207  0.5004037673050135   T   T   T
  0.4988603136266702  0.2500014422660343  0.6245657343719081   T   T   T
  0.0102334384181684  0.3767619847574547  0.7430886092599165   T   T   T
  0.7491867808129807  0.3751286480600206  0.6869775132182723   T   T   T
  0.9991784928090510  0.6249999998929567  0.3753726828051569   F   F   F
  0.7600587968345351  0.6249999998929567  0.3190980514078845   F   F   F
  0.7470962345326484  0.5000000004281731  0.4358978840493251   F   F   F
  0.7487479350891244  0.6250255773354710  0.5616849490489937   T   T   T
  0.4987000637138178  0.6250324499452635  0.5004609042526540   T   T   T
  0.4981667521723313  0.5012523875437562  0.6256173845634730   T   T   T
  0.0110531504701145  0.6247943936440336  0.7431127716609534   T   T   T
  0.7492520640568208  0.6249767811777850  0.6866956081052004   T   T   T
  0.9991784928090439  0.8750000005352163  0.3753726828051569   F   F   F
  0.7600587968345351  0.8750000005352163  0.3190980514078845   F   F   F
  0.7470962345326484  0.7500000002140865  0.4358978840493251   F   F   F
  0.7487485858735419  0.8749710393777342  0.5616815494991451   T   T   T
  0.4987002702352877  0.8749655790279574  0.5004591295297102   T   T   T
  0.4977463282487460  0.7500088730512486  0.6259896852042288   T   T   T
  0.0110598024972714  0.8752269003926663  0.7431176268249696   T   T   T
  0.7492464376110750  0.8750165945462182  0.6866827525674949   T   T   T
  0.1472195596423447  0.0000000000000000  0.3601606351366584   F   F   F
  0.4003222342624682  0.0000000000000000  0.3237632067519129   F   F   F
  0.4439214822817661  0.0000000000000000  0.4377276028165085   F   F   F
  0.4005020744779561  0.0000296522396415  0.5516084100365976   T   T   T
  0.1506459719210712  0.9999250143842638  0.5102685606159540   T   T   T
  0.1947327688029427  0.9996327342084861  0.6245732574644635   T   T   T
  0.1514594194451127  0.9995312893477661  0.7383790744336566   T   T   T
  0.3997089142607124  0.9995421737439262  0.7009578294451858   T   T   T
  0.1472195596423447  0.2499999997859135  0.3601606351366584   F   F   F
  0.4003222342624682  0.2499999997859135  0.3237632067519129   F   F   F
  0.4439214822817661  0.2499999997859135  0.4377276028165085   F   F   F
  0.3997094374926046  0.2500040023326253  0.5511677080405194   T   T   T
  0.1506342810175301  0.2500013567836989  0.5102466594361478   T   T   T
  0.1941194215146330  0.2500032454398816  0.6248923707269068   T   T   T
  0.1542387453412045  0.2500058745530863  0.7409529582990898   T   T   T
  0.4008573208950931  0.2499786529849409  0.6971444073563424   T   T   T
  0.1472195596423447  0.5000000004281731  0.3601606351366584   F   F   F
  0.4003222342624682  0.5000000004281731  0.3237632067519129   F   F   F
  0.4439214822817661  0.5000000004281731  0.4377276028165085   F   F   F
  0.4005044553789095  0.4999642265514225  0.5516095191406155   T   T   T
  0.1506496525256567  0.5000751152590792  0.5102694588664335   T   T   T
  0.1947356016517734  0.5003647689409273  0.6245746791764557   T   T   T
  0.1514293129609757  0.5004743371305170  0.7383694824322720   T   T   T
  0.3997185787250313  0.5004468508564042  0.7009583102506566   T   T   T
  0.1472195596423447  0.7500000002140865  0.3601606351366584   F   F   F
  0.4003222342624682  0.7500000002140865  0.3237632067519129   F   F   F
  0.4439214822817661  0.7500000002140865  0.4377276028165085   F   F   F
  0.4006217917882023  0.7499976468578363  0.5517278586466305   T   T   T
  0.1506207440785041  0.7499992033949530  0.5102338030526200   T   T   T
  0.1944835875490265  0.7500020494010886  0.6243877738527043   T   T   T
  0.1510247188220332  0.7500073503135611  0.7379210022407309   T   T   T
  0.3994641799726008  0.7500008189830648  0.7019305751689557   T   T   T
  0.6472195338188556  0.0000000000000000  0.3601606351366584   F   F   F
  0.9003222591295312  0.0000000000000000  0.3237632067519129   F   F   F
  0.9439215071488221  0.0000000000000000  0.4377276028165085   F   F   F
  0.9009473992905027  0.9999447506326702  0.5517916857076182   T   T   T
  0.6508048000410613  0.0000041667320108  0.5103170015907282   T   T   T
  0.6948574466647018  0.0001156490065059  0.6243490502959419   T   T   T
  0.6506736556017233  0.0012760417287725  0.7386125442022324   T   T   T
  0.8975992940083641  0.9997401702910365  0.7014434290799647   T   T   T
  0.6472195338188556  0.2499999997859135  0.3601606351366584   F   F   F
  0.9003222591295312  0.2499999997859135  0.3237632067519129   F   F   F
  0.9439215071488221  0.2499999997859135  0.4377276028165085   F   F   F
  0.9011799642408420  0.2500000662773708  0.5518068514923296   T   T   T
  0.6506796082093970  0.2500017297257776  0.5102720758836178   T   T   T
  0.6957434100581726  0.2500021167603008  0.6242416126314215   T   T   T
  0.6500843223107948  0.2499773866642634  0.7378174710082390   T   T   T
  0.8977671352596569  0.2499976104333081  0.7017313545320724   T   T   T
  0.6472195338188556  0.5000000004281731  0.3601606351366584   F   F   F
  0.9003222591295312  0.5000000004281731  0.3237632067519129   F   F   F
  0.9439215071488221  0.5000000004281731  0.4377276028165085   F   F   F
  0.9009502542962836  0.5000549908271351  0.5517959954262902   T   T   T
  0.6508077934036828  0.4999940057308217  0.5103195029119615   T   T   T
  0.6948506117895037  0.4998775360014298  0.6243534520854284   T   T   T
  0.6506582252446672  0.4986948684680377  0.7386352108429035   T   T   T
  0.8975810350239656  0.5002550854653837  0.7014496076296692   T   T   T
  0.6472195338188556  0.7500000002140865  0.3601606351366584   F   F   F
  0.9003222591295312  0.7500000002140865  0.3237632067519129   F   F   F
  0.9439215071488221  0.7500000002140865  0.4377276028165085   F   F   F
  0.9008759033784532  0.7499975510392366  0.5518213464919068   T   T   T
  0.6507950689546376  0.7499964746681345  0.5103161310639842   T   T   T
  0.6947159436459290  0.7499950961786764  0.6245177761319251   T   T   T
  0.6509913720755683  0.7500071401711229  0.7384512513248191   T   T   T
  0.8977515351702299  0.7500034255004460  0.7019934278205042   T   T   T
  0.2934946690745709  0.2505403178758386  0.7928918024159460   T   T   T
  0.4877708727518431  0.2494797012284307  0.8381925307062844   T   T   T
 
  0.00000000E+00  0.00000000E+00  0.00000000E+00
  0.00000000E+00  0.00000000E+00  0.00000000E+00
  0.00000000E+00  0.00000000E+00  0.00000000E+00
  0.00000000E+00  0.00000000E+00  0.00000000E+00
  0.00000000E+00  0.00000000E+00  0.00000000E+00
  0.00000000E+00  0.00000000E+00  0.00000000E+00
  0.00000000E+00  0.00000000E+00  0.00000000E+00
  0.00000000E+00  0.00000000E+00  0.00000000E+00
  0.00000000E+00  0.00000000E+00  0.00000000E+00
  0.00000000E+00  0.00000000E+00  0.00000000E+00
  0.00000000E+00  0.00000000E+00  0.00000000E+00
  0.00000000E+00  0.00000000E+00  0.00000000E+00
  0.00000000E+00  0.00000000E+00  0.00000000E+00
  0.00000000E+00  0.00000000E+00  0.00000000E+00
  0.00000000E+00  0.00000000E+00  0.00000000E+00
  0.00000000E+00  0.00000000E+00  0.00000000E+00
  0.00000000E+00  0.00000000E+00  0.00000000E+00
  0.00000000E+00  0.00000000E+00  0.00000000E+00
  0.00000000E+00  0.00000000E+00  0.00000000E+00
  0.00000000E+00  0.00000000E+00  0.00000000E+00
  0.00000000E+00  0.00000000E+00  0.00000000E+00
  0.00000000E+00  0.00000000E+00  0.00000000E+00
  0.00000000E+00  0.00000000E+00  0.00000000E+00
  0.00000000E+00  0.00000000E+00  0.00000000E+00
  0.00000000E+00  0.00000000E+00  0.00000000E+00
  0.00000000E+00  0.00000000E+00  0.00000000E+00
  0.00000000E+00  0.00000000E+00  0.00000000E+00
  0.00000000E+00  0.00000000E+00  0.00000000E+00
  0.00000000E+00  0.00000000E+00  0.00000000E+00
  0.00000000E+00  0.00000000E+00  0.00000000E+00
  0.00000000E+00  0.00000000E+00  0.00000000E+00
  0.00000000E+00  0.00000000E+00  0.00000000E+00
  0.00000000E+00  0.00000000E+00  0.00000000E+00
  0.00000000E+00  0.00000000E+00  0.00000000E+00
  0.00000000E+00  0.00000000E+00  0.00000000E+00
  0.00000000E+00  0.00000000E+00  0.00000000E+00
  0.00000000E+00  0.00000000E+00  0.00000000E+00
  0.00000000E+00  0.00000000E+00  0.00000000E+00
  0.00000000E+00  0.00000000E+00  0.00000000E+00
  0.00000000E+00  0.00000000E+00  0.00000000E+00
  0.00000000E+00  0.00000000E+00  0.00000000E+00
  0.00000000E+00  0.00000000E+00  0.00000000E+00
  0.00000000E+00  0.00000000E+00  0.00000000E+00
  0.00000000E+00  0.00000000E+00  0.00000000E+00
  0.00000000E+00  0.00000000E+00  0.00000000E+00
  0.00000000E+00  0.00000000E+00  0.00000000E+00
  0.00000000E+00  0.00000000E+00  0.00000000E+00
  0.00000000E+00  0.00000000E+00  0.00000000E+00
  0.00000000E+00  0.00000000E+00  0.00000000E+00
  0.00000000E+00  0.00000000E+00  0.00000000E+00
  0.00000000E+00  0.00000000E+00  0.00000000E+00
  0.00000000E+00  0.00000000E+00  0.00000000E+00
  0.00000000E+00  0.00000000E+00  0.00000000E+00
  0.00000000E+00  0.00000000E+00  0.00000000E+00
  0.00000000E+00  0.00000000E+00  0.00000000E+00
  0.00000000E+00  0.00000000E+00  0.00000000E+00
  0.00000000E+00  0.00000000E+00  0.00000000E+00
  0.00000000E+00  0.00000000E+00  0.00000000E+00
  0.00000000E+00  0.00000000E+00  0.00000000E+00
  0.00000000E+00  0.00000000E+00  0.00000000E+00
  0.00000000E+00  0.00000000E+00  0.00000000E+00
  0.00000000E+00  0.00000000E+00  0.00000000E+00
  0.00000000E+00  0.00000000E+00  0.00000000E+00
  0.00000000E+00  0.00000000E+00  0.00000000E+00
  0.00000000E+00  0.00000000E+00  0.00000000E+00
  0.00000000E+00  0.00000000E+00  0.00000000E+00
  0.00000000E+00  0.00000000E+00  0.00000000E+00
  0.00000000E+00  0.00000000E+00  0.00000000E+00
  0.00000000E+00  0.00000000E+00  0.00000000E+00
  0.00000000E+00  0.00000000E+00  0.00000000E+00
  0.00000000E+00  0.00000000E+00  0.00000000E+00
  0.00000000E+00  0.00000000E+00  0.00000000E+00
  0.00000000E+00  0.00000000E+00  0.00000000E+00
  0.00000000E+00  0.00000000E+00  0.00000000E+00
  0.00000000E+00  0.00000000E+00  0.00000000E+00
  0.00000000E+00  0.00000000E+00  0.00000000E+00
  0.00000000E+00  0.00000000E+00  0.00000000E+00
  0.00000000E+00  0.00000000E+00  0.00000000E+00
  0.00000000E+00  0.00000000E+00  0.00000000E+00
  0.00000000E+00  0.00000000E+00  0.00000000E+00
  0.00000000E+00  0.00000000E+00  0.00000000E+00
  0.00000000E+00  0.00000000E+00  0.00000000E+00
  0.00000000E+00  0.00000000E+00  0.00000000E+00
  0.00000000E+00  0.00000000E+00  0.00000000E+00
  0.00000000E+00  0.00000000E+00  0.00000000E+00
  0.00000000E+00  0.00000000E+00  0.00000000E+00
  0.00000000E+00  0.00000000E+00  0.00000000E+00
  0.00000000E+00  0.00000000E+00  0.00000000E+00
  0.00000000E+00  0.00000000E+00  0.00000000E+00
  0.00000000E+00  0.00000000E+00  0.00000000E+00
  0.00000000E+00  0.00000000E+00  0.00000000E+00
  0.00000000E+00  0.00000000E+00  0.00000000E+00
  0.00000000E+00  0.00000000E+00  0.00000000E+00
  0.00000000E+00  0.00000000E+00  0.00000000E+00
  0.00000000E+00  0.00000000E+00  0.00000000E+00
  0.00000000E+00  0.00000000E+00  0.00000000E+00
  0.00000000E+00  0.00000000E+00  0.00000000E+00
  0.00000000E+00  0.00000000E+00  0.00000000E+00
  0.00000000E+00  0.00000000E+00  0.00000000E+00
  0.00000000E+00  0.00000000E+00  0.00000000E+00
  0.00000000E+00  0.00000000E+00  0.00000000E+00
  0.00000000E+00  0.00000000E+00  0.00000000E+00
  0.00000000E+00  0.00000000E+00  0.00000000E+00
  0.00000000E+00  0.00000000E+00  0.00000000E+00
  0.00000000E+00  0.00000000E+00  0.00000000E+00
  0.00000000E+00  0.00000000E+00  0.00000000E+00
  0.00000000E+00  0.00000000E+00  0.00000000E+00
  0.00000000E+00  0.00000000E+00  0.00000000E+00
  0.00000000E+00  0.00000000E+00  0.00000000E+00
  0.00000000E+00  0.00000000E+00  0.00000000E+00
  0.00000000E+00  0.00000000E+00  0.00000000E+00
  0.00000000E+00  0.00000000E+00  0.00000000E+00
  0.00000000E+00  0.00000000E+00  0.00000000E+00
  0.00000000E+00  0.00000000E+00  0.00000000E+00
  0.00000000E+00  0.00000000E+00  0.00000000E+00
  0.00000000E+00  0.00000000E+00  0.00000000E+00
  0.00000000E+00  0.00000000E+00  0.00000000E+00
  0.00000000E+00  0.00000000E+00  0.00000000E+00
  0.00000000E+00  0.00000000E+00  0.00000000E+00
  0.00000000E+00  0.00000000E+00  0.00000000E+00
  0.00000000E+00  0.00000000E+00  0.00000000E+00
  0.00000000E+00  0.00000000E+00  0.00000000E+00
  0.00000000E+00  0.00000000E+00  0.00000000E+00
  0.00000000E+00  0.00000000E+00  0.00000000E+00
  0.00000000E+00  0.00000000E+00  0.00000000E+00
  0.00000000E+00  0.00000000E+00  0.00000000E+00
  0.00000000E+00  0.00000000E+00  0.00000000E+00
  0.00000000E+00  0.00000000E+00  0.00000000E+00
  0.00000000E+00  0.00000000E+00  0.00000000E+00
  0.00000000E+00  0.00000000E+00  0.00000000E+00
