POSCAR                                  
   1.00000000000000     
     9.4837527158517467   -0.0085601107737702    0.0072616703832470
    -4.7492819194291478    8.2411258652072430   -0.0032156393529542
     0.0116313523996652    0.0009649919337455   15.0549735599205796
   Al   N    Li   Nb
    48    54     3     3
Direct
  0.1051629710041874  0.2187804127189550 -0.0002245856836717
  0.4546030674830002  0.2305291533618029  0.0010369348729795
  0.7716541692726154  0.2131978175357441  0.0017355564462795
  0.7682038301262801  0.5552333427004542  0.0028024909073110
  0.1032688277343310  0.8886919666631177 -0.0032402045912046
  0.4556558906276397  0.8960161470920711 -0.0041011229408422
  0.7726025925636526  0.8865990956071476  0.0000559694872147
  0.1102812613821919  0.2224500543190233  0.3395461755469788
  0.4468524608249512  0.2245286983061222  0.3346854762098418
  0.7822080137237301  0.2270012593213211  0.3332331630848387
  0.1042329759022733  0.5424209716409092  0.3420368608844013
  0.4461281596021898  0.5553464247958761  0.3351077843581249
  0.7802516212281204  0.5522113687943490  0.3339989858372001
  0.1076785082961771  0.8931704997143571  0.3378757195041124
  0.4545177575759827  0.8937179777304072  0.3362664466997980
  0.7783484839201817  0.8905426129085516  0.3343528915863666
  0.1082231775438936  0.2247783746037843  0.6537976603000616
  0.4502444984929810  0.2266468567626027  0.6573859333699212
  0.7782543411587962  0.2225573126781729  0.6622757624476138
  0.1095517945682810  0.5560168452589307  0.6611201297968687
  0.4469510047799600  0.5580730340743326  0.6633128048658035
  0.7766690101090413  0.5555471641004418  0.6616482070497733
  0.1081085058159758  0.8853690438304613  0.6571838575272866
  0.4466003614398937  0.8895962225560630  0.6629808559341015
  0.7763390554357547  0.8890130740916080  0.6632860428747089
  0.5603667176361792  0.1102873456631057  0.8315488504160983
  0.8790186736260654  0.1059579859368011  0.8324948889765227
  0.2254169880027871  0.4496116460270677  0.8125634508861251
  0.5615053436632260  0.4539743435129677  0.8347950602605700
  0.8814760516589277  0.4421773923182686  0.8271518706042215
  0.2272345979579324  0.7795353892512913  0.8260897978898171
  0.5563388483535072  0.7781605331212190  0.8342699955572365
  0.8782944550973315  0.7718215362520899  0.8308796531054723
  0.2258374191830250  0.1196933650407068  0.1689177845718051
  0.5637623403353490  0.1210465708498136  0.1687203071347438
  0.8857769214114367  0.1112196364917513  0.1676185997905289
  0.2305237265023658  0.4377249348601909  0.1712457264315009
  0.5589918138820432  0.4495300917275705  0.1671053269948375
  0.5587962557047749  0.7703274913046958  0.1669685765109460
  0.8769813616250972  0.7720466161666288  0.1684621676624743
  0.2220622668231927  0.1128157694342995  0.4983685182840158
  0.5573144967527741  0.1116825759365877  0.4981042956189980
  0.8889412374136818  0.1102531055657300  0.4974402218375159
  0.5552950946883484  0.4489825379117142  0.4963261796158440
  0.8912359740928393  0.4462253023553492  0.4963200379692134
  0.2224954063189652  0.7748036616997175  0.4989751495644495
  0.5544871904169734  0.7735450872332350  0.4976819828473220
  0.8861007913107951  0.7764358451326334  0.4973504521288351
  0.1109745144495307  0.2208786361862995  0.1254514253873912
  0.4437638032457387  0.2211014075976074  0.1271047743160747
  0.7697137056408377  0.2050438990791179  0.1234451789460931
  0.1256864735576668  0.5504110818967063  0.1195240967382526
  0.4435200781780502  0.5537981361503946  0.1360553402758744
  0.7735030797300948  0.5641588154156757  0.1249792811415956
  0.1072971938541112  0.8946640777408242  0.1241362653114535
  0.4465380382992984  0.8911221279396293  0.1261343189484833
  0.7792444303570076  0.8903537988572384  0.1271067453631908
  0.1045663439534672  0.2079774797901326  0.4632544898339226
  0.4449120725983332  0.2218662567371101  0.4625342016852884
  0.7771069639190186  0.2206866742861891  0.4617519109654178
  0.1079182288921236  0.5635171579833451  0.4638796094578332
  0.4583496283183264  0.5632964538107322  0.4583732849012831
  0.7778383805507495  0.5560835564233483  0.4622996693524524
  0.1132104863649428  0.8897699804710475  0.4636348467501819
  0.4454575173312557  0.8901788424217469  0.4616351114916920
  0.7772963173402060  0.8892450310929858  0.4609346298533019
  0.1009706812638730  0.2183260362243898  0.7892827415464733
  0.4546848295535032  0.2284285037819860  0.7887008801881416
  0.7776143190935566  0.2219294086992766  0.7912682175660414
  0.1066582982694677  0.5599002412877151  0.7971991274371986
  0.4518593706824131  0.5601765148170604  0.7924543469793796
  0.7774944874069168  0.5565937224912575  0.7898382877666852
  0.1045900459434923  0.8799929291433116  0.7899607418014238
  0.4457968090992590  0.8912688851960694  0.7912234414789091
  0.7776660780863901  0.8889229220210130  0.7912319017380246
  0.2221019901269187  0.1108652733897511  0.9581497511603825
  0.5532599743127922  0.1121868216747482  0.9575097971242126
  0.8885590980065086  0.1088555274705916  0.9584237872211134
  0.2067419737523455  0.4255968628108689  0.9450383621492408
  0.5618841047436636  0.4359107000431095  0.9558115997951330
  0.8781374368530425  0.4368203922795890  0.9568341634339181
  0.2286102339189662  0.7924843341332196  0.9565308465389870
  0.5618808902841237  0.7928029216279122  0.9572939479607155
  0.8878172004483826  0.7774460239483681  0.9572567524506751
  0.2231175526975390  0.1110237792186068  0.2946537151390359
  0.5557967102404843  0.1113783385526308  0.2949291747660718
  0.8900992986121675  0.1113460972269111  0.2945570769944120
  0.2204085100070033  0.4417487442489657  0.2966596763471407
  0.5575969532956576  0.4426097264676535  0.2950804397071387
  0.8914976567769572  0.4449094323600677  0.3022883360492247
  0.2241680578610079  0.7788040978302488  0.2965973398032966
  0.5573106477849848  0.7809617622263044  0.2937237806793531
  0.8904109468097847  0.7788428373224157  0.2951994609754204
  0.2231035105155731  0.1110135857253057  0.6311714881099600
  0.5560461057784373  0.1110452697988371  0.6262643252712496
  0.8857772788137996  0.1094605930577727  0.6262529606349619
  0.2225834695884064  0.4465921215580991  0.6485290594525672
  0.5559409281556774  0.4458381699813153  0.6253262786398479
  0.8874081810989046  0.4439786141399217  0.6274597173208323
  0.2235153917899647  0.7793850490209456  0.6283960526328078
  0.5560247768992712  0.7791401127663160  0.6262229992349735
  0.8875214224488646  0.7780823045005889  0.6259090074348457
  0.4529831567319677  0.5578482012036732  0.0004014765098620
  0.8741029974614871  0.4343891170400683  0.1695919592893095
  0.2260600455573044  0.4471870397710622  0.4993442841998219
  0.1136222317209935  0.5497315519921565 -0.0127368272375396
  0.2227781692855705  0.1124312577067717  0.8241973502421609
  0.2180546085721159  0.7736962664029482  0.1661783017118473
 
  0.00000000E+00  0.00000000E+00  0.00000000E+00
  0.00000000E+00  0.00000000E+00  0.00000000E+00
  0.00000000E+00  0.00000000E+00  0.00000000E+00
  0.00000000E+00  0.00000000E+00  0.00000000E+00
  0.00000000E+00  0.00000000E+00  0.00000000E+00
  0.00000000E+00  0.00000000E+00  0.00000000E+00
  0.00000000E+00  0.00000000E+00  0.00000000E+00
  0.00000000E+00  0.00000000E+00  0.00000000E+00
  0.00000000E+00  0.00000000E+00  0.00000000E+00
  0.00000000E+00  0.00000000E+00  0.00000000E+00
  0.00000000E+00  0.00000000E+00  0.00000000E+00
  0.00000000E+00  0.00000000E+00  0.00000000E+00
  0.00000000E+00  0.00000000E+00  0.00000000E+00
  0.00000000E+00  0.00000000E+00  0.00000000E+00
  0.00000000E+00  0.00000000E+00  0.00000000E+00
  0.00000000E+00  0.00000000E+00  0.00000000E+00
  0.00000000E+00  0.00000000E+00  0.00000000E+00
  0.00000000E+00  0.00000000E+00  0.00000000E+00
  0.00000000E+00  0.00000000E+00  0.00000000E+00
  0.00000000E+00  0.00000000E+00  0.00000000E+00
  0.00000000E+00  0.00000000E+00  0.00000000E+00
  0.00000000E+00  0.00000000E+00  0.00000000E+00
  0.00000000E+00  0.00000000E+00  0.00000000E+00
  0.00000000E+00  0.00000000E+00  0.00000000E+00
  0.00000000E+00  0.00000000E+00  0.00000000E+00
  0.00000000E+00  0.00000000E+00  0.00000000E+00
  0.00000000E+00  0.00000000E+00  0.00000000E+00
  0.00000000E+00  0.00000000E+00  0.00000000E+00
  0.00000000E+00  0.00000000E+00  0.00000000E+00
  0.00000000E+00  0.00000000E+00  0.00000000E+00
  0.00000000E+00  0.00000000E+00  0.00000000E+00
  0.00000000E+00  0.00000000E+00  0.00000000E+00
  0.00000000E+00  0.00000000E+00  0.00000000E+00
  0.00000000E+00  0.00000000E+00  0.00000000E+00
  0.00000000E+00  0.00000000E+00  0.00000000E+00
  0.00000000E+00  0.00000000E+00  0.00000000E+00
  0.00000000E+00  0.00000000E+00  0.00000000E+00
  0.00000000E+00  0.00000000E+00  0.00000000E+00
  0.00000000E+00  0.00000000E+00  0.00000000E+00
  0.00000000E+00  0.00000000E+00  0.00000000E+00
  0.00000000E+00  0.00000000E+00  0.00000000E+00
  0.00000000E+00  0.00000000E+00  0.00000000E+00
  0.00000000E+00  0.00000000E+00  0.00000000E+00
  0.00000000E+00  0.00000000E+00  0.00000000E+00
  0.00000000E+00  0.00000000E+00  0.00000000E+00
  0.00000000E+00  0.00000000E+00  0.00000000E+00
  0.00000000E+00  0.00000000E+00  0.00000000E+00
  0.00000000E+00  0.00000000E+00  0.00000000E+00
  0.00000000E+00  0.00000000E+00  0.00000000E+00
  0.00000000E+00  0.00000000E+00  0.00000000E+00
  0.00000000E+00  0.00000000E+00  0.00000000E+00
  0.00000000E+00  0.00000000E+00  0.00000000E+00
  0.00000000E+00  0.00000000E+00  0.00000000E+00
  0.00000000E+00  0.00000000E+00  0.00000000E+00
  0.00000000E+00  0.00000000E+00  0.00000000E+00
  0.00000000E+00  0.00000000E+00  0.00000000E+00
  0.00000000E+00  0.00000000E+00  0.00000000E+00
  0.00000000E+00  0.00000000E+00  0.00000000E+00
  0.00000000E+00  0.00000000E+00  0.00000000E+00
  0.00000000E+00  0.00000000E+00  0.00000000E+00
  0.00000000E+00  0.00000000E+00  0.00000000E+00
  0.00000000E+00  0.00000000E+00  0.00000000E+00
  0.00000000E+00  0.00000000E+00  0.00000000E+00
  0.00000000E+00  0.00000000E+00  0.00000000E+00
  0.00000000E+00  0.00000000E+00  0.00000000E+00
  0.00000000E+00  0.00000000E+00  0.00000000E+00
  0.00000000E+00  0.00000000E+00  0.00000000E+00
  0.00000000E+00  0.00000000E+00  0.00000000E+00
  0.00000000E+00  0.00000000E+00  0.00000000E+00
  0.00000000E+00  0.00000000E+00  0.00000000E+00
  0.00000000E+00  0.00000000E+00  0.00000000E+00
  0.00000000E+00  0.00000000E+00  0.00000000E+00
  0.00000000E+00  0.00000000E+00  0.00000000E+00
  0.00000000E+00  0.00000000E+00  0.00000000E+00
  0.00000000E+00  0.00000000E+00  0.00000000E+00
  0.00000000E+00  0.00000000E+00  0.00000000E+00
  0.00000000E+00  0.00000000E+00  0.00000000E+00
  0.00000000E+00  0.00000000E+00  0.00000000E+00
  0.00000000E+00  0.00000000E+00  0.00000000E+00
  0.00000000E+00  0.00000000E+00  0.00000000E+00
  0.00000000E+00  0.00000000E+00  0.00000000E+00
  0.00000000E+00  0.00000000E+00  0.00000000E+00
  0.00000000E+00  0.00000000E+00  0.00000000E+00
  0.00000000E+00  0.00000000E+00  0.00000000E+00
  0.00000000E+00  0.00000000E+00  0.00000000E+00
  0.00000000E+00  0.00000000E+00  0.00000000E+00
  0.00000000E+00  0.00000000E+00  0.00000000E+00
  0.00000000E+00  0.00000000E+00  0.00000000E+00
  0.00000000E+00  0.00000000E+00  0.00000000E+00
  0.00000000E+00  0.00000000E+00  0.00000000E+00
  0.00000000E+00  0.00000000E+00  0.00000000E+00
  0.00000000E+00  0.00000000E+00  0.00000000E+00
  0.00000000E+00  0.00000000E+00  0.00000000E+00
  0.00000000E+00  0.00000000E+00  0.00000000E+00
  0.00000000E+00  0.00000000E+00  0.00000000E+00
  0.00000000E+00  0.00000000E+00  0.00000000E+00
  0.00000000E+00  0.00000000E+00  0.00000000E+00
  0.00000000E+00  0.00000000E+00  0.00000000E+00
  0.00000000E+00  0.00000000E+00  0.00000000E+00
  0.00000000E+00  0.00000000E+00  0.00000000E+00
  0.00000000E+00  0.00000000E+00  0.00000000E+00
  0.00000000E+00  0.00000000E+00  0.00000000E+00
  0.00000000E+00  0.00000000E+00  0.00000000E+00
  0.00000000E+00  0.00000000E+00  0.00000000E+00
  0.00000000E+00  0.00000000E+00  0.00000000E+00
  0.00000000E+00  0.00000000E+00  0.00000000E+00
  0.00000000E+00  0.00000000E+00  0.00000000E+00
  0.00000000E+00  0.00000000E+00  0.00000000E+00
