Ta  N Cu 
 1.0000000000000000
    18.1096308199999996    0.0000000000000000    0.0000000000000000
     0.0000000000000000   23.3551997799999995    0.0000000000000000
     0.0000000000000000    0.0000000000000000   30.4818170799999990
 240 240  29
Selective dynamics
Cartesian
  18.046785   23.337075   5.942920  F  F  F
   5.933758    1.357184   6.138336  F  F  F
   3.049163    1.355347   6.138569  F  F  F
   4.488580    2.895103   8.535941  F  F  F
   1.461614    1.439651   8.622913  F  F  F
   7.517262    1.440177   8.623236  F  F  F
  18.070625    2.893976  11.239324  F  F  F
   5.984510    1.436500  11.214211  F  F  F
   2.996062    1.435716  11.213974  F  F  F
   4.490259    2.895369  13.877836  T  T  T
   1.479885    1.434006  13.836163  T  T  T
   7.500889    1.435327  13.837043  T  T  T
  18.076900    2.894974  16.471297  T  T  T
   6.034983    1.433689  16.527687  T  T  T
   2.952436    1.434909  16.522703  T  T  T
  18.104722    2.896293   5.942724  F  F  F
   5.933152    4.437090   6.138308  F  F  F
   3.048961    4.438063   6.141408  F  F  F
   4.486578    5.811737   8.556129  F  F  F
   1.459363    4.350328   8.624514  F  F  F
   7.516491    4.350706   8.623056  F  F  F
  18.067626    5.812489  11.245355  F  F  F
   5.982477    4.352592  11.214616  F  F  F
   2.993586    4.353108  11.215321  F  F  F
   4.483703    5.808315  13.876116  T  T  T
   1.475214    4.350126  13.836164  T  T  T
   7.501242    4.350132  13.839600  T  T  T
  18.062984    5.817460  16.472195  T  T  T
   6.012966    4.325462  16.528835  T  T  T
   2.936153    4.351431  16.518552  T  T  T
  18.045179    5.810874   5.946904  F  F  F
   5.934606    7.194525   6.137687  F  F  F
   3.047714    7.191395   6.140680  F  F  F
   4.485510    8.731761   8.536102  F  F  F
   1.458679    7.273873   8.624616  F  F  F
   7.516047    7.274442   8.622814  F  F  F
  18.071230    8.731464  11.246688  F  F  F
   5.982711    7.271205  11.211723  F  F  F
   2.990484    7.272434  11.213804  F  F  F
   4.473420    8.730654  13.862830  T  T  T
   1.468442    7.270911  13.840365  T  T  T
   7.499563    7.268539  13.829039  T  T  T
  18.039497    8.743399  16.493247  T  T  T
   5.943807    7.237579  16.459887  T  T  T
   2.908445    7.259420  16.514916  T  T  T
  18.109165    8.724847   5.948287  F  F  F
   5.930327   10.273028   6.136135  F  F  F
   3.050366   10.274935   6.140012  F  F  F
   4.490336   23.333901   8.554503  F  F  F
   1.457102   10.187032   8.624174  F  F  F
   7.516343   10.187645   8.620026  F  F  F
  18.074140   23.332554  11.237339  F  F  F
   5.982730   10.191911  11.207512  F  F  F
   2.987958   10.192500  11.211230  F  F  F
   4.493986   23.332757  13.879632  T  T  T
   1.476365   10.193480  13.851935  T  T  T
   7.494460   10.190845  13.817140  T  T  T
  18.076294   23.333233  16.470299  T  T  T
   5.957554   10.169163  16.444334  T  T  T
   2.905333   10.165475  16.517425  T  T  T
  18.062318   11.648897   5.935786  F  F  F
   5.932620   13.033327   6.136249  F  F  F
   3.051294   13.029661   6.139823  F  F  F
   4.487582   14.573873   8.531306  F  F  F
   1.456692   13.115058   8.620575  F  F  F
   7.518629   13.115786   8.617793  F  F  F
  18.081410   14.575189  11.242355  F  F  F
   5.985205   13.115583  11.207228  F  F  F
   2.992654   13.113984  11.209015  F  F  F
   4.485581   14.576326  13.857963  T  T  T
   1.493963   13.115063  13.856495  T  T  T
   7.491762   13.118752  13.821207  T  T  T
  18.076012   14.574548  16.461214  T  T  T
   5.991651   13.110337  16.447871  T  T  T
   2.897785   13.107213  16.549637  T  T  T
   0.012722   14.574931   5.944442  F  F  F
   5.933944   16.115182   6.135586  F  F  F
   3.051617   16.116514   6.138684  F  F  F
   4.489438   17.495441   8.549201  F  F  F
   1.458990   16.032710   8.619681  F  F  F
   7.519027   16.032967   8.618674  F  F  F
  18.078962   17.497302  11.236285  F  F  F
   5.985504   16.035829  11.209006  F  F  F
   2.995051   16.034169  11.209081  F  F  F
   4.492118   17.494964  13.875529  T  T  T
   1.490802   16.035796  13.844573  T  T  T
   7.495843   16.040754  13.832752  T  T  T
  18.076792   17.495936  16.457080  T  T  T
   5.985477   16.071344  16.485096  T  T  T
   2.915894   16.051118  16.536531  T  T  T
  18.064387   17.499298   5.931802  F  F  F
   5.933535   18.874662   6.133681  F  F  F
   3.052819   18.872842   6.135555  F  F  F
   4.490808   20.415930   8.534515  F  F  F
   1.462194   18.959303   8.620316  F  F  F
   7.517954   18.959928   8.620297  F  F  F
  18.076986   20.415674  11.235001  F  F  F
   5.984877   18.954917  11.211667  F  F  F
   2.997378   18.954116  11.211022  F  F  F
   4.492563   20.415873  13.873153  T  T  T
   1.484525   18.957666  13.833851  T  T  T
   7.500114   18.961124  13.834170  T  T  T
  18.078750   20.415084  16.466371  T  T  T
   6.008092   18.994419  16.518532  T  T  T
   2.946570   18.961083  16.520542  T  T  T
   0.001561   20.423165   5.942977  F  F  F
   5.935882   21.956293   6.135799  F  F  F
   3.048575   21.955537   6.137467  F  F  F
   4.484367   11.652922   8.550073  F  F  F
   1.463142   21.871569   8.622073  F  F  F
   7.517248   21.872127   8.622072  F  F  F
  18.076624   11.652124  11.246977  F  F  F
   5.984760   21.873815  11.212835  F  F  F
   2.997733   21.873168  11.212339  F  F  F
   4.477573   11.652675  13.852752  T  T  T
   1.482058   21.874059  13.834908  T  T  T
   7.501553   21.876201  13.835337  T  T  T
  18.084599   11.652320  16.476564  T  T  T
   6.037077   21.885258  16.527286  T  T  T
   2.953600   21.877834  16.522455  T  T  T
   9.043483   23.337111   5.941333  F  F  F
  14.990025    1.517578   6.140593  F  F  F
  12.098750    1.515461   6.140439  F  F  F
  13.545371    2.895232   8.552943  F  F  F
  10.512359    1.433166   8.623019  F  F  F
  16.576804    1.433530   8.622109  F  F  F
   9.016857    2.894823  11.239209  F  F  F
  15.039504    1.435750  11.212114  F  F  F
  12.049486    1.435868  11.212328  F  F  F
  13.545898    2.893922  13.876318  T  T  T
  10.536147    1.433340  13.836310  T  T  T
  16.555269    1.433195  13.836148  T  T  T
   9.011733    2.904770  16.465953  T  T  T
  15.083022    1.425133  16.521688  T  T  T
  12.005147    1.419023  16.526001  T  T  T
   8.984253    2.895708   5.941712  F  F  F
  14.989420    4.277821   6.142708  F  F  F
  12.098268    4.277783   6.140877  F  F  F
  13.544123    5.810458   8.541900  F  F  F
  10.511856    4.356942   8.623841  F  F  F
  16.575504    4.357826   8.624069  F  F  F
   9.016487    5.810262  11.241888  F  F  F
  15.040434    4.353181  11.214686  F  F  F
  12.049535    4.353157  11.215457  F  F  F
  13.541869    5.809866  13.869597  T  T  T
  10.538405    4.349052  13.841425  T  T  T
  16.548729    4.348746  13.843367  T  T  T
   9.006208    5.839714  16.463053  T  T  T
  15.113086    4.325441  16.532678  T  T  T
  12.005293    4.300572  16.528347  T  T  T
   9.043230    5.810658   5.943209  F  F  F
  14.986195    7.343357   6.141829  F  F  F
  12.099702    7.341602   6.139418  F  F  F
  13.546091    8.727282   8.549980  F  F  F
  10.511486    7.265279   8.622866  F  F  F
  16.575389    7.265859   8.623476  F  F  F
   9.016810    8.730487  11.236994  F  F  F
  15.042596    7.271547  11.216725  F  F  F
  12.046837    7.271390  11.215269  F  F  F
  13.549708    8.733811  13.862777  T  T  T
  10.536102    7.269067  13.838022  T  T  T
  16.549844    7.270479  13.847755  T  T  T
   9.005220    8.728035  16.437344  T  T  T
  15.117894    7.251638  16.510448  T  T  T
  12.011234    7.255589  16.469017  T  T  T
   8.981000    8.725176   5.944771  F  F  F
  14.987711   10.093895   6.129462  F  F  F
  12.103251   10.094084   6.127312  F  F  F
  13.544699   23.335496   8.539771  F  F  F
  10.515261   10.190319   8.621171  F  F  F
  16.573360   10.190831   8.623745  F  F  F
   9.017167   23.332852  11.237575  F  F  F
  15.047785   10.191830  11.213618  F  F  F
  12.049634   10.192332  11.207896  F  F  F
  13.546356   23.331582  13.873043  T  T  T
  10.530925   10.199259  13.821262  T  T  T
  16.558790   10.197202  13.846162  T  T  T
   9.019264   23.333164  16.470979  T  T  T
  15.104531   10.205011  16.468886  T  T  T
  12.050283   10.221184  16.427882  T  T  T
   9.030442   11.649332   5.931974  F  F  F
  15.070021   13.124426   6.170408  F  F  F
  12.023816   13.122409   6.168412  F  F  F
  13.546267   14.574617   8.456315  F  F  F
  10.513010   13.108771   8.621045  F  F  F
  16.577856   13.108942   8.622903  F  F  F
   9.016477   14.577747  11.233513  F  F  F
  15.045147   13.115612  11.201989  F  F  F
  12.055981   13.116100  11.198747  F  F  F
  13.559303   14.583182  13.851838  T  T  T
  10.534008   13.124416  13.816211  T  T  T
  16.565996   13.122171  13.830627  T  T  T
   9.057999   14.589304  16.438882  T  T  T
  15.125662   13.170910  16.504006  T  T  T
  12.081645   13.160263  16.451325  T  T  T
   8.971565   14.574169   5.942796  F  F  F
  15.069299   16.022703   6.168242  F  F  F
  12.022462   16.023772   6.166614  F  F  F
  13.545006   17.521495   8.485368  F  F  F
  10.513633   16.039775   8.620686  F  F  F
  16.577691   16.040495   8.620512  F  F  F
   9.016955   17.499040  11.234583  F  F  F
  15.041483   16.038176  11.196595  F  F  F
  12.053580   16.038816  11.200038  F  F  F
  13.551054   17.501453  13.862244  T  T  T
  10.535412   16.043313  13.824437  T  T  T
  16.566543   16.041913  13.822685  T  T  T
   9.021327   17.484663  16.445804  T  T  T
  15.125001   16.060868  16.504272  T  T  T
  12.085760   16.070677  16.464144  T  T  T
   9.029891   17.498031   5.929726  F  F  F
  14.988177   19.054355   6.124247  F  F  F
  12.103165   19.053377   6.122728  F  F  F
  13.545273   20.419702   8.547060  F  F  F
  10.516648   18.956725   8.619538  F  F  F
  16.574283   18.957461   8.618765  F  F  F
   9.016655   20.415307  11.235564  F  F  F
  15.040200   18.958257  11.204831  F  F  F
  12.052818   18.957883  11.207725  F  F  F
  13.550067   20.414701  13.869350  T  T  T
  10.537004   18.960955  13.830270  T  T  T
  16.561234   18.959637  13.823305  T  T  T
   9.018359   20.407825  16.464963  T  T  T
  15.101344   18.966859  16.510455  T  T  T
  12.026229   18.991997  16.516463  T  T  T
   8.980955   20.423262   5.942803  F  F  F
  14.989133   21.805590   6.136664  F  F  F
  12.101635   21.806167   6.135915  F  F  F
  13.546876   11.628483   8.489427  F  F  F
  10.513088   21.880212   8.619792  F  F  F
  16.577207   21.881375   8.619423  F  F  F
   9.016745   11.652810  11.233750  F  F  F
  15.040130   21.875352  11.209213  F  F  F
  12.050388   21.874695  11.210743  F  F  F
  13.564619   11.666439  13.847698  T  T  T
  10.537356   21.874866  13.834120  T  T  T
  16.558122   21.874111  13.830835  T  T  T
   9.040827   11.659822  16.423308  T  T  T
  15.090167   21.875895  16.519428  T  T  T
  12.003143   21.877654  16.521694  T  T  T
   7.327855   23.334913   7.047690  F  F  F
   4.492396   23.333775   5.368442  F  F  F
   1.654963   23.334424   7.047505  F  F  F
   2.731448    2.894921   9.617791  F  F  F
  18.071049    2.895383   9.194210  F  F  F
   6.246025    2.895758   9.617163  F  F  F
   7.230362    2.895640  12.244811  F  F  F
   4.489677    2.894289  11.801323  F  F  F
   1.747692    2.894200  12.243147  F  F  F
   2.706560    2.891702  14.853870  T  T  T
  18.070770    2.893356  14.398476  T  T  T
   6.276005    2.894542  14.857868  T  T  T
   7.261582    2.907795  17.382870  T  T  T
   4.493914    2.906433  16.990356  T  T  T
   1.718267    2.890023  17.373479  T  T  T
   7.302061    2.896195   7.036242  F  F  F
   4.490815    2.896674   6.396976  F  F  F
   1.678834    2.896391   7.036171  F  F  F
   2.724162    5.812225   9.626774  F  F  F
  18.073148    5.812680   9.198872  F  F  F
   6.251070    5.812748   9.624676  F  F  F
   7.228723    5.809630  12.244413  F  F  F
   4.488626    5.813372  11.801950  F  F  F
   1.744619    5.812822  12.246347  F  F  F
   2.697989    5.807137  14.853782  T  T  T
  18.064182    5.811974  14.400603  T  T  T
   6.274400    5.799368  14.863058  T  T  T
   7.237380    5.846508  17.422765  T  T  T
   4.465889    5.814885  16.996274  T  T  T
   1.700779    5.806988  17.379012  T  T  T
   7.327365    5.813027   7.048269  F  F  F
   4.492382    5.815794   5.371163  F  F  F
   1.652132    5.812218   7.050658  F  F  F
   2.728222    8.731486   9.618149  F  F  F
  18.068959    8.730543   9.199229  F  F  F
   6.243785    8.731243   9.614591  F  F  F
   7.226378    8.730555  12.233936  F  F  F
   4.484979    8.732444  11.793295  F  F  F
   1.746354    8.733367  12.249181  F  F  F
   2.692963    8.724860  14.856426  T  T  T
  18.064344    8.733597  14.416309  T  T  T
   6.264074    8.722565  14.831009  T  T  T
   7.184485    8.713468  17.320866  T  T  T
   4.450012    8.724470  16.986701  T  T  T
   1.679717    8.733099  17.376916  T  T  T
   7.301310    8.731206   7.037979  F  F  F
   4.489703    8.730834   6.401308  F  F  F
   1.679535    8.730876   7.040567  F  F  F
   2.727007   23.333044   9.624490  F  F  F
  18.075879   23.333215   9.192492  F  F  F
   6.253195   23.333380   9.624561  F  F  F
   7.231494   23.333123  12.245227  F  F  F
   4.491055   23.332366  11.803755  F  F  F
   1.750152   23.331833  12.243925  F  F  F
   2.708755   23.332108  14.853550  T  T  T
  18.072883   23.331068  14.396148  T  T  T
   6.279943   23.334096  14.856967  T  T  T
   7.265159   23.335702  17.378383  T  T  T
   4.495765   23.334227  16.993004  T  T  T
   1.723457   23.332346  17.369161  T  T  T
   7.323980   11.644489   7.045892  F  F  F
   4.492842   11.652285   5.367575  F  F  F
   1.656655   11.644156   7.050674  F  F  F
   2.729018   14.574197   9.613736  F  F  F
  18.069259   14.574364   9.197778  F  F  F
   6.247734   14.574929   9.611138  F  F  F
   7.226999   14.578864  12.236508  F  F  F
   4.489291   14.575263  11.787879  F  F  F
   1.759018   14.572214  12.249337  F  F  F
   2.723369   14.578310  14.883240  T  T  T
  18.081393   14.577309  14.387150  T  T  T
   6.260057   14.583512  14.852905  T  T  T
   7.249435   14.566364  17.305482  T  T  T
   4.492992   14.554929  17.138401  T  T  T
   1.707538   14.573040  17.394147  T  T  T
   7.293846   14.574200   7.035859  F  F  F
   4.491456   14.574127   6.390011  F  F  F
   1.689617   14.573121   7.037565  F  F  F
   2.726388   17.493018   9.622005  F  F  F
  18.072514   17.496619   9.192630  F  F  F
   6.253381   17.493574   9.621306  F  F  F
   7.229765   17.496708  12.242236  F  F  F
   4.492057   17.493942  11.799926  F  F  F
   1.754603   17.493841  12.244056  F  F  F
   2.710674   17.500172  14.857663  T  T  T
  18.077959   17.497075  14.383620  T  T  T
   6.279502   17.507862  14.866769  T  T  T
   7.242248   17.499868  17.409734  T  T  T
   4.481949   17.487471  17.006704  T  T  T
   1.717132   17.495612  17.376076  T  T  T
   7.324648   17.503228   7.045770  F  F  F
   4.494239   17.494961   5.367002  F  F  F
   1.659042   17.502872   7.047479  F  F  F
   2.733082   20.414483   9.615476  F  F  F
  18.072282   20.415656   9.190126  F  F  F
   6.248270   20.414372   9.615702  F  F  F
   7.230127   20.415202  12.241196  F  F  F
   4.491752   20.413596  11.798322  F  F  F
   1.753563   20.414369  12.240693  F  F  F
   2.710184   20.416719  14.852122  T  T  T
  18.075270   20.414466  14.391254  T  T  T
   6.277289   20.420056  14.853899  T  T  T
   7.261692   20.409464  17.377015  T  T  T
   4.494335   20.408592  16.988361  T  T  T
   1.723152   20.416793  17.370636  T  T  T
   7.301183   20.416511   7.036763  F  F  F
   4.492834   20.417193   6.398776  F  F  F
   1.682278   20.415997   7.036195  F  F  F
   2.722272   11.653954   9.623926  F  F  F
  18.071089   11.651644   9.201400  F  F  F
   6.250612   11.654667   9.617785  F  F  F
   7.225822   11.654461  12.232821  F  F  F
   4.486440   11.653137  11.784628  F  F  F
   1.753938   11.655093  12.253561  F  F  F
   2.716864   11.650074  14.882214  T  T  T
  18.076222   11.659577  14.401918  T  T  T
   6.255147   11.648336  14.834492  T  T  T
   7.239276   11.646561  17.295065  T  T  T
   4.489121   11.635257  17.125013  T  T  T
   1.701563   11.645039  17.397951  T  T  T
  16.363337   23.336496   7.035639  F  F  F
  13.545442   23.338301   6.407962  F  F  F
  10.726536   23.335833   7.036247  F  F  F
  11.780587    2.895777   9.623539  F  F  F
   9.016368    2.895760   9.194179  F  F  F
  15.308595    2.895363   9.623850  F  F  F
  16.284164    2.893848  12.246516  F  F  F
  13.544749    2.893995  11.800742  F  F  F
  10.803317    2.895040  12.246106  F  F  F
  11.762655    2.887112  14.857237  T  T  T
   9.018206    2.894356  14.397341  T  T  T
  15.326691    2.885744  14.858297  T  T  T
  16.317796    2.882146  17.377266  T  T  T
  13.542247    2.901779  17.002799  T  T  T
  10.771373    2.892117  17.378723  T  T  T
  16.387691    2.896465   7.047333  F  F  F
  13.543886    2.897400   5.386955  F  F  F
  10.702104    2.895925   7.047165  F  F  F
  11.784165    5.813838   9.618927  F  F  F
   9.011894    5.812698   9.197102  F  F  F
  15.303502    5.814683   9.620108  F  F  F
  16.279183    5.812883  12.249764  F  F  F
  13.543805    5.814420  11.797534  F  F  F
  10.805828    5.811392  12.247444  F  F  F
  11.763272    5.798910  14.879419  T  T  T
   9.018112    5.814175  14.399245  T  T  T
  15.315089    5.800260  14.869655  T  T  T
  16.316568    5.800102  17.396416  T  T  T
  13.544619    5.818686  17.099864  T  T  T
  10.784372    5.801646  17.427118  T  T  T
  16.362108    5.812002   7.039666  F  F  F
  13.543674    5.810235   6.409345  F  F  F
  10.725003    5.811558   7.039124  F  F  F
  11.781420    8.731339   9.621649  F  F  F
   9.016398    8.731356   9.193587  F  F  F
  15.308707    8.731109   9.624945  F  F  F
  16.283906    8.733190  12.250137  F  F  F
  13.546061    8.734746  11.796421  F  F  F
  10.804557    8.733339  12.239372  F  F  F
  11.758799    8.735761  14.847899  T  T  T
   9.015310    8.738827  14.380312  T  T  T
  15.330503    8.731388  14.863789  T  T  T
  16.264584    8.738391  17.465390  T  T  T
  13.557695    8.755603  16.983105  T  T  T
  10.800294    8.781167  17.390414  T  T  T
  16.387069    8.726002   7.045397  F  F  F
  13.544294    8.711737   5.359235  F  F  F
  10.702282    8.726003   7.043911  F  F  F
  11.784059   23.332439   9.615268  F  F  F
   9.013155   23.333316   9.193097  F  F  F
  15.305584   23.332951   9.614985  F  F  F
  16.285919   23.332769  12.240866  F  F  F
  13.545518   23.332406  11.797725  F  F  F
  10.804620   23.332595  12.242299  F  F  F
  11.761528   23.330941  14.853549  T  T  T
   9.019365   23.332197  14.397326  T  T  T
  15.329545   23.328577  14.851733  T  T  T
  16.317687   23.330138  17.368204  T  T  T
  13.544584   23.328351  16.991569  T  T  T
  10.773954   23.328710  17.377063  T  T  T
  16.380574   11.638010   7.044443  F  F  F
  13.546522   11.631540   6.269181  F  F  F
  10.710889   11.637837   7.042369  F  F  F
  11.816408   14.575757   9.595936  F  F  F
   9.020057   14.573888   9.192675  F  F  F
  15.275492   14.575299   9.596524  F  F  F
  16.288075   14.578902  12.229632  F  F  F
  13.549034   14.578726  11.780180  F  F  F
  10.808590   14.578680  12.225649  F  F  F
  11.768198   14.589156  14.839369  T  T  T
   9.017794   14.576987  14.380909  T  T  T
  15.344043   14.589496  14.839640  T  T  T
  16.327829   14.594860  17.380384  T  T  T
  13.584415   14.586321  16.968917  T  T  T
  10.863038   14.598212  17.394393  T  T  T
  16.411661   14.574286   7.035062  F  F  F
  13.546126   14.573023   5.997519  F  F  F
  10.682366   14.573150   7.033946  F  F  F
  11.804261   17.498512   9.603337  F  F  F
   9.016987   17.496250   9.192000  F  F  F
  15.286035   17.498999   9.601837  F  F  F
  16.287021   17.496244  12.228918  F  F  F
  13.547126   17.493621  11.787137  F  F  F
  10.807206   17.498245  12.232760  F  F  F
  11.760839   17.509943  14.853364  T  T  T
   9.017575   17.496173  14.384600  T  T  T
  15.337864   17.506089  14.839163  T  T  T
  16.331676   17.511357  17.366859  T  T  T
  13.566224   17.494506  16.984180  T  T  T
  10.799850   17.494617  17.402793  T  T  T
  16.380658   17.510123   7.039399  F  F  F
  13.546229   17.515887   6.261195  F  F  F
  10.711762   17.509577   7.039856  F  F  F
  11.780038   20.416034   9.618780  F  F  F
   9.017668   20.415543   9.190643  F  F  F
  15.310834   20.417157   9.616807  F  F  F
  16.287699   20.415538  12.236147  F  F  F
  13.546539   20.414723  11.794962  F  F  F
  10.804522   20.414752  12.239535  F  F  F
  11.763874   20.416323  14.849449  T  T  T
   9.018589   20.414059  14.393090  T  T  T
  15.333998   20.416382  14.846440  T  T  T
  16.321541   20.419481  17.365159  T  T  T
  13.546389   20.404378  16.981754  T  T  T
  10.776827   20.407090  17.372877  T  T  T
  16.388235   20.421713   7.039634  F  F  F
  13.545718   20.437075   5.354614  F  F  F
  10.704416   20.420979   7.039955  F  F  F
  11.806143   11.650162   9.604262  F  F  F
   9.016289   11.651685   9.192959  F  F  F
  15.287025   11.650213   9.607984  F  F  F
  16.284666   11.657197  12.241323  F  F  F
  13.549838   11.657050  11.781498  F  F  F
  10.808195   11.660180  12.226230  F  F  F
  11.777042   11.676614  14.828014  T  T  T
   9.016540   11.660245  14.367125  T  T  T
  15.339933   11.680253  14.873202  T  T  T
  16.340235   11.697598  17.460474  T  T  T
  13.556268   11.683782  17.048759  T  T  T
  10.842739   11.678695  17.328306  T  T  T
   7.998319   11.500000  19.108031  T  T  T
   9.399756   10.485710  21.248570  T  T  T
   9.073266   12.886828  20.916456  T  T  T
  10.647501    8.220655  21.087700  T  T  T
  11.965704    8.827949  18.994276  T  T  T
   6.458338   12.887456  20.824167  T  T  T
  10.508609   11.397860  19.196258  T  T  T
  13.185674    8.106215  20.840415  T  T  T
   9.458901    9.117836  19.131100  T  T  T
  10.477706    6.718845  19.095632  T  T  T
   8.001920    7.009627  18.822332  T  T  T
   7.878373   11.898088  22.740422  T  T  T
   6.848027   10.525449  21.073776  T  T  T
  15.591812   11.066936  19.095161  T  T  T
   8.151698    8.320252  20.988496  T  T  T
   7.762569   14.109469  19.104605  T  T  T
  13.140304   11.274201  19.017160  T  T  T
   5.436881   11.563890  18.977411  T  T  T
   6.849844    9.245759  19.115538  T  T  T
  14.497900    8.892726  18.898528  T  T  T
  13.307946    6.615148  18.904381  T  T  T
   5.220560   14.247357  18.992360  T  T  T
  11.959612   10.309237  20.946909  T  T  T
  11.585456   12.703814  20.878247  T  T  T
   6.501754   15.330710  20.818658  T  T  T
   8.991334   15.381979  20.736180  T  T  T
  10.314342   13.922532  19.123356  T  T  T
   7.647858   16.654938  19.078653  T  T  T
  10.091076   16.352535  18.783556  T  T  T
