POSCAR                                  
   1.00000000000000     
     5.1406119944129207   -0.0005041658291838    0.0000000000000000
    -2.5706924361297725    4.4424305300695970    0.0000000000000000
     0.0000000000000000    0.0000000000000000   26.7990854610205140
   B    N    Ga
    28    32     4
Direct
  0.1689965258463132  0.3336596425618679  0.0001906193331127
  0.6695825405229809  0.3339493582948713  0.0003586172574388
  0.1689965258463132  0.8336596425618690 -0.0001906193331127
  0.6695825405229809  0.8339493582948714 -0.0003586172574388
  0.1926156865387912  0.3699846097218877  0.2506953978769508
  0.6908262008465755  0.3732804930305477  0.2496581020848927
  0.1908261858465777  0.8732804930305480  0.2503418979151074
  0.6926157015387889  0.8699846097218874  0.2493046021230494
  0.1695825255229831  0.3339493582948713  0.5003586172574384
  0.6689965408463100  0.3336596425618679  0.5001906193331129
  0.1695825255229831  0.8339493582948714  0.4996413827425610
  0.6689965408463100  0.8336596425618690  0.4998093806668870
  0.1908261858465777  0.3732804930305477  0.7496581020848930
  0.1926156865387911  0.8699846097218874  0.7493046021230496
  0.3224629162091394  0.1532524062982517  0.1201558544735128
  0.8126021194787123  0.6440939912416001  0.1281715864077919
  0.3227268025816805  0.6440122651078666  0.1279309368670605
  0.8227267725816778  0.1440122501078697  0.3720690631329395
  0.3126021494787138  0.1440939762416024  0.3718284135922081
  0.8224628862091368  0.6532524212982497  0.3798441455264869
  0.8227267725816778  0.6440122651078666  0.6279309368670608
  0.3126021494787139  0.6440939912416001  0.6281715864077927
  0.8126021194787123  0.1440939762416024  0.8718284135922073
  0.3227268025816805  0.1440122501078697  0.8720690631329392
  0.3224629162091394  0.6532524212982497  0.8798441455264869
  0.6926157015387889  0.3699846097218877  0.7506953978769504
  0.8224628862091368  0.1532524062982517  0.6201558544735131
  0.6908262008465755  0.8732804930305480  0.7503418979151070
  0.3360596075853154  0.1672729631667554 -0.0002105498644671
  0.8359552251745993  0.1672850489939659 -0.0004294759439657
  0.3360596075853154  0.6672729781667537  0.0002105498644671
  0.8359552251745993  0.6672850639939625  0.0004294759439657
  0.3590850031745579  0.2055474453099579  0.2489334982958328
  0.8585500945174981  0.2056609395291226  0.2461450321809317
  0.3585500945174981  0.7056609545291198  0.2538549678190680
  0.8590850031745582  0.7055474603099560  0.2510665017041669
  0.3359552251745989  0.1672850489939659  0.4995705240560346
  0.8360596075853152  0.1672729631667554  0.4997894501355327
  0.3359552251745989  0.6672850639939625  0.5004294759439661
  0.8360596075853149  0.6672729781667537  0.5002105498644668
  0.3585500945174981  0.2056609395291226  0.7461450321809312
  0.8590850031745582  0.2055474453099579  0.7489334982958330
  0.3590850031745579  0.7055474603099560  0.7510665017041670
  0.8585500945174981  0.7056609545291198  0.7538549678190688
  0.1839288740211297  0.3318880414395416  0.1154021326959855
  0.6396686645431049  0.3317792772257988  0.1160673133935464
  0.1538719410203906  0.8165283355834072  0.1278776839130539
  0.6254602764718179  0.7602225179333997  0.1459444602375489
  0.1254602614718205  0.2602225179334007  0.3540555397624509
  0.6538719560203879  0.3165283355834068  0.3721223160869465
  0.1396686495431068  0.8317792772257980  0.3839326866064537
  0.6839288890211280  0.8318880414395406  0.3845978673040148
  0.1396686495431068  0.3317792772257988  0.6160673133935467
  0.6839288890211280  0.3318880414395417  0.6154021326959860
  0.1254602614718205  0.7602225179333997  0.6459444602375491
  0.6538719560203878  0.8165283355834072  0.6278776839130545
  0.1538719410203906  0.3165283355834068  0.8721223160869455
  0.6254602764718179  0.2602225179334007  0.8540555397624509
  0.1839288740211297  0.8318880414395406  0.8845978673040140
  0.6396686645431049  0.8317792772257980  0.8839326866064533
  0.8276034694674000  0.1615825745611713  0.1467489074075169
  0.3276034994674019  0.6615825895611698  0.3532510925924828
  0.3276034994674019  0.1615825745611713  0.6467489074075169
  0.8276034694674000  0.6615825895611698  0.8532510925924831
 
  0.00000000E+00  0.00000000E+00  0.00000000E+00
  0.00000000E+00  0.00000000E+00  0.00000000E+00
  0.00000000E+00  0.00000000E+00  0.00000000E+00
  0.00000000E+00  0.00000000E+00  0.00000000E+00
  0.00000000E+00  0.00000000E+00  0.00000000E+00
  0.00000000E+00  0.00000000E+00  0.00000000E+00
  0.00000000E+00  0.00000000E+00  0.00000000E+00
  0.00000000E+00  0.00000000E+00  0.00000000E+00
  0.00000000E+00  0.00000000E+00  0.00000000E+00
  0.00000000E+00  0.00000000E+00  0.00000000E+00
  0.00000000E+00  0.00000000E+00  0.00000000E+00
  0.00000000E+00  0.00000000E+00  0.00000000E+00
  0.00000000E+00  0.00000000E+00  0.00000000E+00
  0.00000000E+00  0.00000000E+00  0.00000000E+00
  0.00000000E+00  0.00000000E+00  0.00000000E+00
  0.00000000E+00  0.00000000E+00  0.00000000E+00
  0.00000000E+00  0.00000000E+00  0.00000000E+00
  0.00000000E+00  0.00000000E+00  0.00000000E+00
  0.00000000E+00  0.00000000E+00  0.00000000E+00
  0.00000000E+00  0.00000000E+00  0.00000000E+00
  0.00000000E+00  0.00000000E+00  0.00000000E+00
  0.00000000E+00  0.00000000E+00  0.00000000E+00
  0.00000000E+00  0.00000000E+00  0.00000000E+00
  0.00000000E+00  0.00000000E+00  0.00000000E+00
  0.00000000E+00  0.00000000E+00  0.00000000E+00
  0.00000000E+00  0.00000000E+00  0.00000000E+00
  0.00000000E+00  0.00000000E+00  0.00000000E+00
  0.00000000E+00  0.00000000E+00  0.00000000E+00
  0.00000000E+00  0.00000000E+00  0.00000000E+00
  0.00000000E+00  0.00000000E+00  0.00000000E+00
  0.00000000E+00  0.00000000E+00  0.00000000E+00
  0.00000000E+00  0.00000000E+00  0.00000000E+00
  0.00000000E+00  0.00000000E+00  0.00000000E+00
  0.00000000E+00  0.00000000E+00  0.00000000E+00
  0.00000000E+00  0.00000000E+00  0.00000000E+00
  0.00000000E+00  0.00000000E+00  0.00000000E+00
  0.00000000E+00  0.00000000E+00  0.00000000E+00
  0.00000000E+00  0.00000000E+00  0.00000000E+00
  0.00000000E+00  0.00000000E+00  0.00000000E+00
  0.00000000E+00  0.00000000E+00  0.00000000E+00
  0.00000000E+00  0.00000000E+00  0.00000000E+00
  0.00000000E+00  0.00000000E+00  0.00000000E+00
  0.00000000E+00  0.00000000E+00  0.00000000E+00
  0.00000000E+00  0.00000000E+00  0.00000000E+00
  0.00000000E+00  0.00000000E+00  0.00000000E+00
  0.00000000E+00  0.00000000E+00  0.00000000E+00
  0.00000000E+00  0.00000000E+00  0.00000000E+00
  0.00000000E+00  0.00000000E+00  0.00000000E+00
  0.00000000E+00  0.00000000E+00  0.00000000E+00
  0.00000000E+00  0.00000000E+00  0.00000000E+00
  0.00000000E+00  0.00000000E+00  0.00000000E+00
  0.00000000E+00  0.00000000E+00  0.00000000E+00
  0.00000000E+00  0.00000000E+00  0.00000000E+00
  0.00000000E+00  0.00000000E+00  0.00000000E+00
  0.00000000E+00  0.00000000E+00  0.00000000E+00
  0.00000000E+00  0.00000000E+00  0.00000000E+00
  0.00000000E+00  0.00000000E+00  0.00000000E+00
  0.00000000E+00  0.00000000E+00  0.00000000E+00
  0.00000000E+00  0.00000000E+00  0.00000000E+00
  0.00000000E+00  0.00000000E+00  0.00000000E+00
  0.00000000E+00  0.00000000E+00  0.00000000E+00
  0.00000000E+00  0.00000000E+00  0.00000000E+00
  0.00000000E+00  0.00000000E+00  0.00000000E+00
  0.00000000E+00  0.00000000E+00  0.00000000E+00
