Mo  S Ru                                
   1.00000000000000     
    15.9215000000000000    0.0000000000000000    0.0000000000000000
    -7.9622500000000000   13.7910219999999999    0.0000000000000000
     0.0000000000000000    0.0000000000000000   13.5822000000000003
   Mo   S    Ru
    25    50     2
Direct
  0.1323603162894145  0.0652980532867460  0.6784382592854001
  0.1315919444879086  0.2658729887525340  0.6784564720917245
  0.1313953107475285  0.4644939769618261  0.6786753421498375
  0.1325485151510293  0.6655715645309712  0.6789681777229859
  0.1325892786625289  0.8655951597836236  0.6786311958380011
  0.3325038517045797  0.0652780383765617  0.6784281852319083
  0.3318333489457146  0.2640408325127410  0.6801473963342843
  0.3327444572102465  0.4650319351273779  0.6786959569175721
  0.3328363189033539  0.6662422041637086  0.6800503641873661
  0.3325305314618490  0.8657644096135328  0.6786396927178373
  0.5326783936640851  0.0657844258817519  0.6781743571766086
  0.5338767953903627  0.2658562308062571  0.6784213050504846
  0.5319671656223548  0.4650358295552550  0.6786686666155717
  0.5353315460318058  0.6710162731001930  0.6767874355489312
  0.5326587139478249  0.8668002331577327  0.6780973253238400
  0.7327686361231542  0.0659769532863166  0.6783196410672758
  0.7327659521572727  0.2656105663316808  0.6785583632165242
  0.7327533189598725  0.4645018183459229  0.6786037141678776
  0.7330530445275585  0.6662688001849943  0.6800001468952317
  0.7337348313926739  0.8668223642270121  0.6780903756013998
  0.9326862329572165  0.0658106794082585  0.6782020112765252
  0.9324352464761674  0.2656187719790708  0.6785957857325400
  0.9327230679027920  0.4658069383824497  0.6784867072195908
  0.9326511647990259  0.6655847776223638  0.6789328925693567
  0.9328364047764381  0.8657986392038026  0.6786287322574225
  0.0661226750958903  0.1325335221092345  0.5632145138225511
  0.0654350485426036  0.1320518487551894  0.7933442685483527
  0.0655443909610085  0.3323411377773340  0.5630513954247434
  0.0652113762353110  0.3319666199869431  0.7942055707245430
  0.0660786751056435  0.5324188051015710  0.5635568819321577
  0.0656668823302411  0.5321570829893716  0.7938317881347672
  0.0659250794032715  0.7322068609293382  0.5637423871060676
  0.0660119680195379  0.7324315345065315  0.7939468593847536
  0.0659002801798536  0.9321329213433245  0.5633872103695907
  0.0659640172806917  0.9323053231883449  0.7937618253999901
  0.2657268419012908  0.1318728689433613  0.5631341588982721
  0.2647584537947409  0.1299197678794854  0.7939885671046341
  0.2666001734826153  0.3323994611451155  0.5652350872407013
  0.2624195385952817  0.3252879268951290  0.8005572403985681
  0.2663000511820925  0.5320009070165952  0.5652925425746105
  0.2653203967177404  0.5309915305818009  0.7964901486002915
  0.2658129397004814  0.7320233385615609  0.5640764768642867
  0.2657096426344197  0.7328070300823128  0.7942061902597999
  0.2658050529184024  0.9321000811086364  0.5633869234945195
  0.2659131840578439  0.9322881151755809  0.7937637584133128
  0.4659620109015208  0.1325013618019497  0.5631903467946344
  0.4661916550276075  0.1320382629915500  0.7933179690116532
  0.4654104628641988  0.3323811328092319  0.5652054809786762
  0.4625263291902186  0.3252973080892190  0.8005367549235913
  0.4664148152184424  0.5331683892240093  0.5654203015909189
  0.4739392728964802  0.5481066078753187  0.7979214954207023
  0.4645775559836096  0.7337271313839722  0.5623065236106015
  0.4668124026433134  0.7348177394607731  0.7935464558583689
  0.4655717815686913  0.9327469744577570  0.5630370660474071
  0.4660458486562717  0.9330056150043120  0.7935870351281409
  0.6661096226094330  0.1325443646001645  0.5632092282778345
  0.6659921270241540  0.1323139001743741  0.7934931958081037
  0.6663911855367246  0.3323185267446078  0.5629920759282356
  0.6663681836515067  0.3319833477313239  0.7941492031111963
  0.6653842665176413  0.5320315139534912  0.5652310687159741
  0.6653840603018679  0.5310103413646843  0.7964381478193232
  0.6687747112148514  0.7337626857786361  0.5622816192492976
  0.6676611996432058  0.7348340670683200  0.7935253173103831
  0.6662199014893844  0.9328768402377392  0.5631109603597366
  0.6662474861087944  0.9329235598378105  0.7932310779254266
  0.8660198629056879  0.1325702567617171  0.5632355720287165
  0.8658738803076105  0.1323157563977162  0.7935156924946867
  0.8660450035558469  0.3324695545013654  0.5633720411094600
  0.8659769211164701  0.3323866806304352  0.7935785557504502
  0.8660319270970760  0.5324318400452910  0.5635115204375936
  0.8661232063711495  0.5321668937758517  0.7937871513086492
  0.8658710802365306  0.7320767814303437  0.5640405665641666
  0.8667308282043251  0.7328286234085795  0.7941685126222495
  0.8667733351540434  0.9327952122830325  0.5630400795217270
  0.8665444469733146  0.9330192353084925  0.7935904058204315
  0.5180822715003686  0.4633248571500843  0.8839501575845077
  0.3449985602615939  0.4633237756513324  0.8839569972264485
 
  0.00000000E+00  0.00000000E+00  0.00000000E+00
  0.00000000E+00  0.00000000E+00  0.00000000E+00
  0.00000000E+00  0.00000000E+00  0.00000000E+00
  0.00000000E+00  0.00000000E+00  0.00000000E+00
  0.00000000E+00  0.00000000E+00  0.00000000E+00
  0.00000000E+00  0.00000000E+00  0.00000000E+00
  0.00000000E+00  0.00000000E+00  0.00000000E+00
  0.00000000E+00  0.00000000E+00  0.00000000E+00
  0.00000000E+00  0.00000000E+00  0.00000000E+00
  0.00000000E+00  0.00000000E+00  0.00000000E+00
  0.00000000E+00  0.00000000E+00  0.00000000E+00
  0.00000000E+00  0.00000000E+00  0.00000000E+00
  0.00000000E+00  0.00000000E+00  0.00000000E+00
  0.00000000E+00  0.00000000E+00  0.00000000E+00
  0.00000000E+00  0.00000000E+00  0.00000000E+00
  0.00000000E+00  0.00000000E+00  0.00000000E+00
  0.00000000E+00  0.00000000E+00  0.00000000E+00
  0.00000000E+00  0.00000000E+00  0.00000000E+00
  0.00000000E+00  0.00000000E+00  0.00000000E+00
  0.00000000E+00  0.00000000E+00  0.00000000E+00
  0.00000000E+00  0.00000000E+00  0.00000000E+00
  0.00000000E+00  0.00000000E+00  0.00000000E+00
  0.00000000E+00  0.00000000E+00  0.00000000E+00
  0.00000000E+00  0.00000000E+00  0.00000000E+00
  0.00000000E+00  0.00000000E+00  0.00000000E+00
  0.00000000E+00  0.00000000E+00  0.00000000E+00
  0.00000000E+00  0.00000000E+00  0.00000000E+00
  0.00000000E+00  0.00000000E+00  0.00000000E+00
  0.00000000E+00  0.00000000E+00  0.00000000E+00
  0.00000000E+00  0.00000000E+00  0.00000000E+00
  0.00000000E+00  0.00000000E+00  0.00000000E+00
  0.00000000E+00  0.00000000E+00  0.00000000E+00
  0.00000000E+00  0.00000000E+00  0.00000000E+00
  0.00000000E+00  0.00000000E+00  0.00000000E+00
  0.00000000E+00  0.00000000E+00  0.00000000E+00
  0.00000000E+00  0.00000000E+00  0.00000000E+00
  0.00000000E+00  0.00000000E+00  0.00000000E+00
  0.00000000E+00  0.00000000E+00  0.00000000E+00
  0.00000000E+00  0.00000000E+00  0.00000000E+00
  0.00000000E+00  0.00000000E+00  0.00000000E+00
  0.00000000E+00  0.00000000E+00  0.00000000E+00
  0.00000000E+00  0.00000000E+00  0.00000000E+00
  0.00000000E+00  0.00000000E+00  0.00000000E+00
  0.00000000E+00  0.00000000E+00  0.00000000E+00
  0.00000000E+00  0.00000000E+00  0.00000000E+00
  0.00000000E+00  0.00000000E+00  0.00000000E+00
  0.00000000E+00  0.00000000E+00  0.00000000E+00
  0.00000000E+00  0.00000000E+00  0.00000000E+00
  0.00000000E+00  0.00000000E+00  0.00000000E+00
  0.00000000E+00  0.00000000E+00  0.00000000E+00
  0.00000000E+00  0.00000000E+00  0.00000000E+00
  0.00000000E+00  0.00000000E+00  0.00000000E+00
  0.00000000E+00  0.00000000E+00  0.00000000E+00
  0.00000000E+00  0.00000000E+00  0.00000000E+00
  0.00000000E+00  0.00000000E+00  0.00000000E+00
  0.00000000E+00  0.00000000E+00  0.00000000E+00
  0.00000000E+00  0.00000000E+00  0.00000000E+00
  0.00000000E+00  0.00000000E+00  0.00000000E+00
  0.00000000E+00  0.00000000E+00  0.00000000E+00
  0.00000000E+00  0.00000000E+00  0.00000000E+00
  0.00000000E+00  0.00000000E+00  0.00000000E+00
  0.00000000E+00  0.00000000E+00  0.00000000E+00
  0.00000000E+00  0.00000000E+00  0.00000000E+00
  0.00000000E+00  0.00000000E+00  0.00000000E+00
  0.00000000E+00  0.00000000E+00  0.00000000E+00
  0.00000000E+00  0.00000000E+00  0.00000000E+00
  0.00000000E+00  0.00000000E+00  0.00000000E+00
  0.00000000E+00  0.00000000E+00  0.00000000E+00
  0.00000000E+00  0.00000000E+00  0.00000000E+00
  0.00000000E+00  0.00000000E+00  0.00000000E+00
  0.00000000E+00  0.00000000E+00  0.00000000E+00
  0.00000000E+00  0.00000000E+00  0.00000000E+00
  0.00000000E+00  0.00000000E+00  0.00000000E+00
  0.00000000E+00  0.00000000E+00  0.00000000E+00
  0.00000000E+00  0.00000000E+00  0.00000000E+00
  0.00000000E+00  0.00000000E+00  0.00000000E+00
  0.00000000E+00  0.00000000E+00  0.00000000E+00
