Ta  N Ru                                
   1.00000000000000     
     9.0548154099999998    0.0000000000000000    0.0000000000000000
     0.0000000000000000   11.6775998899999998    0.0000000000000000
     0.0000000000000000    0.0000000000000000   23.4818170799999990
   Ta   N    Ru
    60    60     1
Selective dynamics
Direct
  0.0000000000000000  0.0000000000000000  0.2546926809530987   F   F   F
  0.6670845899906297  0.1250000003211298  0.2638822399803757   F   F   F
  0.3329153514769843  0.1250000003211298  0.2638822399803757   F   F   F
  0.4999999994478088  0.2499999997859135  0.3618861993156202   F   F   F
  0.1650707596845180  0.1250000003211298  0.3684425577811794   F   F   F
  0.8349292403154820  0.1250000003211298  0.3684425577811794   F   F   F
  0.0002183254440058  0.2499981234087281  0.4798089002055427   T   T   T
  0.6646046479924155  0.1250250421262311  0.4779958515998678   T   T   T
  0.3351283083543591  0.1251355332083511  0.4781815159784831   T   T   T
  0.4978132737357771  0.2499085512623378  0.5912021859282489   T   T   T
  0.1663230278804667  0.1251698874008859  0.5904091216851466   T   T   T
  0.8320039210202422  0.1251223604240763  0.5898306663030388   T   T   T
  0.9983333185412181  0.2503455810881556  0.7032795591862095   T   T   T
  0.6717004812054407  0.1241282015813844  0.7031027534370859   T   T   T
  0.3322349187374603  0.1211555303835350  0.7040502844650010   T   T   T
  0.0000000000000000  0.2499999997859135  0.2546926809530987   F   F   F
  0.6670845899906297  0.3750000001070433  0.2638822399803757   F   F   F
  0.3329153514769843  0.3750000001070433  0.2638822399803757   F   F   F
  0.4999999994478088  0.5000000004281731  0.3618861993156202   F   F   F
  0.1650707596845180  0.3750000001070433  0.3684425577811794   F   F   F
  0.8349292403154820  0.3750000001070433  0.3684425577811794   F   F   F
  0.0002103215703154  0.5000857520051007  0.4798072401778543   T   T   T
  0.6647222810663606  0.3750408568523620  0.4782607861599439   T   T   T
  0.3352280803214364  0.3750458243038062  0.4785625973837002   T   T   T
  0.4978911199958331  0.5002935680993379  0.5911759949962578   T   T   T
  0.1668632567162645  0.3750922419718389  0.5906084069402360   T   T   T
  0.8317050177709344  0.3750794946861337  0.5897355287016051   T   T   T
  0.9985105528009713  0.4997232842075540  0.7032856510051425   T   T   T
  0.6729362685050534  0.3751218609201922  0.7033147183882124   T   T   T
  0.3422868278639792  0.3752115559644557  0.7043509987204384   T   T   T
  0.0000000000000000  0.5000000004281731  0.2546926809530987   F   F   F
  0.6670845899906297  0.6249999998929567  0.2638822399803757   F   F   F
  0.3329153514769843  0.6249999998929567  0.2638822399803757   F   F   F
  0.4999999994478088  0.7500000002140865  0.3618861993156202   F   F   F
  0.1650707596845180  0.6249999998929567  0.3684425577811794   F   F   F
  0.8349292403154820  0.6249999998929567  0.3684425577811794   F   F   F
  0.9999935851837527  0.7498417565915354  0.4797322912784631   T   T   T
  0.6646037212356560  0.6250518871420121  0.4779927934137925   T   T   T
  0.3351148779223972  0.6249466191680529  0.4781771536106345   T   T   T
  0.5000533241352015  0.7499090930466114  0.5906036606395383   T   T   T
  0.1663425324554335  0.6249919801215099  0.5904050075540005   T   T   T
  0.8320313941150851  0.6250380528946211  0.5898406768022749   T   T   T
  0.0017422190986714  0.7501749470858976  0.7022535339409778   T   T   T
  0.6718070965700124  0.6261290750393554  0.7031220949801137   T   T   T
  0.3322926000996342  0.6289858969069497  0.7040625273829244   T   T   T
  0.0000000000000000  0.7500000002140865  0.2546926809530987   F   F   F
  0.6670845899906297  0.8750000005352163  0.2638822399803757   F   F   F
  0.3329153514769843  0.8750000005352163  0.2638822399803757   F   F   F
  0.4999999994478088  0.0000000000000000  0.3618861993156202   F   F   F
  0.1650707596845180  0.8750000005352163  0.3684425577811794   F   F   F
  0.8349292403154820  0.8750000005352163  0.3684425577811794   F   F   F
  0.0000012777849163  0.0002433826716084  0.4797377413395599   T   T   T
  0.6647222157358585  0.8750358892390696  0.4780250678181682   T   T   T
  0.3349197122696078  0.8750328474403672  0.4781388744051173   T   T   T
  0.5000434509598822  0.0002520096511991  0.5905984229637924   T   T   T
  0.1677305643518625  0.8750867484368430  0.5897813539720290   T   T   T
  0.8323877430199564  0.8750819986664359  0.5897870590808933   T   T   T
  0.0017097189728371  0.9999980703679887  0.7022530061494208   T   T   T
  0.6725450931522440  0.8751460627739289  0.7039993463632437   T   T   T
  0.3302420189679689  0.8750658203238104  0.7036981986393394   T   T   T
  0.8141011533980276  0.0000000000000000  0.3013105672926031   F   F   F
  0.4999999994478088  0.0000000000000000  0.2564174481620327   F   F   F
  0.1858988466019724  0.0000000000000000  0.3013105672926031   F   F   F
  0.3088456122590841  0.2499999997859135  0.4099867722441957   F   F   F
  0.0000000000000000  0.2499999997859135  0.3930971035158137   F   F   F
  0.6911543877409159  0.2499999997859135  0.4099867722441957   F   F   F
  0.8024539100820338  0.2499125666751412  0.5218996026700966   T   T   T
  0.4997844422122957  0.2498609351529585  0.5031491700836933   T   T   T
  0.1975333791217680  0.2502229921979226  0.5225642777021529   T   T   T
  0.3012780252339067  0.2493493108826206  0.6351605698006013   T   T   T
  0.9991514714466387  0.2504779854654379  0.6141072663005815   T   T   T
  0.6950120369204291  0.2500843716485767  0.6328362264427779   T   T   T
  0.8052892101283068  0.2494893806010178  0.7398059879395861   T   T   T
  0.4996669616826646  0.2520315519433560  0.7236837653919085   T   T   T
  0.1890646168683267  0.2248744484475163  0.7496982069744681   T   T   T
  0.8141011533980276  0.2499999997859135  0.3013105672926031   F   F   F
  0.4999999994478088  0.2499999997859135  0.2564174481620327   F   F   F
  0.1858988466019724  0.2499999997859135  0.3013105672926031   F   F   F
  0.3088456122590841  0.5000000004281731  0.4099867722441957   F   F   F
  0.0000000000000000  0.5000000004281731  0.3930971035158137   F   F   F
  0.6911543877409159  0.5000000004281731  0.4099867722441957   F   F   F
  0.8024503131755752  0.5002197639698757  0.5219029386641387   T   T   T
  0.4997933608610889  0.5002400256357548  0.5031392365746914   T   T   T
  0.1975192229324144  0.4999050162130950  0.5225606355533640   T   T   T
  0.3014146565583193  0.5008983754735836  0.6351002616433604   T   T   T
  0.9991853727617116  0.4996876032733656  0.6141319131434012   T   T   T
  0.6950641039444629  0.5001249321754676  0.6328505321087103   T   T   T
  0.8053836484067344  0.5007006922162135  0.7398318908374694   T   T   T
  0.4997980951003262  0.4981941272019668  0.7236767340496953   T   T   T
  0.1896817154984225  0.5245990126678576  0.7495509786391475   T   T   T
  0.8141011533980276  0.5000000004281731  0.3013105672926031   F   F   F
  0.4999999994478088  0.5000000004281731  0.2564174481620327   F   F   F
  0.1858988466019724  0.5000000004281731  0.3013105672926031   F   F   F
  0.3088456122590841  0.7500000002140865  0.4099867722441957   F   F   F
  0.0000000000000000  0.7500000002140865  0.3930971035158137   F   F   F
  0.6911543877409159  0.7500000002140865  0.4099867722441957   F   F   F
  0.8022355604514608  0.7499975711434904  0.5219266265841510   T   T   T
  0.4998209199249923  0.7499643109671470  0.5027305211642735   T   T   T
  0.1976567076579317  0.7496753833780083  0.5221202533084277   T   T   T
  0.3040451627581263  0.7506587701993492  0.6329028976717559   T   T   T
  0.9997950672081740  0.7503811339618228  0.6136295645892759   T   T   T
  0.6961086936800023  0.7505208260806382  0.6328880742749331   T   T   T
  0.8071245794435259  0.7502406027490379  0.7400076542038053   T   T   T
  0.5015158201398273  0.7494911481758740  0.7238471863314970   T   T   T
  0.1953353748161348  0.7533170127409584  0.7402120782213800   T   T   T
  0.8141011533980276  0.7500000002140865  0.3013105672926031   F   F   F
  0.4999999994478088  0.7500000002140865  0.2564174481620327   F   F   F
  0.1858988466019724  0.7500000002140865  0.3013105672926031   F   F   F
  0.3088456122590841  0.0000000000000000  0.4099867722441957   F   F   F
  0.0000000000000000  0.0000000000000000  0.3930971035158137   F   F   F
  0.6911543877409159  0.0000000000000000  0.4099867722441957   F   F   F
  0.8022354404564502  0.0001032062508475  0.5219304494715128   T   T   T
  0.4998231512304090  0.0001257239992173  0.5027252278720553   T   T   T
  0.1976597507810718  0.0004456862449187  0.5221200317979560   T   T   T
  0.3040441863468205  0.9994984859530686  0.6328951120341763   T   T   T
  0.9997935887751622  0.9997649631927417  0.6136179161591241   T   T   T
  0.6961141408593029  0.9996719701601161  0.6328771234688684   T   T   T
  0.8071334445846425  0.0000175304116864  0.7399840025251252   T   T   T
  0.5014808173557920  0.0006807551277220  0.7238249039830419   T   T   T
  0.1953707414232719  0.9967156457513293  0.7402184449173017   T   T   T
  0.1488444306362037  0.3747579241801869  0.7793971268219284   T   T   T
 
  0.00000000E+00  0.00000000E+00  0.00000000E+00
  0.00000000E+00  0.00000000E+00  0.00000000E+00
  0.00000000E+00  0.00000000E+00  0.00000000E+00
  0.00000000E+00  0.00000000E+00  0.00000000E+00
  0.00000000E+00  0.00000000E+00  0.00000000E+00
  0.00000000E+00  0.00000000E+00  0.00000000E+00
  0.00000000E+00  0.00000000E+00  0.00000000E+00
  0.00000000E+00  0.00000000E+00  0.00000000E+00
  0.00000000E+00  0.00000000E+00  0.00000000E+00
  0.00000000E+00  0.00000000E+00  0.00000000E+00
  0.00000000E+00  0.00000000E+00  0.00000000E+00
  0.00000000E+00  0.00000000E+00  0.00000000E+00
  0.00000000E+00  0.00000000E+00  0.00000000E+00
  0.00000000E+00  0.00000000E+00  0.00000000E+00
  0.00000000E+00  0.00000000E+00  0.00000000E+00
  0.00000000E+00  0.00000000E+00  0.00000000E+00
  0.00000000E+00  0.00000000E+00  0.00000000E+00
  0.00000000E+00  0.00000000E+00  0.00000000E+00
  0.00000000E+00  0.00000000E+00  0.00000000E+00
  0.00000000E+00  0.00000000E+00  0.00000000E+00
  0.00000000E+00  0.00000000E+00  0.00000000E+00
  0.00000000E+00  0.00000000E+00  0.00000000E+00
  0.00000000E+00  0.00000000E+00  0.00000000E+00
  0.00000000E+00  0.00000000E+00  0.00000000E+00
  0.00000000E+00  0.00000000E+00  0.00000000E+00
  0.00000000E+00  0.00000000E+00  0.00000000E+00
  0.00000000E+00  0.00000000E+00  0.00000000E+00
  0.00000000E+00  0.00000000E+00  0.00000000E+00
  0.00000000E+00  0.00000000E+00  0.00000000E+00
  0.00000000E+00  0.00000000E+00  0.00000000E+00
  0.00000000E+00  0.00000000E+00  0.00000000E+00
  0.00000000E+00  0.00000000E+00  0.00000000E+00
  0.00000000E+00  0.00000000E+00  0.00000000E+00
  0.00000000E+00  0.00000000E+00  0.00000000E+00
  0.00000000E+00  0.00000000E+00  0.00000000E+00
  0.00000000E+00  0.00000000E+00  0.00000000E+00
  0.00000000E+00  0.00000000E+00  0.00000000E+00
  0.00000000E+00  0.00000000E+00  0.00000000E+00
  0.00000000E+00  0.00000000E+00  0.00000000E+00
  0.00000000E+00  0.00000000E+00  0.00000000E+00
  0.00000000E+00  0.00000000E+00  0.00000000E+00
  0.00000000E+00  0.00000000E+00  0.00000000E+00
  0.00000000E+00  0.00000000E+00  0.00000000E+00
  0.00000000E+00  0.00000000E+00  0.00000000E+00
  0.00000000E+00  0.00000000E+00  0.00000000E+00
  0.00000000E+00  0.00000000E+00  0.00000000E+00
  0.00000000E+00  0.00000000E+00  0.00000000E+00
  0.00000000E+00  0.00000000E+00  0.00000000E+00
  0.00000000E+00  0.00000000E+00  0.00000000E+00
  0.00000000E+00  0.00000000E+00  0.00000000E+00
  0.00000000E+00  0.00000000E+00  0.00000000E+00
  0.00000000E+00  0.00000000E+00  0.00000000E+00
  0.00000000E+00  0.00000000E+00  0.00000000E+00
  0.00000000E+00  0.00000000E+00  0.00000000E+00
  0.00000000E+00  0.00000000E+00  0.00000000E+00
  0.00000000E+00  0.00000000E+00  0.00000000E+00
  0.00000000E+00  0.00000000E+00  0.00000000E+00
  0.00000000E+00  0.00000000E+00  0.00000000E+00
  0.00000000E+00  0.00000000E+00  0.00000000E+00
  0.00000000E+00  0.00000000E+00  0.00000000E+00
  0.00000000E+00  0.00000000E+00  0.00000000E+00
  0.00000000E+00  0.00000000E+00  0.00000000E+00
  0.00000000E+00  0.00000000E+00  0.00000000E+00
  0.00000000E+00  0.00000000E+00  0.00000000E+00
  0.00000000E+00  0.00000000E+00  0.00000000E+00
  0.00000000E+00  0.00000000E+00  0.00000000E+00
  0.00000000E+00  0.00000000E+00  0.00000000E+00
  0.00000000E+00  0.00000000E+00  0.00000000E+00
  0.00000000E+00  0.00000000E+00  0.00000000E+00
  0.00000000E+00  0.00000000E+00  0.00000000E+00
  0.00000000E+00  0.00000000E+00  0.00000000E+00
  0.00000000E+00  0.00000000E+00  0.00000000E+00
  0.00000000E+00  0.00000000E+00  0.00000000E+00
  0.00000000E+00  0.00000000E+00  0.00000000E+00
  0.00000000E+00  0.00000000E+00  0.00000000E+00
  0.00000000E+00  0.00000000E+00  0.00000000E+00
  0.00000000E+00  0.00000000E+00  0.00000000E+00
  0.00000000E+00  0.00000000E+00  0.00000000E+00
  0.00000000E+00  0.00000000E+00  0.00000000E+00
  0.00000000E+00  0.00000000E+00  0.00000000E+00
  0.00000000E+00  0.00000000E+00  0.00000000E+00
  0.00000000E+00  0.00000000E+00  0.00000000E+00
  0.00000000E+00  0.00000000E+00  0.00000000E+00
  0.00000000E+00  0.00000000E+00  0.00000000E+00
  0.00000000E+00  0.00000000E+00  0.00000000E+00
  0.00000000E+00  0.00000000E+00  0.00000000E+00
  0.00000000E+00  0.00000000E+00  0.00000000E+00
  0.00000000E+00  0.00000000E+00  0.00000000E+00
  0.00000000E+00  0.00000000E+00  0.00000000E+00
  0.00000000E+00  0.00000000E+00  0.00000000E+00
  0.00000000E+00  0.00000000E+00  0.00000000E+00
  0.00000000E+00  0.00000000E+00  0.00000000E+00
  0.00000000E+00  0.00000000E+00  0.00000000E+00
  0.00000000E+00  0.00000000E+00  0.00000000E+00
  0.00000000E+00  0.00000000E+00  0.00000000E+00
  0.00000000E+00  0.00000000E+00  0.00000000E+00
  0.00000000E+00  0.00000000E+00  0.00000000E+00
  0.00000000E+00  0.00000000E+00  0.00000000E+00
  0.00000000E+00  0.00000000E+00  0.00000000E+00
  0.00000000E+00  0.00000000E+00  0.00000000E+00
  0.00000000E+00  0.00000000E+00  0.00000000E+00
  0.00000000E+00  0.00000000E+00  0.00000000E+00
  0.00000000E+00  0.00000000E+00  0.00000000E+00
  0.00000000E+00  0.00000000E+00  0.00000000E+00
  0.00000000E+00  0.00000000E+00  0.00000000E+00
  0.00000000E+00  0.00000000E+00  0.00000000E+00
  0.00000000E+00  0.00000000E+00  0.00000000E+00
  0.00000000E+00  0.00000000E+00  0.00000000E+00
  0.00000000E+00  0.00000000E+00  0.00000000E+00
  0.00000000E+00  0.00000000E+00  0.00000000E+00
  0.00000000E+00  0.00000000E+00  0.00000000E+00
  0.00000000E+00  0.00000000E+00  0.00000000E+00
  0.00000000E+00  0.00000000E+00  0.00000000E+00
  0.00000000E+00  0.00000000E+00  0.00000000E+00
  0.00000000E+00  0.00000000E+00  0.00000000E+00
  0.00000000E+00  0.00000000E+00  0.00000000E+00
  0.00000000E+00  0.00000000E+00  0.00000000E+00
  0.00000000E+00  0.00000000E+00  0.00000000E+00
  0.00000000E+00  0.00000000E+00  0.00000000E+00
  0.00000000E+00  0.00000000E+00  0.00000000E+00
  0.00000000E+00  0.00000000E+00  0.00000000E+00
