Ta  N Ru                                
   1.00000000000000     
     9.0548154099999998    0.0000000000000000    0.0000000000000000
     0.0000000000000000   11.6775998899999998    0.0000000000000000
     0.0000000000000000    0.0000000000000000   23.4818170799999990
   Ta   N    Ru
    60    60     2
Selective dynamics
Direct
  0.0000000000000000  0.0000000000000000  0.2546926809530987   F   F   F
  0.6670845899906297  0.1250000003211298  0.2638822399803757   F   F   F
  0.3329153514769843  0.1250000003211298  0.2638822399803757   F   F   F
  0.4999999994478088  0.2499999997859135  0.3618861993156202   F   F   F
  0.1650707596845180  0.1250000003211298  0.3684425577811794   F   F   F
  0.8349292403154820  0.1250000003211298  0.3684425577811794   F   F   F
  0.0001808253735839  0.2497374941356194  0.4798592718802085   T   T   T
  0.6652712655807946  0.1249885522112028  0.4782225484137271   T   T   T
  0.3350122251295891  0.1249935847751474  0.4782081576359520   T   T   T
  0.5003971930154913  0.2499085568151350  0.5909402236984355   T   T   T
  0.1674425901716416  0.1249766240310116  0.5905572449124135   T   T   T
  0.8332634048402142  0.1249811694257186  0.5905567129707882   T   T   T
  0.0006336915697111  0.2478415249817493  0.7019989174765888   T   T   T
  0.6636462969343633  0.1250025172172996  0.7010720448360905   T   T   T
  0.3375148522287510  0.1249706921793752  0.7010852301122600   T   T   T
  0.0000000000000000  0.2499999997859135  0.2546926809530987   F   F   F
  0.6670845899906297  0.3750000001070433  0.2638822399803757   F   F   F
  0.3329153514769843  0.3750000001070433  0.2638822399803757   F   F   F
  0.4999999994478088  0.5000000004281731  0.3618861993156202   F   F   F
  0.1650707596845180  0.3750000001070433  0.3684425577811794   F   F   F
  0.8349292403154820  0.3750000001070433  0.3684425577811794   F   F   F
  0.0001544382211113  0.4999847387810623  0.4798750180577265   T   T   T
  0.6650332700060236  0.3750081256369326  0.4782881473188588   T   T   T
  0.3352267532203060  0.3750038701337793  0.4782721551399817   T   T   T
  0.5003646023234587  0.5007734724986809  0.5909420447032375   T   T   T
  0.1678550142686460  0.3751306852524494  0.5902217271300159   T   T   T
  0.8328120351716243  0.3751183664303313  0.5902226887139478   T   T   T
  0.0005888749386342  0.4994399758293505  0.7023124864755318   T   T   T
  0.6693890743593284  0.3770393929942599  0.7041423153732218   T   T   T
  0.3316575308634488  0.3770103798622349  0.7041300420082289   T   T   T
  0.0000000000000000  0.5000000004281731  0.2546926809530987   F   F   F
  0.6670845899906297  0.6249999998929567  0.2638822399803757   F   F   F
  0.3329153514769843  0.6249999998929567  0.2638822399803757   F   F   F
  0.4999999994478088  0.7500000002140865  0.3618861993156202   F   F   F
  0.1650707596845180  0.6249999998929567  0.3684425577811794   F   F   F
  0.8349292403154820  0.6249999998929567  0.3684425577811794   F   F   F
  0.0001530611217570  0.7499990980579170  0.4798761751968059   T   T   T
  0.6652785258922898  0.6249893200357569  0.4781916730055218   T   T   T
  0.3349846123057261  0.6249859862622310  0.4781729257643580   T   T   T
  0.5003599750317509  0.7491924633482121  0.5909436659390691   T   T   T
  0.1678419985340709  0.6249818110096585  0.5902282263610154   T   T   T
  0.8327722868684256  0.6249840248314624  0.5902386960592650   T   T   T
  0.0005682759008439  0.7505143652150227  0.7023185258613188   T   T   T
  0.6730881669487655  0.6249885692066436  0.7039363972215457   T   T   T
  0.3279164460555987  0.6249880769962913  0.7038959164515226   T   T   T
  0.0000000000000000  0.7500000002140865  0.2546926809530987   F   F   F
  0.6670845899906297  0.8750000005352163  0.2638822399803757   F   F   F
  0.3329153514769843  0.8750000005352163  0.2638822399803757   F   F   F
  0.4999999994478088  0.0000000000000000  0.3618861993156202   F   F   F
  0.1650707596845180  0.8750000005352163  0.3684425577811794   F   F   F
  0.8349292403154820  0.8750000005352163  0.3684425577811794   F   F   F
  0.0001837448687606  0.0002382124622467  0.4798600764391464   T   T   T
  0.6650344628085133  0.8749715414751625  0.4782887892406005   T   T   T
  0.3352246250881500  0.8749783395391213  0.4782742418149967   T   T   T
  0.5003829330536833  0.0000549695984071  0.5909393468313546   T   T   T
  0.1678586311616897  0.8748303452341043  0.5902271336519685   T   T   T
  0.8328046005806209  0.8748426726232399  0.5902219885659523   T   T   T
  0.0006296177777448  0.0021138470682014  0.7019982014155178   T   T   T
  0.6693873423200123  0.8729253043322164  0.7041486678981335   T   T   T
  0.3316221067362184  0.8729357674736431  0.7041352258732853   T   T   T
  0.8141011533980276  0.0000000000000000  0.3013105672926031   F   F   F
  0.4999999994478088  0.0000000000000000  0.2564174481620327   F   F   F
  0.1858988466019724  0.0000000000000000  0.3013105672926031   F   F   F
  0.3088456122590841  0.2499999997859135  0.4099867722441957   F   F   F
  0.0000000000000000  0.2499999997859135  0.3930971035158137   F   F   F
  0.6911543877409159  0.2499999997859135  0.4099867722441957   F   F   F
  0.8024641194427268  0.2498215349763440  0.5223412054012595   T   T   T
  0.5001537548977667  0.2497648271889890  0.5029371751804592   T   T   T
  0.1979278057282076  0.2498008147479646  0.5223390119797493   T   T   T
  0.3037761301513200  0.2508863210946172  0.6335538254268734   T   T   T
  0.0003852352127999  0.2503268718054944  0.6138090049753735   T   T   T
  0.6970623176257363  0.2508821403631090  0.6335608275118050   T   T   T
  0.8022713644485469  0.2527108733562036  0.7438181818049808   T   T   T
  0.5006048186799616  0.2497956107952194  0.7244768774157825   T   T   T
  0.1990013077465932  0.2527194608928148  0.7438885293014587   T   T   T
  0.8141011533980276  0.2499999997859135  0.3013105672926031   F   F   F
  0.4999999994478088  0.2499999997859135  0.2564174481620327   F   F   F
  0.1858988466019724  0.2499999997859135  0.3013105672926031   F   F   F
  0.3088456122590841  0.5000000004281731  0.4099867722441957   F   F   F
  0.0000000000000000  0.5000000004281731  0.3930971035158137   F   F   F
  0.6911543877409159  0.5000000004281731  0.4099867722441957   F   F   F
  0.8024995620312894  0.4998084112572284  0.5222403092477151   T   T   T
  0.5001465836548449  0.5002269208689042  0.5030010517834118   T   T   T
  0.1978457001247614  0.4998054463517621  0.5222283640406512   T   T   T
  0.3038788582647876  0.4999935684408220  0.6333636562988485   T   T   T
  0.0003536588218140  0.5002984436250202  0.6138112110475691   T   T   T
  0.6968809685518884  0.4999963329840236  0.6333786949828119   T   T   T
  0.8061847302859574  0.5000768603991437  0.7408721592034093   T   T   T
  0.5005134159247341  0.4984951491570019  0.7238571377563229   T   T   T
  0.1949567739483222  0.5000444921359464  0.7408799392261496   T   T   T
  0.8141011533980276  0.5000000004281731  0.3013105672926031   F   F   F
  0.4999999994478088  0.5000000004281731  0.2564174481620327   F   F   F
  0.1858988466019724  0.5000000004281731  0.3013105672926031   F   F   F
  0.3088456122590841  0.7500000002140865  0.4099867722441957   F   F   F
  0.0000000000000000  0.7500000002140865  0.3930971035158137   F   F   F
  0.6911543877409159  0.7500000002140865  0.4099867722441957   F   F   F
  0.8024983908887123  0.7501660006111844  0.5222414279461680   T   T   T
  0.5001444506149586  0.7497508776498243  0.5030008865818417   T   T   T
  0.1978482538136174  0.7501686732494147  0.5222287262069587   T   T   T
  0.3038649656069067  0.7499632616636979  0.6333640026335680   T   T   T
  0.0003432854044142  0.7496626662360216  0.6138007575530868   T   T   T
  0.6968700806687037  0.7499685760112267  0.6333750277012814   T   T   T
  0.8061623256852819  0.7499055209926029  0.7408680269059168   T   T   T
  0.5005024628773175  0.7514673402744744  0.7238594574036539   T   T   T
  0.1949237296414801  0.7498905231691374  0.7408741374221771   T   T   T
  0.8141011533980276  0.7500000002140865  0.3013105672926031   F   F   F
  0.4999999994478088  0.7500000002140865  0.2564174481620327   F   F   F
  0.1858988466019724  0.7500000002140865  0.3013105672926031   F   F   F
  0.3088456122590841  0.0000000000000000  0.4099867722441957   F   F   F
  0.0000000000000000  0.0000000000000000  0.3930971035158137   F   F   F
  0.6911543877409159  0.0000000000000000  0.4099867722441957   F   F   F
  0.8024621769561879  0.0001567392716596  0.5223419655081162   T   T   T
  0.5001495124908339  0.0002093950712482  0.5029357354465208   T   T   T
  0.1979283741129629  0.0001665169602426  0.5223406398682400   T   T   T
  0.3037612023623665  0.9990701521564330  0.6335577840370245   T   T   T
  0.0003745509332620  0.9996369507165098  0.6138075779875467   T   T   T
  0.6970548456597673  0.9990903760124178  0.6335553065594887   T   T   T
  0.8022654611918795  0.9972682765337488  0.7438134354363820   T   T   T
  0.5006046693089252  0.0001608198158576  0.7244797146956999   T   T   T
  0.1989778924834125  0.9972331837217248  0.7439011287923093   T   T   T
  0.1352250967645980  0.1249658751412286  0.7930954569104216   T   T   T
  0.8658046283396542  0.1249969103709675  0.7930744189833828   T   T   T
 
  0.00000000E+00  0.00000000E+00  0.00000000E+00
  0.00000000E+00  0.00000000E+00  0.00000000E+00
  0.00000000E+00  0.00000000E+00  0.00000000E+00
  0.00000000E+00  0.00000000E+00  0.00000000E+00
  0.00000000E+00  0.00000000E+00  0.00000000E+00
  0.00000000E+00  0.00000000E+00  0.00000000E+00
  0.00000000E+00  0.00000000E+00  0.00000000E+00
  0.00000000E+00  0.00000000E+00  0.00000000E+00
  0.00000000E+00  0.00000000E+00  0.00000000E+00
  0.00000000E+00  0.00000000E+00  0.00000000E+00
  0.00000000E+00  0.00000000E+00  0.00000000E+00
  0.00000000E+00  0.00000000E+00  0.00000000E+00
  0.00000000E+00  0.00000000E+00  0.00000000E+00
  0.00000000E+00  0.00000000E+00  0.00000000E+00
  0.00000000E+00  0.00000000E+00  0.00000000E+00
  0.00000000E+00  0.00000000E+00  0.00000000E+00
  0.00000000E+00  0.00000000E+00  0.00000000E+00
  0.00000000E+00  0.00000000E+00  0.00000000E+00
  0.00000000E+00  0.00000000E+00  0.00000000E+00
  0.00000000E+00  0.00000000E+00  0.00000000E+00
  0.00000000E+00  0.00000000E+00  0.00000000E+00
  0.00000000E+00  0.00000000E+00  0.00000000E+00
  0.00000000E+00  0.00000000E+00  0.00000000E+00
  0.00000000E+00  0.00000000E+00  0.00000000E+00
  0.00000000E+00  0.00000000E+00  0.00000000E+00
  0.00000000E+00  0.00000000E+00  0.00000000E+00
  0.00000000E+00  0.00000000E+00  0.00000000E+00
  0.00000000E+00  0.00000000E+00  0.00000000E+00
  0.00000000E+00  0.00000000E+00  0.00000000E+00
  0.00000000E+00  0.00000000E+00  0.00000000E+00
  0.00000000E+00  0.00000000E+00  0.00000000E+00
  0.00000000E+00  0.00000000E+00  0.00000000E+00
  0.00000000E+00  0.00000000E+00  0.00000000E+00
  0.00000000E+00  0.00000000E+00  0.00000000E+00
  0.00000000E+00  0.00000000E+00  0.00000000E+00
  0.00000000E+00  0.00000000E+00  0.00000000E+00
  0.00000000E+00  0.00000000E+00  0.00000000E+00
  0.00000000E+00  0.00000000E+00  0.00000000E+00
  0.00000000E+00  0.00000000E+00  0.00000000E+00
  0.00000000E+00  0.00000000E+00  0.00000000E+00
  0.00000000E+00  0.00000000E+00  0.00000000E+00
  0.00000000E+00  0.00000000E+00  0.00000000E+00
  0.00000000E+00  0.00000000E+00  0.00000000E+00
  0.00000000E+00  0.00000000E+00  0.00000000E+00
  0.00000000E+00  0.00000000E+00  0.00000000E+00
  0.00000000E+00  0.00000000E+00  0.00000000E+00
  0.00000000E+00  0.00000000E+00  0.00000000E+00
  0.00000000E+00  0.00000000E+00  0.00000000E+00
  0.00000000E+00  0.00000000E+00  0.00000000E+00
  0.00000000E+00  0.00000000E+00  0.00000000E+00
  0.00000000E+00  0.00000000E+00  0.00000000E+00
  0.00000000E+00  0.00000000E+00  0.00000000E+00
  0.00000000E+00  0.00000000E+00  0.00000000E+00
  0.00000000E+00  0.00000000E+00  0.00000000E+00
  0.00000000E+00  0.00000000E+00  0.00000000E+00
  0.00000000E+00  0.00000000E+00  0.00000000E+00
  0.00000000E+00  0.00000000E+00  0.00000000E+00
  0.00000000E+00  0.00000000E+00  0.00000000E+00
  0.00000000E+00  0.00000000E+00  0.00000000E+00
  0.00000000E+00  0.00000000E+00  0.00000000E+00
  0.00000000E+00  0.00000000E+00  0.00000000E+00
  0.00000000E+00  0.00000000E+00  0.00000000E+00
  0.00000000E+00  0.00000000E+00  0.00000000E+00
  0.00000000E+00  0.00000000E+00  0.00000000E+00
  0.00000000E+00  0.00000000E+00  0.00000000E+00
  0.00000000E+00  0.00000000E+00  0.00000000E+00
  0.00000000E+00  0.00000000E+00  0.00000000E+00
  0.00000000E+00  0.00000000E+00  0.00000000E+00
  0.00000000E+00  0.00000000E+00  0.00000000E+00
  0.00000000E+00  0.00000000E+00  0.00000000E+00
  0.00000000E+00  0.00000000E+00  0.00000000E+00
  0.00000000E+00  0.00000000E+00  0.00000000E+00
  0.00000000E+00  0.00000000E+00  0.00000000E+00
  0.00000000E+00  0.00000000E+00  0.00000000E+00
  0.00000000E+00  0.00000000E+00  0.00000000E+00
  0.00000000E+00  0.00000000E+00  0.00000000E+00
  0.00000000E+00  0.00000000E+00  0.00000000E+00
  0.00000000E+00  0.00000000E+00  0.00000000E+00
  0.00000000E+00  0.00000000E+00  0.00000000E+00
  0.00000000E+00  0.00000000E+00  0.00000000E+00
  0.00000000E+00  0.00000000E+00  0.00000000E+00
  0.00000000E+00  0.00000000E+00  0.00000000E+00
  0.00000000E+00  0.00000000E+00  0.00000000E+00
  0.00000000E+00  0.00000000E+00  0.00000000E+00
  0.00000000E+00  0.00000000E+00  0.00000000E+00
  0.00000000E+00  0.00000000E+00  0.00000000E+00
  0.00000000E+00  0.00000000E+00  0.00000000E+00
  0.00000000E+00  0.00000000E+00  0.00000000E+00
  0.00000000E+00  0.00000000E+00  0.00000000E+00
  0.00000000E+00  0.00000000E+00  0.00000000E+00
  0.00000000E+00  0.00000000E+00  0.00000000E+00
  0.00000000E+00  0.00000000E+00  0.00000000E+00
  0.00000000E+00  0.00000000E+00  0.00000000E+00
  0.00000000E+00  0.00000000E+00  0.00000000E+00
  0.00000000E+00  0.00000000E+00  0.00000000E+00
  0.00000000E+00  0.00000000E+00  0.00000000E+00
  0.00000000E+00  0.00000000E+00  0.00000000E+00
  0.00000000E+00  0.00000000E+00  0.00000000E+00
  0.00000000E+00  0.00000000E+00  0.00000000E+00
  0.00000000E+00  0.00000000E+00  0.00000000E+00
  0.00000000E+00  0.00000000E+00  0.00000000E+00
  0.00000000E+00  0.00000000E+00  0.00000000E+00
  0.00000000E+00  0.00000000E+00  0.00000000E+00
  0.00000000E+00  0.00000000E+00  0.00000000E+00
  0.00000000E+00  0.00000000E+00  0.00000000E+00
  0.00000000E+00  0.00000000E+00  0.00000000E+00
  0.00000000E+00  0.00000000E+00  0.00000000E+00
  0.00000000E+00  0.00000000E+00  0.00000000E+00
  0.00000000E+00  0.00000000E+00  0.00000000E+00
  0.00000000E+00  0.00000000E+00  0.00000000E+00
  0.00000000E+00  0.00000000E+00  0.00000000E+00
  0.00000000E+00  0.00000000E+00  0.00000000E+00
  0.00000000E+00  0.00000000E+00  0.00000000E+00
  0.00000000E+00  0.00000000E+00  0.00000000E+00
  0.00000000E+00  0.00000000E+00  0.00000000E+00
  0.00000000E+00  0.00000000E+00  0.00000000E+00
  0.00000000E+00  0.00000000E+00  0.00000000E+00
  0.00000000E+00  0.00000000E+00  0.00000000E+00
  0.00000000E+00  0.00000000E+00  0.00000000E+00
  0.00000000E+00  0.00000000E+00  0.00000000E+00
  0.00000000E+00  0.00000000E+00  0.00000000E+00
  0.00000000E+00  0.00000000E+00  0.00000000E+00
