Mo  S Cu                                
   1.00000000000000     
    15.9215000000000000    0.0000000000000000    0.0000000000000000
    -7.9622500000000000   13.7910219999999999    0.0000000000000000
     0.0000000000000000    0.0000000000000000   13.5822000000000003
   Mo   S    Cu
    25    50     1
Direct
  0.1319209492213673  0.0657160702698860  0.6792766616044972
  0.1320632707942409  0.2650322840823947  0.6795332724617467
  0.1327783416166852  0.4657309840202331  0.6790525312254303
  0.1326949740968573  0.6657770408935235  0.6787537430025239
  0.1327125844420252  0.8658435517790508  0.6788378927949026
  0.3334438632204169  0.0656738772495800  0.6791777318448595
  0.3328075531721169  0.2656783088946852  0.6801640997900193
  0.3334723223210645  0.4664383156256022  0.6795413295778943
  0.3327922140953206  0.6659563101965631  0.6787902038641391
  0.3327851627978262  0.8656116231388111  0.6786602222676663
  0.5329376582805025  0.0655694130434128  0.6787079564722873
  0.5328195278565317  0.2650559153644352  0.6791914014930782
  0.5327741767179290  0.4665738244976083  0.6792983531102550
  0.5329142991280236  0.6662480607879715  0.6788173391048318
  0.5327571602045325  0.8658304590763208  0.6786981249263988
  0.7326780201960048  0.0657525800401544  0.6786985700423500
  0.7328908758116839  0.2657226662015901  0.6786676620508771
  0.7326568104572786  0.4657925148176858  0.6788526816470153
  0.7328290048379316  0.6660584851847915  0.6786752451710569
  0.7326481891314032  0.8658579455746533  0.6786857199910514
  0.9322580344680986  0.0655921866771507  0.6788112222410732
  0.9325480969469453  0.2657156528377769  0.6787900418998092
  0.9327284618048282  0.4658133920682914  0.6787562042132862
  0.9326893417168947  0.6658126768799804  0.6787166521444021
  0.9324408874867345  0.8656703687395222  0.6786671983177825
  0.0658773991440711  0.1324590097583496  0.5640467019915647
  0.0648274424854662  0.1317509575729332  0.7947184670606475
  0.0662452843484758  0.3321731533516470  0.5640500957153094
  0.0655158236507987  0.3324926783365143  0.7941493104298303
  0.0661462007217537  0.5323670282990918  0.5637788876484606
  0.0660188110321940  0.5324972510088344  0.7939323458498464
  0.0660715923155166  0.7325416845177060  0.5636949280935823
  0.0660115438584583  0.7324641286467610  0.7938582770359730
  0.0660410028962559  0.9327752983423210  0.5638015422014107
  0.0654052429128598  0.9317918351375951  0.7939479139366341
  0.2663036710309896  0.1329559185832210  0.5650298783617416
  0.2644537835464078  0.1290456833424898  0.7976270893914332
  0.2664024353205008  0.3321175691609142  0.5652978659702725
  0.2646986151014232  0.3337940045953189  0.7979971206119956
  0.2663489700241684  0.5322671190768133  0.5640528634325293
  0.2660265008304137  0.5330004101298798  0.7941525137929233
  0.2659951151418198  0.7323450292055327  0.5635883949113634
  0.2660136227228591  0.7324457377731051  0.7938743860160287
  0.2662695931002901  0.9326774175201606  0.5637615396224120
  0.2659874823524220  0.9317851786029081  0.7939131117309230
  0.4661788555289945  0.1323393755434736  0.5638338811516874
  0.4666354991425834  0.1318610745228312  0.7945151766807186
  0.4655457008382058  0.3322061730728905  0.5650461333280887
  0.4694293586864831  0.3340292521615282  0.7976474124319566
  0.4660539930349259  0.5326305250952714  0.5640608848933084
  0.4667574368508838  0.5336912845798594  0.7947324053676468
  0.4660684210032429  0.7325351647200904  0.5636054280926857
  0.4661470340035976  0.7327521950129281  0.7939439826065211
  0.4661156273472287  0.9324174630594158  0.5635333845255062
  0.4661286566525575  0.9323266657431262  0.7938661634700139
  0.6661015731535116  0.1324040105270257  0.5635348189492575
  0.6661886504166432  0.1323844910124805  0.7938700742586988
  0.6658308884821480  0.3322511099641972  0.5637768198669306
  0.6667233867151836  0.3325278759415085  0.7939247508438640
  0.6657228019450159  0.5324602547553283  0.5638201865053034
  0.6667141776131160  0.5331049183110323  0.7939629602841833
  0.6660142417213848  0.7325879624438798  0.5635628217136031
  0.6662060158246916  0.7327668841436434  0.7938960584601702
  0.6660244401350255  0.9324972691499838  0.5635641976676027
  0.6660267267158488  0.9324951713806371  0.7938439305897660
  0.8659774276000363  0.1324469914258515  0.5636039205129677
  0.8657634415176361  0.1323657126808797  0.7939420798937959
  0.8661658134717882  0.3325246596031732  0.5635925650323514
  0.8660704760760041  0.3325065876892168  0.7938759004852898
  0.8659621541150742  0.5324364175507199  0.5637008909420587
  0.8660516537471352  0.5325038117113507  0.7938632509613299
  0.8660359566083429  0.7324658525391428  0.5635358581673273
  0.8660279790377459  0.7324849267148110  0.7938384063855537
  0.8659223240630283  0.9325013648419187  0.5635594938217565
  0.8657500371104376  0.9323116575159531  0.7938903315417321
  0.3331770720804812  0.2652372434267036  0.8903767133901184
 
  0.00000000E+00  0.00000000E+00  0.00000000E+00
  0.00000000E+00  0.00000000E+00  0.00000000E+00
  0.00000000E+00  0.00000000E+00  0.00000000E+00
  0.00000000E+00  0.00000000E+00  0.00000000E+00
  0.00000000E+00  0.00000000E+00  0.00000000E+00
  0.00000000E+00  0.00000000E+00  0.00000000E+00
  0.00000000E+00  0.00000000E+00  0.00000000E+00
  0.00000000E+00  0.00000000E+00  0.00000000E+00
  0.00000000E+00  0.00000000E+00  0.00000000E+00
  0.00000000E+00  0.00000000E+00  0.00000000E+00
  0.00000000E+00  0.00000000E+00  0.00000000E+00
  0.00000000E+00  0.00000000E+00  0.00000000E+00
  0.00000000E+00  0.00000000E+00  0.00000000E+00
  0.00000000E+00  0.00000000E+00  0.00000000E+00
  0.00000000E+00  0.00000000E+00  0.00000000E+00
  0.00000000E+00  0.00000000E+00  0.00000000E+00
  0.00000000E+00  0.00000000E+00  0.00000000E+00
  0.00000000E+00  0.00000000E+00  0.00000000E+00
  0.00000000E+00  0.00000000E+00  0.00000000E+00
  0.00000000E+00  0.00000000E+00  0.00000000E+00
  0.00000000E+00  0.00000000E+00  0.00000000E+00
  0.00000000E+00  0.00000000E+00  0.00000000E+00
  0.00000000E+00  0.00000000E+00  0.00000000E+00
  0.00000000E+00  0.00000000E+00  0.00000000E+00
  0.00000000E+00  0.00000000E+00  0.00000000E+00
  0.00000000E+00  0.00000000E+00  0.00000000E+00
  0.00000000E+00  0.00000000E+00  0.00000000E+00
  0.00000000E+00  0.00000000E+00  0.00000000E+00
  0.00000000E+00  0.00000000E+00  0.00000000E+00
  0.00000000E+00  0.00000000E+00  0.00000000E+00
  0.00000000E+00  0.00000000E+00  0.00000000E+00
  0.00000000E+00  0.00000000E+00  0.00000000E+00
  0.00000000E+00  0.00000000E+00  0.00000000E+00
  0.00000000E+00  0.00000000E+00  0.00000000E+00
  0.00000000E+00  0.00000000E+00  0.00000000E+00
  0.00000000E+00  0.00000000E+00  0.00000000E+00
  0.00000000E+00  0.00000000E+00  0.00000000E+00
  0.00000000E+00  0.00000000E+00  0.00000000E+00
  0.00000000E+00  0.00000000E+00  0.00000000E+00
  0.00000000E+00  0.00000000E+00  0.00000000E+00
  0.00000000E+00  0.00000000E+00  0.00000000E+00
  0.00000000E+00  0.00000000E+00  0.00000000E+00
  0.00000000E+00  0.00000000E+00  0.00000000E+00
  0.00000000E+00  0.00000000E+00  0.00000000E+00
  0.00000000E+00  0.00000000E+00  0.00000000E+00
  0.00000000E+00  0.00000000E+00  0.00000000E+00
  0.00000000E+00  0.00000000E+00  0.00000000E+00
  0.00000000E+00  0.00000000E+00  0.00000000E+00
  0.00000000E+00  0.00000000E+00  0.00000000E+00
  0.00000000E+00  0.00000000E+00  0.00000000E+00
  0.00000000E+00  0.00000000E+00  0.00000000E+00
  0.00000000E+00  0.00000000E+00  0.00000000E+00
  0.00000000E+00  0.00000000E+00  0.00000000E+00
  0.00000000E+00  0.00000000E+00  0.00000000E+00
  0.00000000E+00  0.00000000E+00  0.00000000E+00
  0.00000000E+00  0.00000000E+00  0.00000000E+00
  0.00000000E+00  0.00000000E+00  0.00000000E+00
  0.00000000E+00  0.00000000E+00  0.00000000E+00
  0.00000000E+00  0.00000000E+00  0.00000000E+00
  0.00000000E+00  0.00000000E+00  0.00000000E+00
  0.00000000E+00  0.00000000E+00  0.00000000E+00
  0.00000000E+00  0.00000000E+00  0.00000000E+00
  0.00000000E+00  0.00000000E+00  0.00000000E+00
  0.00000000E+00  0.00000000E+00  0.00000000E+00
  0.00000000E+00  0.00000000E+00  0.00000000E+00
  0.00000000E+00  0.00000000E+00  0.00000000E+00
  0.00000000E+00  0.00000000E+00  0.00000000E+00
  0.00000000E+00  0.00000000E+00  0.00000000E+00
  0.00000000E+00  0.00000000E+00  0.00000000E+00
  0.00000000E+00  0.00000000E+00  0.00000000E+00
  0.00000000E+00  0.00000000E+00  0.00000000E+00
  0.00000000E+00  0.00000000E+00  0.00000000E+00
  0.00000000E+00  0.00000000E+00  0.00000000E+00
  0.00000000E+00  0.00000000E+00  0.00000000E+00
  0.00000000E+00  0.00000000E+00  0.00000000E+00
  0.00000000E+00  0.00000000E+00  0.00000000E+00
