Mo  S Cu                                
   1.00000000000000     
    15.9214998300000001    0.0000000000000000    0.0000000000000000
    -7.9622501300000001   13.7910221699999997    0.0000000000000000
     0.0000000000000000    0.0000000000000000   13.5821998300000004
   Mo   S    Cu
    25    50     4
Direct
  0.1319517477334244  0.0655322533203346  0.6744752759828501
  0.1315427853791888  0.2651971371495065  0.6748969492533874
  0.1300681056113717  0.4647160548437128  0.6745523011312713
  0.1324385772173926  0.6659376891324484  0.6757131041113595
  0.1324206125141316  0.8660238551824548  0.6755352836027413
  0.3325402574329246  0.0660280069448618  0.6768791422574694
  0.3295354317159394  0.2665580507227929  0.6771322496575962
  0.3281729546427172  0.4591977208217770  0.6760376467598590
  0.3325726313500894  0.6661408222807168  0.6765424974964773
  0.3325247839122838  0.8660524917512120  0.6757253904888501
  0.5325180776318987  0.0664382907198728  0.6760107687793990
  0.5316520470863750  0.2642022242940030  0.6801739730778564
  0.5319780717471758  0.4666627232679588  0.6927348529887496
  0.5387981776696478  0.6703609751786601  0.6753878416511228
  0.5337743943331077  0.8685399632361595  0.6745100680023484
  0.7329599239123823  0.0665755098362837  0.6737467793890985
  0.7327121933839962  0.2657739280749212  0.6767892474547637
  0.7342066284888631  0.4668159449426170  0.6802287844185670
  0.7319695112807523  0.6687815414470037  0.6771933790556517
  0.7331608298826140  0.8668311813841711  0.6750267817026767
  0.9323307695148060  0.0660567396174727  0.6731236859759946
  0.9319329976765403  0.2655331643695149  0.6736766214953533
  0.9320825492900795  0.4659479073829260  0.6759425187023140
  0.9324318235954507  0.6659308376060977  0.6768880891868676
  0.9328843141183967  0.8664753796794784  0.6745442829365302
  0.0661014717359620  0.1326995933461319  0.5587602835442027
  0.0644200295294226  0.1316000823179380  0.7891422287731089
  0.0655108544567611  0.3323790234963084  0.5588787135851447
  0.0637107675346158  0.3312216826016225  0.7893554281813095
  0.0648794987935517  0.5327179742741990  0.5600402369946664
  0.0652304512905246  0.5322881699190489  0.7904856912832159
  0.0652722178266743  0.7322867321816631  0.5610753974482563
  0.0663913847057458  0.7331623862862457  0.7911803248682432
  0.0660919967500888  0.9323026013776996  0.5594308637030849
  0.0656139135231228  0.9328764178762015  0.7900651899154454
  0.2670351264961752  0.1341841481867618  0.5613681974421425
  0.2637266304135508  0.1316098834776511  0.7909568878388313
  0.2647144361491129  0.3312954290112629  0.5595043325334856
  0.2640167882645699  0.3315304460734438  0.7963917731338341
  0.2662296146218139  0.5319175050371499  0.5620790477394664
  0.2619085116878139  0.5290148242396029  0.7905609993609914
  0.2663659437027022  0.7321357147285568  0.5611106502971666
  0.2657226176463965  0.7327658601512184  0.7909638344527608
  0.2661691516512192  0.9331961335966312  0.5610750872839887
  0.2652880847820782  0.9320858712774012  0.7911825722295589
  0.4660414895899194  0.1345229109558943  0.5623237414724755
  0.4645220202122218  0.1295581448477847  0.7935050066928753
  0.4680158167735016  0.3375631611982257  0.5697748036613390
  0.4628084464268127  0.3256109534572005  0.8011601152546817
  0.4675599123724297  0.5306671117730559  0.5726827516455373
  0.4711446485265185  0.5241646904191768  0.8412615917092268
  0.4664581030298720  0.7325942550216098  0.5617427700834838
  0.4695838035968478  0.7367020256891195  0.7904159490627265
  0.4657666144723365  0.9337428515055990  0.5600506140795432
  0.4661724201632822  0.9333013945633084  0.7905371758727782
  0.6655966561413251  0.1339320092904970  0.5602800802634889
  0.6664734437545974  0.1318549180136301  0.7905230904011233
  0.6647341534433124  0.3337593305727324  0.5654593510128336
  0.6663801762653705  0.3319936939424721  0.7969350627223122
  0.6609773445587379  0.5304396153024982  0.5696602895511163
  0.6730031297725816  0.5359533183916128  0.8010112221722920
  0.6672570831426441  0.7337478701157423  0.5595377026545449
  0.6661998613236975  0.7338813149351822  0.7961871910574985
  0.6661916935121965  0.9330264415546310  0.5589498265940662
  0.6672441732985774  0.9348080131087855  0.7894073544709315
  0.8656165708995687  0.1328283700612616  0.5578722929560058
  0.8660318640437339  0.1325131320498869  0.7885094306800156
  0.8645454308561682  0.3328844633081118  0.5602251830975860
  0.8666808989870987  0.3320341509825866  0.7904591816887745
  0.8639111675167754  0.5324010184480059  0.5623398365365233
  0.8689514815012487  0.5339167867115719  0.7934767512661836
  0.8642928186720269  0.7314391833393401  0.5614136062614534
  0.8669046248231993  0.7347388111042079  0.7910447927394557
  0.8656372754557040  0.9322577135901895  0.5588537364003088
  0.8667779123494341  0.9339785807740881  0.7892210131601018
  0.3947587685391625  0.3816362512323010  0.9179793441286748
  0.5950977541492861  0.4037335080080027  0.9053621608050761
  0.6141045755430525  0.6020744501448263  0.9166909807056527
  0.3962621635655950  0.6030259125755109  0.8794656022499225
 
  0.00000000E+00  0.00000000E+00  0.00000000E+00
  0.00000000E+00  0.00000000E+00  0.00000000E+00
  0.00000000E+00  0.00000000E+00  0.00000000E+00
  0.00000000E+00  0.00000000E+00  0.00000000E+00
  0.00000000E+00  0.00000000E+00  0.00000000E+00
  0.00000000E+00  0.00000000E+00  0.00000000E+00
  0.00000000E+00  0.00000000E+00  0.00000000E+00
  0.00000000E+00  0.00000000E+00  0.00000000E+00
  0.00000000E+00  0.00000000E+00  0.00000000E+00
  0.00000000E+00  0.00000000E+00  0.00000000E+00
  0.00000000E+00  0.00000000E+00  0.00000000E+00
  0.00000000E+00  0.00000000E+00  0.00000000E+00
  0.00000000E+00  0.00000000E+00  0.00000000E+00
  0.00000000E+00  0.00000000E+00  0.00000000E+00
  0.00000000E+00  0.00000000E+00  0.00000000E+00
  0.00000000E+00  0.00000000E+00  0.00000000E+00
  0.00000000E+00  0.00000000E+00  0.00000000E+00
  0.00000000E+00  0.00000000E+00  0.00000000E+00
  0.00000000E+00  0.00000000E+00  0.00000000E+00
  0.00000000E+00  0.00000000E+00  0.00000000E+00
  0.00000000E+00  0.00000000E+00  0.00000000E+00
  0.00000000E+00  0.00000000E+00  0.00000000E+00
  0.00000000E+00  0.00000000E+00  0.00000000E+00
  0.00000000E+00  0.00000000E+00  0.00000000E+00
  0.00000000E+00  0.00000000E+00  0.00000000E+00
  0.00000000E+00  0.00000000E+00  0.00000000E+00
  0.00000000E+00  0.00000000E+00  0.00000000E+00
  0.00000000E+00  0.00000000E+00  0.00000000E+00
  0.00000000E+00  0.00000000E+00  0.00000000E+00
  0.00000000E+00  0.00000000E+00  0.00000000E+00
  0.00000000E+00  0.00000000E+00  0.00000000E+00
  0.00000000E+00  0.00000000E+00  0.00000000E+00
  0.00000000E+00  0.00000000E+00  0.00000000E+00
  0.00000000E+00  0.00000000E+00  0.00000000E+00
  0.00000000E+00  0.00000000E+00  0.00000000E+00
  0.00000000E+00  0.00000000E+00  0.00000000E+00
  0.00000000E+00  0.00000000E+00  0.00000000E+00
  0.00000000E+00  0.00000000E+00  0.00000000E+00
  0.00000000E+00  0.00000000E+00  0.00000000E+00
  0.00000000E+00  0.00000000E+00  0.00000000E+00
  0.00000000E+00  0.00000000E+00  0.00000000E+00
  0.00000000E+00  0.00000000E+00  0.00000000E+00
  0.00000000E+00  0.00000000E+00  0.00000000E+00
  0.00000000E+00  0.00000000E+00  0.00000000E+00
  0.00000000E+00  0.00000000E+00  0.00000000E+00
  0.00000000E+00  0.00000000E+00  0.00000000E+00
  0.00000000E+00  0.00000000E+00  0.00000000E+00
  0.00000000E+00  0.00000000E+00  0.00000000E+00
  0.00000000E+00  0.00000000E+00  0.00000000E+00
  0.00000000E+00  0.00000000E+00  0.00000000E+00
  0.00000000E+00  0.00000000E+00  0.00000000E+00
  0.00000000E+00  0.00000000E+00  0.00000000E+00
  0.00000000E+00  0.00000000E+00  0.00000000E+00
  0.00000000E+00  0.00000000E+00  0.00000000E+00
  0.00000000E+00  0.00000000E+00  0.00000000E+00
  0.00000000E+00  0.00000000E+00  0.00000000E+00
  0.00000000E+00  0.00000000E+00  0.00000000E+00
  0.00000000E+00  0.00000000E+00  0.00000000E+00
  0.00000000E+00  0.00000000E+00  0.00000000E+00
  0.00000000E+00  0.00000000E+00  0.00000000E+00
  0.00000000E+00  0.00000000E+00  0.00000000E+00
  0.00000000E+00  0.00000000E+00  0.00000000E+00
  0.00000000E+00  0.00000000E+00  0.00000000E+00
  0.00000000E+00  0.00000000E+00  0.00000000E+00
  0.00000000E+00  0.00000000E+00  0.00000000E+00
  0.00000000E+00  0.00000000E+00  0.00000000E+00
  0.00000000E+00  0.00000000E+00  0.00000000E+00
  0.00000000E+00  0.00000000E+00  0.00000000E+00
  0.00000000E+00  0.00000000E+00  0.00000000E+00
  0.00000000E+00  0.00000000E+00  0.00000000E+00
  0.00000000E+00  0.00000000E+00  0.00000000E+00
  0.00000000E+00  0.00000000E+00  0.00000000E+00
  0.00000000E+00  0.00000000E+00  0.00000000E+00
  0.00000000E+00  0.00000000E+00  0.00000000E+00
  0.00000000E+00  0.00000000E+00  0.00000000E+00
  0.00000000E+00  0.00000000E+00  0.00000000E+00
  0.00000000E+00  0.00000000E+00  0.00000000E+00
  0.00000000E+00  0.00000000E+00  0.00000000E+00
  0.00000000E+00  0.00000000E+00  0.00000000E+00
