Mo  S Co                                
   1.00000000000000     
    15.9214998300000001    0.0000000000000000    0.0000000000000000
    -7.9622501300000001   13.7910221699999997    0.0000000000000000
     0.0000000000000000    0.0000000000000000   13.5821998300000004
   Mo   S    Ru
    25    49     4
Direct
  0.1334742778769424  0.0664309835612400  0.6758088217094596
  0.1310835172692677  0.2652429688609743  0.6691669900718367
  0.1343737369366167  0.4645942512331089  0.6761962468022276
  0.1337657828858383  0.6660917740620462  0.6796296084090727
  0.1337715403373849  0.8665833810640393  0.6778796867218517
  0.3328324914896186  0.0669068266381601  0.6789878134349792
  0.3259277157343377  0.2697944140475741  0.6844712306505158
  0.3354424161490215  0.4709498163006032  0.6680554128917393
  0.3337331132027685  0.6668973362645190  0.6762472199906071
  0.3328313245831183  0.8660097979750532  0.6782342257731884
  0.5323765896125110  0.0648966142318912  0.6779674631685282
  0.5330208818921491  0.2607275238461213  0.6811055730243964
  0.5295277386093886  0.4715709196614100  0.6843625560330437
  0.5343723715827267  0.6699340950074912  0.6757575347929148
  0.5333522826291244  0.8670124753111068  0.6766482886634506
  0.7329794289961100  0.0665073322077774  0.6766105166277754
  0.7369298841785223  0.2651469678875316  0.6810032913454123
  0.7420921849540960  0.4759778598594480  0.6860651059871543
  0.7333289564600207  0.6688607849552639  0.6782891432338900
  0.7340878009009018  0.8679043836008802  0.6758974049408764
  0.9338766999978034  0.0661564586719905  0.6741677515443030
  0.9368169339834083  0.2663611838552313  0.6788652180174779
  0.9317701397393563  0.4646740149483577  0.6839731928370156
  0.9358226013779216  0.6675311772825907  0.6790865309218006
  0.9340628981547212  0.8670486442445053  0.6758288403583919
  0.0662994738160165  0.1302711991578249  0.5566118644498559
  0.0684247183593598  0.1348968363011238  0.7878862809054539
  0.0650585440002516  0.3332719298990483  0.5581167938796554
  0.0753658813415470  0.3332674822134152  0.7950916662161873
  0.0634876957574093  0.5312540664590344  0.5664160665162612
  0.0684864993193699  0.5315081492515503  0.7942332019198801
  0.0676532458813597  0.7328506336460165  0.5636060856087539
  0.0690117237565318  0.7349056087994938  0.7941901728349237
  0.0677293314235499  0.9326241366184291  0.5611045063483999
  0.0665539024039319  0.9337088527722202  0.7914346730616089
  0.2692251651592414  0.1381602105043171  0.5652048555113112
  0.2629591627454602  0.1333191390018058  0.7938156439050701
  0.2669028453738491  0.3338659825177075  0.5601912302257546
  0.2659919892563636  0.5358595829383361  0.5575171611656913
  0.2665113956486636  0.5261598070242144  0.7919325465390870
  0.2657383664665787  0.7330435573140974  0.5629402736189704
  0.2676194168977872  0.7322814456641069  0.7933926752812468
  0.2669188574437058  0.9340875841352201  0.5635107861332571
  0.2662394177885190  0.9330717394638057  0.7933997676212670
  0.4637209613997229  0.1277038838398283  0.5596778934825579
  0.4646710580294737  0.1281697924349956  0.7936744566160741
  0.4642124903874816  0.3320745230952511  0.5756244353375308
  0.4385111393213847  0.3460832396326765  0.8179579784491935
  0.4717659823378213  0.5366659609448021  0.5587081164268284
  0.4612391494799866  0.5353422206085128  0.7940787599009198
  0.4667642300556096  0.7346181616080258  0.5609401131785745
  0.4667754346600006  0.7347935869546092  0.7917567528685296
  0.4656244646951748  0.9325683407608949  0.5624460856131108
  0.4662833647673352  0.9317895708080854  0.7929823309107249
  0.6655580030940982  0.1337346217696123  0.5626388755019534
  0.6658753578028538  0.1312642091106895  0.7932585864628621
  0.6702106750606802  0.3366739521862101  0.5745061048848754
  0.6381556341265622  0.3066522816519992  0.9452616922484154
  0.6657612536893112  0.5321273533642099  0.5684688134137872
  0.6674753456009981  0.5371567179126515  0.7971612239082688
  0.6678020492833099  0.7346432846739717  0.5612145033686531
  0.6672681899575466  0.7364509060964721  0.7922444348338828
  0.6665562953403850  0.9340266460616533  0.5609280723419658
  0.6670867639996558  0.9337051655509967  0.7914792712608971
  0.8669531119546576  0.1348942752546591  0.5617595814814891
  0.8672683849695346  0.1307754668201966  0.7909705309311121
  0.8670348776866490  0.3322064260868274  0.5662223579492718
  0.8665108997111801  0.3273916999745339  0.7994057618929702
  0.8684278941407158  0.5327835929132476  0.5656516527300042
  0.8734567196072334  0.5398729485342386  0.8056339157674373
  0.8671246791061193  0.7318198629836559  0.5629177029995489
  0.8679148965827324  0.7358842126836720  0.7921639508853531
  0.8667536065519599  0.9326449508259245  0.5598731520598861
  0.8678926157111846  0.9343688914432846  0.7903272118766935
  0.3809163921125034  0.4197935307482794  0.9117936897638259
  0.5887916314327128  0.3580350396258609  0.8136795187708756
  0.7610780162400275  0.3811111796744839  0.8461935708401782
  0.2441997823518847  0.3624983465854612  0.8217853547321496
 
  0.00000000E+00  0.00000000E+00  0.00000000E+00
  0.00000000E+00  0.00000000E+00  0.00000000E+00
  0.00000000E+00  0.00000000E+00  0.00000000E+00
  0.00000000E+00  0.00000000E+00  0.00000000E+00
  0.00000000E+00  0.00000000E+00  0.00000000E+00
  0.00000000E+00  0.00000000E+00  0.00000000E+00
  0.00000000E+00  0.00000000E+00  0.00000000E+00
  0.00000000E+00  0.00000000E+00  0.00000000E+00
  0.00000000E+00  0.00000000E+00  0.00000000E+00
  0.00000000E+00  0.00000000E+00  0.00000000E+00
  0.00000000E+00  0.00000000E+00  0.00000000E+00
  0.00000000E+00  0.00000000E+00  0.00000000E+00
  0.00000000E+00  0.00000000E+00  0.00000000E+00
  0.00000000E+00  0.00000000E+00  0.00000000E+00
  0.00000000E+00  0.00000000E+00  0.00000000E+00
  0.00000000E+00  0.00000000E+00  0.00000000E+00
  0.00000000E+00  0.00000000E+00  0.00000000E+00
  0.00000000E+00  0.00000000E+00  0.00000000E+00
  0.00000000E+00  0.00000000E+00  0.00000000E+00
  0.00000000E+00  0.00000000E+00  0.00000000E+00
  0.00000000E+00  0.00000000E+00  0.00000000E+00
  0.00000000E+00  0.00000000E+00  0.00000000E+00
  0.00000000E+00  0.00000000E+00  0.00000000E+00
  0.00000000E+00  0.00000000E+00  0.00000000E+00
  0.00000000E+00  0.00000000E+00  0.00000000E+00
  0.00000000E+00  0.00000000E+00  0.00000000E+00
  0.00000000E+00  0.00000000E+00  0.00000000E+00
  0.00000000E+00  0.00000000E+00  0.00000000E+00
  0.00000000E+00  0.00000000E+00  0.00000000E+00
  0.00000000E+00  0.00000000E+00  0.00000000E+00
  0.00000000E+00  0.00000000E+00  0.00000000E+00
  0.00000000E+00  0.00000000E+00  0.00000000E+00
  0.00000000E+00  0.00000000E+00  0.00000000E+00
  0.00000000E+00  0.00000000E+00  0.00000000E+00
  0.00000000E+00  0.00000000E+00  0.00000000E+00
  0.00000000E+00  0.00000000E+00  0.00000000E+00
  0.00000000E+00  0.00000000E+00  0.00000000E+00
  0.00000000E+00  0.00000000E+00  0.00000000E+00
  0.00000000E+00  0.00000000E+00  0.00000000E+00
  0.00000000E+00  0.00000000E+00  0.00000000E+00
  0.00000000E+00  0.00000000E+00  0.00000000E+00
  0.00000000E+00  0.00000000E+00  0.00000000E+00
  0.00000000E+00  0.00000000E+00  0.00000000E+00
  0.00000000E+00  0.00000000E+00  0.00000000E+00
  0.00000000E+00  0.00000000E+00  0.00000000E+00
  0.00000000E+00  0.00000000E+00  0.00000000E+00
  0.00000000E+00  0.00000000E+00  0.00000000E+00
  0.00000000E+00  0.00000000E+00  0.00000000E+00
  0.00000000E+00  0.00000000E+00  0.00000000E+00
  0.00000000E+00  0.00000000E+00  0.00000000E+00
  0.00000000E+00  0.00000000E+00  0.00000000E+00
  0.00000000E+00  0.00000000E+00  0.00000000E+00
  0.00000000E+00  0.00000000E+00  0.00000000E+00
  0.00000000E+00  0.00000000E+00  0.00000000E+00
  0.00000000E+00  0.00000000E+00  0.00000000E+00
  0.00000000E+00  0.00000000E+00  0.00000000E+00
  0.00000000E+00  0.00000000E+00  0.00000000E+00
  0.00000000E+00  0.00000000E+00  0.00000000E+00
  0.00000000E+00  0.00000000E+00  0.00000000E+00
  0.00000000E+00  0.00000000E+00  0.00000000E+00
  0.00000000E+00  0.00000000E+00  0.00000000E+00
  0.00000000E+00  0.00000000E+00  0.00000000E+00
  0.00000000E+00  0.00000000E+00  0.00000000E+00
  0.00000000E+00  0.00000000E+00  0.00000000E+00
  0.00000000E+00  0.00000000E+00  0.00000000E+00
  0.00000000E+00  0.00000000E+00  0.00000000E+00
  0.00000000E+00  0.00000000E+00  0.00000000E+00
  0.00000000E+00  0.00000000E+00  0.00000000E+00
  0.00000000E+00  0.00000000E+00  0.00000000E+00
  0.00000000E+00  0.00000000E+00  0.00000000E+00
  0.00000000E+00  0.00000000E+00  0.00000000E+00
  0.00000000E+00  0.00000000E+00  0.00000000E+00
  0.00000000E+00  0.00000000E+00  0.00000000E+00
  0.00000000E+00  0.00000000E+00  0.00000000E+00
  0.00000000E+00  0.00000000E+00  0.00000000E+00
  0.00000000E+00  0.00000000E+00  0.00000000E+00
  0.00000000E+00  0.00000000E+00  0.00000000E+00
  0.00000000E+00  0.00000000E+00  0.00000000E+00
