Mo  S Co                                
   1.00000000000000     
    15.9214998300000001    0.0000000000000000    0.0000000000000000
    -7.9622501300000001   13.7910221699999997    0.0000000000000000
     0.0000000000000000    0.0000000000000000   13.5821998300000004
   Mo   S    Ru
    25    49     4
Direct
  0.1317311007566602  0.0668161049440599  0.6785441497710067
  0.1361086898764157  0.2685326188459740  0.6760695697877210
  0.1328368217670715  0.4641796491076136  0.6773605494702792
  0.1317679995460992  0.6647289363539173  0.6790841755377528
  0.1314370059156573  0.8648401550213478  0.6789035707915332
  0.3310453192476146  0.0642193348079445  0.6787489611395046
  0.3301111511375865  0.2633927674057119  0.6772754115436754
  0.3293160258912096  0.4629941191142706  0.6734324824106466
  0.3314786978654283  0.6640874056277539  0.6783269750203686
  0.3316346321645085  0.8644240093920956  0.6793139396601333
  0.5333417322566945  0.0653454049703868  0.6807214836553186
  0.5305483068861818  0.2639261998776945  0.6798129874862511
  0.5305246363264473  0.4684969019486829  0.6759528057073823
  0.5310196569797085  0.6653821331589640  0.6778534058189649
  0.5320066470325884  0.8650329141839634  0.6795054007511467
  0.7326285200694969  0.0654458913655205  0.6814684470619881
  0.7318960574754314  0.2641157434196799  0.6825083093787327
  0.7309946020379741  0.4650900863688250  0.6824325901065862
  0.7319801931462635  0.6657288884687347  0.6789882710644122
  0.7323522666138302  0.8655997846004624  0.6798255933046846
  0.9333060971506981  0.0665059334470612  0.6805781250196077
  0.9335671325486601  0.2655570313010642  0.6811644271770660
  0.9317491504308890  0.4647903821729642  0.6810173978237657
  0.9315866994865445  0.6651013851443963  0.6798420173155222
  0.9317607893656330  0.8653931220094648  0.6792977637526363
  0.0657248605860659  0.1337222318826576  0.5634438559604931
  0.0705759872559639  0.1376625291294289  0.7938071332364274
  0.0650878244177306  0.3300757820460589  0.5627906223701586
  0.0716280668974179  0.3334748780595476  0.7940583402154786
  0.0640695136648972  0.5310228473161942  0.5644239512022935
  0.0667027267311653  0.5312405953602024  0.7938237775739765
  0.0644934738797289  0.7311877511347120  0.5641993238693459
  0.0653346019677912  0.7317412135030850  0.7942502536890430
  0.0649726426791730  0.9323031658270153  0.5640326045559476
  0.0649462418460658  0.9323078688308115  0.7934404116525045
  0.2652832796454661  0.1313733373863784  0.5633334491805826
  0.2630303997756940  0.1301655698485575  0.7962204752782114
  0.2666972187295187  0.3302910382895661  0.5616741414671722
  0.2656662333457405  0.5319029231650418  0.5607604858579407
  0.2647842239971325  0.5270420854622628  0.7922513562083964
  0.2649700879204886  0.7314358319293248  0.5638412415509535
  0.2650285254498925  0.7304495696739508  0.7940463738225887
  0.2647723648417895  0.9308465025086505  0.5637303404647795
  0.2641644032081487  0.9303742347021213  0.7938308032146111
  0.4653265923951793  0.1314588479272913  0.5655856406751170
  0.4627666974690001  0.1277145582090640  0.7984114207036015
  0.4644691404549803  0.3313056959842697  0.5644051498877047
  0.4641684500525898  0.3414926365703721  0.7942092666604736
  0.4635476963756275  0.5334264931792632  0.5599936406113031
  0.4596791405818763  0.5296884965694346  0.7914665319744216
  0.4650718107093965  0.7325733800610834  0.5635716432741447
  0.4644835873115980  0.7310431729656557  0.7937956701590707
  0.4657108680111506  0.9322922947203125  0.5648683288774237
  0.4649533179423457  0.9306629451926725  0.7946348160341543
  0.6662318121350381  0.1323272005554230  0.5661784768417419
  0.6655201753402338  0.1310936977662678  0.7972494200234479
  0.6651976960820889  0.3313195038047212  0.5680934147194137
  0.6639746898717931  0.3314144036407285  0.8001638604041261
  0.6664859573479589  0.5321533654171020  0.5639248653280688
  0.6631751463637698  0.5329446115287979  0.7936290010719063
  0.6655949374364738  0.7326947184282560  0.5639081599417395
  0.6641821549163964  0.7313698569289500  0.7938810656838413
  0.6660767619074264  0.9328921795033196  0.5652651224498086
  0.6651613806493017  0.9311291062169147  0.7953073536956268
  0.8659118032899187  0.1324852813583419  0.5663724288681635
  0.8666882480365956  0.1323493449739246  0.7962945288719112
  0.8650177583058607  0.3311148681320475  0.5668679742866374
  0.8668249266388841  0.3319983147271230  0.7967366706930505
  0.8640174511728560  0.5306401399352154  0.5662928167671382
  0.8657046831242141  0.5326377705445609  0.7959018088807426
  0.8654038269128321  0.7320044345010501  0.5642119061511224
  0.8650081810131098  0.7321829498250381  0.7945083587517416
  0.8659071980883937  0.9332776548647175  0.5649499377166478
  0.8660681864824440  0.9324330224247817  0.7950351630742247
  0.3502440223644854  0.2539098582663755  0.9036498207885018
  0.5188479758430233  0.2653052267494971  0.8943041356042158
  0.5242136752479496  0.2900553208436918  0.0580525583855760
  0.3836368077385188  0.2851467653992685  0.0630134155043081
 
  0.00000000E+00  0.00000000E+00  0.00000000E+00
  0.00000000E+00  0.00000000E+00  0.00000000E+00
  0.00000000E+00  0.00000000E+00  0.00000000E+00
  0.00000000E+00  0.00000000E+00  0.00000000E+00
  0.00000000E+00  0.00000000E+00  0.00000000E+00
  0.00000000E+00  0.00000000E+00  0.00000000E+00
  0.00000000E+00  0.00000000E+00  0.00000000E+00
  0.00000000E+00  0.00000000E+00  0.00000000E+00
  0.00000000E+00  0.00000000E+00  0.00000000E+00
  0.00000000E+00  0.00000000E+00  0.00000000E+00
  0.00000000E+00  0.00000000E+00  0.00000000E+00
  0.00000000E+00  0.00000000E+00  0.00000000E+00
  0.00000000E+00  0.00000000E+00  0.00000000E+00
  0.00000000E+00  0.00000000E+00  0.00000000E+00
  0.00000000E+00  0.00000000E+00  0.00000000E+00
  0.00000000E+00  0.00000000E+00  0.00000000E+00
  0.00000000E+00  0.00000000E+00  0.00000000E+00
  0.00000000E+00  0.00000000E+00  0.00000000E+00
  0.00000000E+00  0.00000000E+00  0.00000000E+00
  0.00000000E+00  0.00000000E+00  0.00000000E+00
  0.00000000E+00  0.00000000E+00  0.00000000E+00
  0.00000000E+00  0.00000000E+00  0.00000000E+00
  0.00000000E+00  0.00000000E+00  0.00000000E+00
  0.00000000E+00  0.00000000E+00  0.00000000E+00
  0.00000000E+00  0.00000000E+00  0.00000000E+00
  0.00000000E+00  0.00000000E+00  0.00000000E+00
  0.00000000E+00  0.00000000E+00  0.00000000E+00
  0.00000000E+00  0.00000000E+00  0.00000000E+00
  0.00000000E+00  0.00000000E+00  0.00000000E+00
  0.00000000E+00  0.00000000E+00  0.00000000E+00
  0.00000000E+00  0.00000000E+00  0.00000000E+00
  0.00000000E+00  0.00000000E+00  0.00000000E+00
  0.00000000E+00  0.00000000E+00  0.00000000E+00
  0.00000000E+00  0.00000000E+00  0.00000000E+00
  0.00000000E+00  0.00000000E+00  0.00000000E+00
  0.00000000E+00  0.00000000E+00  0.00000000E+00
  0.00000000E+00  0.00000000E+00  0.00000000E+00
  0.00000000E+00  0.00000000E+00  0.00000000E+00
  0.00000000E+00  0.00000000E+00  0.00000000E+00
  0.00000000E+00  0.00000000E+00  0.00000000E+00
  0.00000000E+00  0.00000000E+00  0.00000000E+00
  0.00000000E+00  0.00000000E+00  0.00000000E+00
  0.00000000E+00  0.00000000E+00  0.00000000E+00
  0.00000000E+00  0.00000000E+00  0.00000000E+00
  0.00000000E+00  0.00000000E+00  0.00000000E+00
  0.00000000E+00  0.00000000E+00  0.00000000E+00
  0.00000000E+00  0.00000000E+00  0.00000000E+00
  0.00000000E+00  0.00000000E+00  0.00000000E+00
  0.00000000E+00  0.00000000E+00  0.00000000E+00
  0.00000000E+00  0.00000000E+00  0.00000000E+00
  0.00000000E+00  0.00000000E+00  0.00000000E+00
  0.00000000E+00  0.00000000E+00  0.00000000E+00
  0.00000000E+00  0.00000000E+00  0.00000000E+00
  0.00000000E+00  0.00000000E+00  0.00000000E+00
  0.00000000E+00  0.00000000E+00  0.00000000E+00
  0.00000000E+00  0.00000000E+00  0.00000000E+00
  0.00000000E+00  0.00000000E+00  0.00000000E+00
  0.00000000E+00  0.00000000E+00  0.00000000E+00
  0.00000000E+00  0.00000000E+00  0.00000000E+00
  0.00000000E+00  0.00000000E+00  0.00000000E+00
  0.00000000E+00  0.00000000E+00  0.00000000E+00
  0.00000000E+00  0.00000000E+00  0.00000000E+00
  0.00000000E+00  0.00000000E+00  0.00000000E+00
  0.00000000E+00  0.00000000E+00  0.00000000E+00
  0.00000000E+00  0.00000000E+00  0.00000000E+00
  0.00000000E+00  0.00000000E+00  0.00000000E+00
  0.00000000E+00  0.00000000E+00  0.00000000E+00
  0.00000000E+00  0.00000000E+00  0.00000000E+00
  0.00000000E+00  0.00000000E+00  0.00000000E+00
  0.00000000E+00  0.00000000E+00  0.00000000E+00
  0.00000000E+00  0.00000000E+00  0.00000000E+00
  0.00000000E+00  0.00000000E+00  0.00000000E+00
  0.00000000E+00  0.00000000E+00  0.00000000E+00
  0.00000000E+00  0.00000000E+00  0.00000000E+00
  0.00000000E+00  0.00000000E+00  0.00000000E+00
  0.00000000E+00  0.00000000E+00  0.00000000E+00
  0.00000000E+00  0.00000000E+00  0.00000000E+00
  0.00000000E+00  0.00000000E+00  0.00000000E+00
