POSCAR                                  
   1.00000000000000     
     6.3946198246987240   -0.0442978748425683    0.0229490209525122
    -3.2353384274343422    5.5111527366868778   -0.0041698090118623
     0.0378840493147539    0.0122851812046708    9.9655614527968712
   Al   N    Li   V 
    10    16     3     3
Direct
  0.1717522451357678  0.3317899339286900 -0.0058289332445614
  0.6591215435518856  0.3309931050170250 -0.0044058154512066
  0.1725043772955110  0.8408430177704290  0.0054583907784747
  0.6569731129286834  0.3321612234037266  0.4998097713006063
  0.1638918846053457  0.8476682471878926  0.4959554676611018
  0.6781595682943211  0.8373691826369692  0.4940693676172473
  0.3438192284439259  0.1735717138444820  0.7466039768873161
  0.8284328557479431  0.6561108232260537  0.7439227962964440
  0.3270816188726532  0.1577986551441625  0.2546594007970899
  0.8467830199317360  0.6682921366857008  0.2486703202011843
  0.1504416953680858  0.3087638409402183  0.1889229434969715
  0.6668091874373914  0.3370523231553060  0.1872891770237400
  0.1625571007445019  0.8411054164796707  0.1898243695608957
  0.6839528333565766  0.8348279449009214  0.1842159551610193
  0.1901564427653636  0.3533247484640591  0.7131619315459091
  0.6636035859772507  0.3373666138991467  0.6871744132095876
  0.1590719629040364  0.8403041850405828  0.6933481721217716
  0.6695478049296556  0.8187057916720303  0.6869782608806217
  0.3340004200403170  0.1666701614932423  0.9406082363201808
  0.8253646283665400  0.1593557575985352  0.9608944550460474
  0.3456291648192419  0.6762555389989612  0.9582618243804949
  0.8326748358616151  0.6679079634093895  0.9416139977466577
  0.3407809999154545  0.1630892464799137  0.4382267748132471
  0.8097346786856879  0.1544655583591426  0.4180991247079219
  0.3365668781804688  0.6806037867132660  0.4873685176930955
  0.8332079373257903  0.6673212224640507  0.4374032803026807
  0.1602115069918567  0.3206915894769545  0.4929441492274285
  0.8310766058417293  0.1699502212681465  0.7431318875687866
  0.3211500064706048  0.6622144184619503  0.2593864481762528
  0.6664631211929608  0.8344289261534514 -0.0039679909430733
  0.3358025371907951  0.6633690632754645  0.6779624579683740
  0.8326766108263053  0.1656276424504632  0.2382368711476927
 
  0.00000000E+00  0.00000000E+00  0.00000000E+00
  0.00000000E+00  0.00000000E+00  0.00000000E+00
  0.00000000E+00  0.00000000E+00  0.00000000E+00
  0.00000000E+00  0.00000000E+00  0.00000000E+00
  0.00000000E+00  0.00000000E+00  0.00000000E+00
  0.00000000E+00  0.00000000E+00  0.00000000E+00
  0.00000000E+00  0.00000000E+00  0.00000000E+00
  0.00000000E+00  0.00000000E+00  0.00000000E+00
  0.00000000E+00  0.00000000E+00  0.00000000E+00
  0.00000000E+00  0.00000000E+00  0.00000000E+00
  0.00000000E+00  0.00000000E+00  0.00000000E+00
  0.00000000E+00  0.00000000E+00  0.00000000E+00
  0.00000000E+00  0.00000000E+00  0.00000000E+00
  0.00000000E+00  0.00000000E+00  0.00000000E+00
  0.00000000E+00  0.00000000E+00  0.00000000E+00
  0.00000000E+00  0.00000000E+00  0.00000000E+00
  0.00000000E+00  0.00000000E+00  0.00000000E+00
  0.00000000E+00  0.00000000E+00  0.00000000E+00
  0.00000000E+00  0.00000000E+00  0.00000000E+00
  0.00000000E+00  0.00000000E+00  0.00000000E+00
  0.00000000E+00  0.00000000E+00  0.00000000E+00
  0.00000000E+00  0.00000000E+00  0.00000000E+00
  0.00000000E+00  0.00000000E+00  0.00000000E+00
  0.00000000E+00  0.00000000E+00  0.00000000E+00
  0.00000000E+00  0.00000000E+00  0.00000000E+00
  0.00000000E+00  0.00000000E+00  0.00000000E+00
  0.00000000E+00  0.00000000E+00  0.00000000E+00
  0.00000000E+00  0.00000000E+00  0.00000000E+00
  0.00000000E+00  0.00000000E+00  0.00000000E+00
  0.00000000E+00  0.00000000E+00  0.00000000E+00
  0.00000000E+00  0.00000000E+00  0.00000000E+00
  0.00000000E+00  0.00000000E+00  0.00000000E+00
