POSCAR
1.0000000000
  6.3882684914159871  0.00000000000000000000  0.0000000000000000
 -3.1941342457079936  5.53240279976193695946  0.0000000000000000
  0.0000000000000000  0.00000000000000000000  9.9666056982734919
  Al  N   Li  V
  10  16  3   3 
Direct
  0.16666650  0.33333350  0.00000000
  0.66666650  0.33333350  0.00000000
  0.16666650  0.83333350  0.00000000
  0.66666650  0.33333350  0.50000000
  0.16666650  0.83333350  0.50000000
  0.66666650  0.83333350  0.50000000
  0.33333350  0.16666650  0.75000000
  0.83333350  0.66666650  0.75000000
  0.33333350  0.16666650  0.25000000
  0.83333350  0.66666650  0.25000000
  0.16666650  0.33333350  0.18750000
  0.66666650  0.33333350  0.18750000
  0.16666650  0.83333350  0.18750000
  0.66666650  0.83333350  0.18750000
  0.16666650  0.33333350  0.68750000
  0.66666650  0.33333350  0.68750000
  0.16666650  0.83333350  0.68750000
  0.66666650  0.83333350  0.68750000
  0.33333350  0.16666650  0.93750000
  0.83333350  0.16666650  0.93750000
  0.33333350  0.66666650  0.93750000
  0.83333350  0.66666650  0.93750000
  0.33333350  0.16666650  0.43750000
  0.83333350  0.16666650  0.43750000
  0.33333350  0.66666650  0.43750000
  0.83333350  0.66666650  0.43750000
  0.16666650  0.33333350  0.50000000
  0.83333350  0.16666650  0.75000000
  0.33333350  0.66666650  0.25000000
  0.66666650  0.83333350  0.00000000
  0.33333350  0.66666650  0.75000000
  0.83333350  0.16666650  0.25000000
