Ta N Co                                 
   1.00000000000000     
    18.1096308199999996    0.0000000000000000    0.0000000000000000
     0.0000000000000000   11.6775998899999998    0.0000000000000000
     0.0000000000000000    0.0000000000000000   23.4818170799999990
   Ta   N    Co
   119   120     1
Direct
 -0.0000000000000000 -0.0000000000000000  0.2547778629000746
  0.3334894153355719  0.1249456426941674  0.2637833069316792
  0.1665621236752479  0.1249849967693353  0.2638168825941655
  0.2499618080966533  0.2500004780266455  0.3614847478672807
  0.0825189894250574  0.1250074986991889  0.3684425116871451
  0.4175090392486064  0.1249127660780288  0.3684246259178016
 -0.0000000000000000  0.2499964934571583  0.4798347325294243
  0.3324726533543750  0.1249510136543346  0.4782708062991740
  0.1677087341897450  0.1249939929095165  0.4781658522617606
  0.2504777972877585  0.2503356053690950  0.5912303684204929
  0.0838568311218417  0.1250740069897688  0.5898463722567520
  0.4166230105438832  0.1252563760264091  0.5902908740559725
 -0.0000000000000000  0.2501842073093282  0.7022582354281574
  0.3355447188750049  0.1248834795556016  0.7045739872740531
  0.1650820091159942  0.1250983172071381  0.7043343061658700
 -0.0000000000000000  0.2499436978360878  0.2548094402441703
  0.3333942317507320  0.3749397744265073  0.2637765059411208
  0.1667150027443067  0.3750800580874572  0.2637943320157512
  0.2498216220986502  0.5000000004281731  0.3614112282570558
  0.0824031492861324  0.3750160645809547  0.3683726608165914
  0.4175272445579822  0.3749340479603785  0.3682829771124947
 -0.0000000000000000  0.5000000004281731  0.4799852089182939
  0.3322022263590916  0.3748481092062373  0.4778665903489844
  0.1678408708454824  0.3749107117390122  0.4780482313051678
  0.2503656837400166  0.5000000004281731  0.5909764095028203
  0.0839479321162148  0.3749784856563237  0.5899789908148941
  0.4164121808708979  0.3758294339417346  0.5886944794605968
 -0.0000000000000000  0.5000000004281731  0.7024305524484796
  0.3368154265061222  0.3761337026932084  0.7037694777987608
  0.1654545129439620  0.3748562822212098  0.7043688584782050
 -0.0000000000000000  0.5000000004281731  0.2547920007421217
  0.3333942317507320  0.6250602255734927  0.2637765059411208
  0.1667150027443067  0.6249199419125427  0.2637943320157512
  0.2499618080966533  0.7499995219733544  0.3614847478672807
  0.0824031492861324  0.6249839354190455  0.3683726608165914
  0.4175272445579822  0.6250659520396212  0.3682829771124947
 -0.0000000000000000  0.7500035065428421  0.4798347325294243
  0.3322022263590916  0.6251518907937627  0.4778665903489844
  0.1678408708454824  0.6250892882609881  0.4780482313051678
  0.2504777972877585  0.7496643946309052  0.5912303684204929
  0.0839479321162148  0.6250215143436766  0.5899789908148941
  0.4164121808708979  0.6241705660582653  0.5886944794605968
 -0.0000000000000000  0.7498157926906719  0.7022582354281574
  0.3368154265061222  0.6238662973067918  0.7037694777987608
  0.1654545129439620  0.6251437177787899  0.7043688584782050
 -0.0000000000000000  0.7500563021639123  0.2548094402441703
  0.3334894153355719  0.8750543581621787  0.2637833069316792
  0.1665621236752479  0.8750150040870108  0.2638168825941655
  0.2501070026314013 -0.0000000000000000  0.3615036814750963
  0.0825189894250574  0.8749925021571572  0.3684425116871451
  0.4175090392486064  0.8750872347783171  0.3684246259178016
 -0.0000000000000000 -0.0000000000000000  0.4798039391219919
  0.3324726533543750  0.8750489872020115  0.4782708062991740
  0.1677087341897450  0.8750060079468297  0.4781658522617606
  0.2501784125589052 -0.0000000000000000  0.5912632667722858
  0.0838568311218417  0.8749259938665774  0.5898463722567520
  0.4166230105438832  0.8747436248299369  0.5902908740559725
 -0.0000000000000000 -0.0000000000000000  0.7022109860131567
  0.3355447188750049  0.8751165213007445  0.7045739872740531
  0.1650820091159942  0.8749016836492081  0.7043343061658700
  0.5000000000000000 -0.0000000000000000  0.2547432260028071
  0.8334378470585554  0.1249849967693353  0.2638168825941655
  0.6665105553982317  0.1249456426941674  0.2637833069316792
  0.7500381913511553  0.2500004780266455  0.3614847478672807
  0.5824909607513937  0.1249127660780288  0.3684246259178016
  0.9174810105749426  0.1250074986991889  0.3684425116871451
  0.5000000000000000  0.2497156774604073  0.4796281054617680
  0.8322912365440582  0.1249939929095165  0.4781658522617606
  0.6675273173794286  0.1249510136543346  0.4782708062991740
  0.7495222021600505  0.2503356053690950  0.5912303684204929
  0.5833769889039256  0.1252563760264091  0.5902908740559725
  0.9161431683259671  0.1250740069897688  0.5898463722567520
  0.5000000000000000  0.2562848890340342  0.7032967040211893
  0.8349179610656182  0.1250983172071381  0.7043343061658700
  0.6644552518587988  0.1248834795556016  0.7045739872740531
  0.5000000000000000  0.2499272472219642  0.2547035569958446
  0.8332849679894966  0.3750800580874572  0.2637943320157512
  0.6666057389830713  0.3749397744265073  0.2637765059411208
  0.7501783773491587  0.5000000004281731  0.3614112282570558
  0.5824727554420182  0.3749340479603785  0.3682829771124947
  0.9175968507138677  0.3750160645809547  0.3683726608165914
  0.5000000000000000  0.5000000004281731  0.4793040248723593
  0.8321590998883208  0.3749107117390122  0.4780482313051678
  0.6677977443747118  0.3748481092062373  0.4778665903489844
  0.7496343157077924  0.5000000004281731  0.5909764095028203
  0.5835878185769109  0.3758294339417346  0.5886944794605968
  0.9160520673315942  0.3749784856563237  0.5899789908148941
  0.8345454572376499  0.3748562822212098  0.7043688584782050
  0.6631845442276809  0.3761337026932084  0.7037694777987608
  0.5000000000000000  0.5000000004281731  0.2546631503457988
  0.8332849679894966  0.6249199419125427  0.2637943320157512
  0.6666057389830713  0.6250602255734927  0.2637765059411208
  0.7500381913511553  0.7499995219733544  0.3614847478672807
  0.5824727554420182  0.6250659520396212  0.3682829771124947
  0.9175968507138677  0.6249839354190455  0.3683726608165914
  0.5000000000000000  0.7502843225395930  0.4796281054617680
  0.8321590998883208  0.6250892882609881  0.4780482313051678
  0.6677977443747118  0.6251518907937627  0.4778665903489844
  0.7495222021600505  0.7496643946309052  0.5912303684204929
  0.5835878185769109  0.6241705660582653  0.5886944794605968
  0.9160520673315942  0.6250215143436766  0.5899789908148941
  0.5000000000000000  0.7437151109659657  0.7032967040211893
  0.8345454572376499  0.6251437177787899  0.7043688584782050
  0.6631845442276809  0.6238662973067918  0.7037694777987608
  0.5000000000000000  0.7500727527780358  0.2547035569958446
  0.8334378470585554  0.8750150040870108  0.2638168825941655
  0.6665105553982317  0.8750543581621787  0.2637833069316792
  0.7498929968164070 -0.0000000000000000  0.3615036814750963
  0.5824909607513937  0.8750872347783171  0.3684246259178016
  0.9174810105749426  0.8749925021571572  0.3684425116871451
  0.5000000000000000 -0.0000000000000000  0.4799537833793249
  0.8322912365440582  0.8750060079468297  0.4781658522617606
  0.6675273173794286  0.8750489872020115  0.4782708062991740
  0.7498215868889035 -0.0000000000000000  0.5912632667722858
  0.5833769889039256  0.8747436248299369  0.5902908740559725
  0.9161431683259671  0.8749259938665774  0.5898463722567520
  0.5000000000000000 -0.0000000000000000  0.7032374788584603
  0.8349179610656182  0.8749016836492081  0.7043343061658700
  0.6644552518587988  0.8751165213007445  0.7045739872740531
  0.4068852102659230 -0.0000000000000000  0.3012178397518315
  0.2499778530149054 -0.0000000000000000  0.2575378256795094
  0.0931604357777552 -0.0000000000000000  0.3011805659593646
  0.1543733866879365  0.2500013491133529  0.4100035268616539
 -0.0000000000000000  0.2499817970255752  0.3931324873837294
  0.3456733449212648  0.2498593012329194  0.4099397112995301
  0.4011923051887550  0.2497910488420797  0.5221228312072371
  0.2500425444304809  0.2497448757400953  0.5030590151105596
  0.0989410035968531  0.2501189533873873  0.5220830161817798
  0.1520317652583932  0.2499071205286914  0.6332114645908620
 -0.0000000000000000  0.2500726384392312  0.6136872183807399
  0.3491152750461665  0.2506840613608839  0.6334537519321625
  0.4036469033023050  0.2517166343147691  0.7408232810878042
  0.2503275680084656  0.2497895726893513  0.7240391188100788
  0.0970886076282708  0.2504703267039341  0.7402587134536447
  0.4068665190556999  0.2498683859684023  0.3011397121359468
  0.2500208884796602  0.2499160054700621  0.2575041078125591
  0.0931803854204587  0.2500514225143615  0.3011631887224415
  0.1542856733893181  0.5000000004281731  0.4099501571121906
 -0.0000000000000000  0.5000000004281731  0.3931939778981733
  0.3456136011936732  0.5000000004281731  0.4097357450343638
  0.4008809677988022  0.5000000004281731  0.5213140695300292
  0.2499035710983827  0.5000000004281731  0.5027540891152812
  0.0989370354457306  0.5000000004281731  0.5221280632697797
  0.1522445659673310  0.5000000004281731  0.6334075997052858
 -0.0000000000000000  0.5000000004281731  0.6138798128199563
  0.3489863323526827  0.5000000004281731  0.6322056131254662
  0.4083715610600624  0.5000000004281731  0.7336879053815595
  0.2519455935504684  0.5000000004281731  0.7242231357084772
  0.0973858683580803  0.5000000004281731  0.7403352692742325
  0.4068420337791908  0.5000000004281731  0.3010564684605191
  0.2501244724233263  0.5000000004281731  0.2573282562050027
  0.0931249267527781  0.5000000004281731  0.3011480220761917
  0.1543733866879365  0.7499986508866473  0.4100035268616539
 -0.0000000000000000  0.7500182029744248  0.3931324873837294
  0.3456733449212648  0.7501406987670808  0.4099397112995301
  0.4011923051887550  0.7502089511579203  0.5221228312072371
  0.2500425444304809  0.7502551242599046  0.5030590151105596
  0.0989410035968531  0.7498810466126130  0.5220830161817798
  0.1520317652583932  0.7500928794713085  0.6332114645908620
 -0.0000000000000000  0.7499273615607686  0.6136872183807399
  0.3491152750461665  0.7493159386391164  0.6334537519321625
  0.4036469033023050  0.7482833656852307  0.7408232810878042
  0.2503275680084656  0.7502104273106486  0.7240391188100788
  0.0970886076282708  0.7495296732960659  0.7402587134536447
  0.4068665190556999  0.7501316140315977  0.3011397121359468
  0.2500208884796602  0.7500839945299382  0.2575041078125591
  0.0931803854204587  0.7499485774856383  0.3011631887224415
  0.1545112575379988 -0.0000000000000000  0.4099816647900719
 -0.0000000000000000 -0.0000000000000000  0.3931183491571580
  0.3456907680580846 -0.0000000000000000  0.4100684439564560
  0.4011729861861774 -0.0000000000000000  0.5223396610059189
  0.2501324177472561 -0.0000000000000000  0.5030545218660062
  0.0990030301570201 -0.0000000000000000  0.5220640148086884
  0.1519993930855260 -0.0000000000000000  0.6331590369485230
 -0.0000000000000000 -0.0000000000000000  0.6135364938217479
  0.3484737758064797 -0.0000000000000000  0.6336886306398507
  0.4031434404813670 -0.0000000000000000  0.7411388088993204
  0.2504100966554688 -0.0000000000000000  0.7238859324568270
  0.0969276311840521 -0.0000000000000000  0.7402944974812359
  0.9068395642222448 -0.0000000000000000  0.3011805659593646
  0.7500221464329034 -0.0000000000000000  0.2575378256795094
  0.5931147897340768 -0.0000000000000000  0.3012178397518315
  0.6543266550787350  0.2498593012329194  0.4099397112995301
  0.5000000000000000  0.2498605191694939  0.3929782867336617
  0.8456266133120632  0.2500013491133529  0.4100035268616539
  0.9010589964031469  0.2501189533873873  0.5220830161817798
  0.7499574550173277  0.2497448757400953  0.5030590151105596
  0.5988076942590468  0.2497910488420797  0.5221228312072371
  0.6508847249538338  0.2506840613608839  0.6334537519321625
  0.5000000000000000  0.2521698417744941  0.6147133855181078
  0.8479682347416069  0.2499071205286914  0.6332114645908620
  0.9029113923717292  0.2504703267039341  0.7402587134536447
  0.7496724314393433  0.2497895726893513  0.7240391188100788
  0.5963530966976947  0.2517166343147691  0.7408232810878042
  0.9068196145795412  0.2500514225143615  0.3011631887224415
  0.7499791109681486  0.2499160054700621  0.2575041078125591
  0.5931334809443002  0.2498683859684023  0.3011397121359468
  0.6543863988063269  0.5000000004281731  0.4097357450343638
  0.5000000000000000  0.5000000004281731  0.3927824063576675
  0.8457143266106816  0.5000000004281731  0.4099501571121906
  0.9010629645542697  0.5000000004281731  0.5221280632697797
  0.7500964283494260  0.5000000004281731  0.5027540891152812
  0.5991190316489994  0.5000000004281731  0.5213140695300292
  0.6510136676473172  0.5000000004281731  0.6322056131254662
  0.5000000000000000  0.5000000004281731  0.6132231892443227
  0.8477554340326691  0.5000000004281731  0.6334075997052858
  0.9026141316419198  0.5000000004281731  0.7403352692742325
  0.7480544058973405  0.5000000004281731  0.7242231357084772
  0.5916284389399378  0.5000000004281731  0.7336879053815595
  0.9068750732472217  0.5000000004281731  0.3011480220761917
  0.7498755270244829  0.5000000004281731  0.2573282562050027
  0.5931579662208091  0.5000000004281731  0.3010564684605191
  0.6543266550787350  0.7501406987670808  0.4099397112995301
  0.5000000000000000  0.7501394808305063  0.3929782867336617
  0.8456266133120632  0.7499986508866473  0.4100035268616539
  0.9010589964031469  0.7498810466126130  0.5220830161817798
  0.7499574550173277  0.7502551242599046  0.5030590151105596
  0.5988076942590468  0.7502089511579203  0.5221228312072371
  0.6508847249538338  0.7493159386391164  0.6334537519321625
  0.5000000000000000  0.7478301582255058  0.6147133855181078
  0.8479682347416069  0.7500928794713085  0.6332114645908620
  0.9029113923717292  0.7495296732960659  0.7402587134536447
  0.7496724314393433  0.7502104273106486  0.7240391188100788
  0.5963530966976947  0.7482833656852307  0.7408232810878042
  0.9068196145795412  0.7499485774856383  0.3011631887224415
  0.7499791109681486  0.7500839945299382  0.2575041078125591
  0.5931334809443002  0.7501316140315977  0.3011397121359468
  0.6543092319419155 -0.0000000000000000  0.4100684439564560
  0.5000000000000000 -0.0000000000000000  0.3931883940052653
  0.8454887424620013 -0.0000000000000000  0.4099816647900719
  0.9009969698429801 -0.0000000000000000  0.5220640148086884
  0.7498675817005529 -0.0000000000000000  0.5030545218660062
  0.5988270132616241 -0.0000000000000000  0.5223396610059189
  0.6515262241935201 -0.0000000000000000  0.6336886306398507
  0.5000000000000000 -0.0000000000000000  0.6142174587795601
  0.8480006069144740 -0.0000000000000000  0.6331590369485230
  0.9030723688159479 -0.0000000000000000  0.7402944974812359
  0.7495899027923402 -0.0000000000000000  0.7238859324568270
  0.5968565595186328 -0.0000000000000000  0.7411388088993204
  0.5000000000000000  0.5000000004281731  0.6954370566188979
 
  0.00000000E+00  0.00000000E+00  0.00000000E+00
  0.00000000E+00  0.00000000E+00  0.00000000E+00
  0.00000000E+00  0.00000000E+00  0.00000000E+00
  0.00000000E+00  0.00000000E+00  0.00000000E+00
  0.00000000E+00  0.00000000E+00  0.00000000E+00
  0.00000000E+00  0.00000000E+00  0.00000000E+00
  0.00000000E+00  0.00000000E+00  0.00000000E+00
  0.00000000E+00  0.00000000E+00  0.00000000E+00
  0.00000000E+00  0.00000000E+00  0.00000000E+00
  0.00000000E+00  0.00000000E+00  0.00000000E+00
  0.00000000E+00  0.00000000E+00  0.00000000E+00
  0.00000000E+00  0.00000000E+00  0.00000000E+00
  0.00000000E+00  0.00000000E+00  0.00000000E+00
  0.00000000E+00  0.00000000E+00  0.00000000E+00
  0.00000000E+00  0.00000000E+00  0.00000000E+00
  0.00000000E+00  0.00000000E+00  0.00000000E+00
  0.00000000E+00  0.00000000E+00  0.00000000E+00
  0.00000000E+00  0.00000000E+00  0.00000000E+00
  0.00000000E+00  0.00000000E+00  0.00000000E+00
  0.00000000E+00  0.00000000E+00  0.00000000E+00
  0.00000000E+00  0.00000000E+00  0.00000000E+00
  0.00000000E+00  0.00000000E+00  0.00000000E+00
  0.00000000E+00  0.00000000E+00  0.00000000E+00
  0.00000000E+00  0.00000000E+00  0.00000000E+00
  0.00000000E+00  0.00000000E+00  0.00000000E+00
  0.00000000E+00  0.00000000E+00  0.00000000E+00
  0.00000000E+00  0.00000000E+00  0.00000000E+00
  0.00000000E+00  0.00000000E+00  0.00000000E+00
  0.00000000E+00  0.00000000E+00  0.00000000E+00
  0.00000000E+00  0.00000000E+00  0.00000000E+00
  0.00000000E+00  0.00000000E+00  0.00000000E+00
  0.00000000E+00  0.00000000E+00  0.00000000E+00
  0.00000000E+00  0.00000000E+00  0.00000000E+00
  0.00000000E+00  0.00000000E+00  0.00000000E+00
  0.00000000E+00  0.00000000E+00  0.00000000E+00
  0.00000000E+00  0.00000000E+00  0.00000000E+00
  0.00000000E+00  0.00000000E+00  0.00000000E+00
  0.00000000E+00  0.00000000E+00  0.00000000E+00
  0.00000000E+00  0.00000000E+00  0.00000000E+00
  0.00000000E+00  0.00000000E+00  0.00000000E+00
  0.00000000E+00  0.00000000E+00  0.00000000E+00
  0.00000000E+00  0.00000000E+00  0.00000000E+00
  0.00000000E+00  0.00000000E+00  0.00000000E+00
  0.00000000E+00  0.00000000E+00  0.00000000E+00
  0.00000000E+00  0.00000000E+00  0.00000000E+00
  0.00000000E+00  0.00000000E+00  0.00000000E+00
  0.00000000E+00  0.00000000E+00  0.00000000E+00
  0.00000000E+00  0.00000000E+00  0.00000000E+00
  0.00000000E+00  0.00000000E+00  0.00000000E+00
  0.00000000E+00  0.00000000E+00  0.00000000E+00
  0.00000000E+00  0.00000000E+00  0.00000000E+00
  0.00000000E+00  0.00000000E+00  0.00000000E+00
  0.00000000E+00  0.00000000E+00  0.00000000E+00
  0.00000000E+00  0.00000000E+00  0.00000000E+00
  0.00000000E+00  0.00000000E+00  0.00000000E+00
  0.00000000E+00  0.00000000E+00  0.00000000E+00
  0.00000000E+00  0.00000000E+00  0.00000000E+00
  0.00000000E+00  0.00000000E+00  0.00000000E+00
  0.00000000E+00  0.00000000E+00  0.00000000E+00
  0.00000000E+00  0.00000000E+00  0.00000000E+00
  0.00000000E+00  0.00000000E+00  0.00000000E+00
  0.00000000E+00  0.00000000E+00  0.00000000E+00
  0.00000000E+00  0.00000000E+00  0.00000000E+00
  0.00000000E+00  0.00000000E+00  0.00000000E+00
  0.00000000E+00  0.00000000E+00  0.00000000E+00
  0.00000000E+00  0.00000000E+00  0.00000000E+00
  0.00000000E+00  0.00000000E+00  0.00000000E+00
  0.00000000E+00  0.00000000E+00  0.00000000E+00
  0.00000000E+00  0.00000000E+00  0.00000000E+00
  0.00000000E+00  0.00000000E+00  0.00000000E+00
  0.00000000E+00  0.00000000E+00  0.00000000E+00
  0.00000000E+00  0.00000000E+00  0.00000000E+00
  0.00000000E+00  0.00000000E+00  0.00000000E+00
  0.00000000E+00  0.00000000E+00  0.00000000E+00
  0.00000000E+00  0.00000000E+00  0.00000000E+00
  0.00000000E+00  0.00000000E+00  0.00000000E+00
  0.00000000E+00  0.00000000E+00  0.00000000E+00
  0.00000000E+00  0.00000000E+00  0.00000000E+00
  0.00000000E+00  0.00000000E+00  0.00000000E+00
  0.00000000E+00  0.00000000E+00  0.00000000E+00
  0.00000000E+00  0.00000000E+00  0.00000000E+00
  0.00000000E+00  0.00000000E+00  0.00000000E+00
  0.00000000E+00  0.00000000E+00  0.00000000E+00
  0.00000000E+00  0.00000000E+00  0.00000000E+00
  0.00000000E+00  0.00000000E+00  0.00000000E+00
  0.00000000E+00  0.00000000E+00  0.00000000E+00
  0.00000000E+00  0.00000000E+00  0.00000000E+00
  0.00000000E+00  0.00000000E+00  0.00000000E+00
  0.00000000E+00  0.00000000E+00  0.00000000E+00
  0.00000000E+00  0.00000000E+00  0.00000000E+00
  0.00000000E+00  0.00000000E+00  0.00000000E+00
  0.00000000E+00  0.00000000E+00  0.00000000E+00
  0.00000000E+00  0.00000000E+00  0.00000000E+00
  0.00000000E+00  0.00000000E+00  0.00000000E+00
  0.00000000E+00  0.00000000E+00  0.00000000E+00
  0.00000000E+00  0.00000000E+00  0.00000000E+00
  0.00000000E+00  0.00000000E+00  0.00000000E+00
  0.00000000E+00  0.00000000E+00  0.00000000E+00
  0.00000000E+00  0.00000000E+00  0.00000000E+00
  0.00000000E+00  0.00000000E+00  0.00000000E+00
  0.00000000E+00  0.00000000E+00  0.00000000E+00
  0.00000000E+00  0.00000000E+00  0.00000000E+00
  0.00000000E+00  0.00000000E+00  0.00000000E+00
  0.00000000E+00  0.00000000E+00  0.00000000E+00
  0.00000000E+00  0.00000000E+00  0.00000000E+00
  0.00000000E+00  0.00000000E+00  0.00000000E+00
  0.00000000E+00  0.00000000E+00  0.00000000E+00
  0.00000000E+00  0.00000000E+00  0.00000000E+00
  0.00000000E+00  0.00000000E+00  0.00000000E+00
  0.00000000E+00  0.00000000E+00  0.00000000E+00
  0.00000000E+00  0.00000000E+00  0.00000000E+00
  0.00000000E+00  0.00000000E+00  0.00000000E+00
  0.00000000E+00  0.00000000E+00  0.00000000E+00
  0.00000000E+00  0.00000000E+00  0.00000000E+00
  0.00000000E+00  0.00000000E+00  0.00000000E+00
  0.00000000E+00  0.00000000E+00  0.00000000E+00
  0.00000000E+00  0.00000000E+00  0.00000000E+00
  0.00000000E+00  0.00000000E+00  0.00000000E+00
  0.00000000E+00  0.00000000E+00  0.00000000E+00
  0.00000000E+00  0.00000000E+00  0.00000000E+00
  0.00000000E+00  0.00000000E+00  0.00000000E+00
  0.00000000E+00  0.00000000E+00  0.00000000E+00
  0.00000000E+00  0.00000000E+00  0.00000000E+00
  0.00000000E+00  0.00000000E+00  0.00000000E+00
  0.00000000E+00  0.00000000E+00  0.00000000E+00
  0.00000000E+00  0.00000000E+00  0.00000000E+00
  0.00000000E+00  0.00000000E+00  0.00000000E+00
  0.00000000E+00  0.00000000E+00  0.00000000E+00
  0.00000000E+00  0.00000000E+00  0.00000000E+00
  0.00000000E+00  0.00000000E+00  0.00000000E+00
  0.00000000E+00  0.00000000E+00  0.00000000E+00
  0.00000000E+00  0.00000000E+00  0.00000000E+00
  0.00000000E+00  0.00000000E+00  0.00000000E+00
  0.00000000E+00  0.00000000E+00  0.00000000E+00
  0.00000000E+00  0.00000000E+00  0.00000000E+00
  0.00000000E+00  0.00000000E+00  0.00000000E+00
  0.00000000E+00  0.00000000E+00  0.00000000E+00
  0.00000000E+00  0.00000000E+00  0.00000000E+00
  0.00000000E+00  0.00000000E+00  0.00000000E+00
  0.00000000E+00  0.00000000E+00  0.00000000E+00
  0.00000000E+00  0.00000000E+00  0.00000000E+00
  0.00000000E+00  0.00000000E+00  0.00000000E+00
  0.00000000E+00  0.00000000E+00  0.00000000E+00
  0.00000000E+00  0.00000000E+00  0.00000000E+00
  0.00000000E+00  0.00000000E+00  0.00000000E+00
  0.00000000E+00  0.00000000E+00  0.00000000E+00
  0.00000000E+00  0.00000000E+00  0.00000000E+00
  0.00000000E+00  0.00000000E+00  0.00000000E+00
  0.00000000E+00  0.00000000E+00  0.00000000E+00
  0.00000000E+00  0.00000000E+00  0.00000000E+00
  0.00000000E+00  0.00000000E+00  0.00000000E+00
  0.00000000E+00  0.00000000E+00  0.00000000E+00
  0.00000000E+00  0.00000000E+00  0.00000000E+00
  0.00000000E+00  0.00000000E+00  0.00000000E+00
  0.00000000E+00  0.00000000E+00  0.00000000E+00
  0.00000000E+00  0.00000000E+00  0.00000000E+00
  0.00000000E+00  0.00000000E+00  0.00000000E+00
  0.00000000E+00  0.00000000E+00  0.00000000E+00
  0.00000000E+00  0.00000000E+00  0.00000000E+00
  0.00000000E+00  0.00000000E+00  0.00000000E+00
  0.00000000E+00  0.00000000E+00  0.00000000E+00
  0.00000000E+00  0.00000000E+00  0.00000000E+00
  0.00000000E+00  0.00000000E+00  0.00000000E+00
  0.00000000E+00  0.00000000E+00  0.00000000E+00
  0.00000000E+00  0.00000000E+00  0.00000000E+00
  0.00000000E+00  0.00000000E+00  0.00000000E+00
  0.00000000E+00  0.00000000E+00  0.00000000E+00
  0.00000000E+00  0.00000000E+00  0.00000000E+00
  0.00000000E+00  0.00000000E+00  0.00000000E+00
  0.00000000E+00  0.00000000E+00  0.00000000E+00
  0.00000000E+00  0.00000000E+00  0.00000000E+00
  0.00000000E+00  0.00000000E+00  0.00000000E+00
  0.00000000E+00  0.00000000E+00  0.00000000E+00
  0.00000000E+00  0.00000000E+00  0.00000000E+00
  0.00000000E+00  0.00000000E+00  0.00000000E+00
  0.00000000E+00  0.00000000E+00  0.00000000E+00
  0.00000000E+00  0.00000000E+00  0.00000000E+00
  0.00000000E+00  0.00000000E+00  0.00000000E+00
  0.00000000E+00  0.00000000E+00  0.00000000E+00
  0.00000000E+00  0.00000000E+00  0.00000000E+00
  0.00000000E+00  0.00000000E+00  0.00000000E+00
  0.00000000E+00  0.00000000E+00  0.00000000E+00
  0.00000000E+00  0.00000000E+00  0.00000000E+00
  0.00000000E+00  0.00000000E+00  0.00000000E+00
  0.00000000E+00  0.00000000E+00  0.00000000E+00
  0.00000000E+00  0.00000000E+00  0.00000000E+00
  0.00000000E+00  0.00000000E+00  0.00000000E+00
  0.00000000E+00  0.00000000E+00  0.00000000E+00
  0.00000000E+00  0.00000000E+00  0.00000000E+00
  0.00000000E+00  0.00000000E+00  0.00000000E+00
  0.00000000E+00  0.00000000E+00  0.00000000E+00
  0.00000000E+00  0.00000000E+00  0.00000000E+00
  0.00000000E+00  0.00000000E+00  0.00000000E+00
  0.00000000E+00  0.00000000E+00  0.00000000E+00
  0.00000000E+00  0.00000000E+00  0.00000000E+00
  0.00000000E+00  0.00000000E+00  0.00000000E+00
  0.00000000E+00  0.00000000E+00  0.00000000E+00
  0.00000000E+00  0.00000000E+00  0.00000000E+00
  0.00000000E+00  0.00000000E+00  0.00000000E+00
  0.00000000E+00  0.00000000E+00  0.00000000E+00
  0.00000000E+00  0.00000000E+00  0.00000000E+00
  0.00000000E+00  0.00000000E+00  0.00000000E+00
  0.00000000E+00  0.00000000E+00  0.00000000E+00
  0.00000000E+00  0.00000000E+00  0.00000000E+00
  0.00000000E+00  0.00000000E+00  0.00000000E+00
  0.00000000E+00  0.00000000E+00  0.00000000E+00
  0.00000000E+00  0.00000000E+00  0.00000000E+00
  0.00000000E+00  0.00000000E+00  0.00000000E+00
  0.00000000E+00  0.00000000E+00  0.00000000E+00
  0.00000000E+00  0.00000000E+00  0.00000000E+00
  0.00000000E+00  0.00000000E+00  0.00000000E+00
  0.00000000E+00  0.00000000E+00  0.00000000E+00
  0.00000000E+00  0.00000000E+00  0.00000000E+00
  0.00000000E+00  0.00000000E+00  0.00000000E+00
  0.00000000E+00  0.00000000E+00  0.00000000E+00
  0.00000000E+00  0.00000000E+00  0.00000000E+00
  0.00000000E+00  0.00000000E+00  0.00000000E+00
  0.00000000E+00  0.00000000E+00  0.00000000E+00
  0.00000000E+00  0.00000000E+00  0.00000000E+00
  0.00000000E+00  0.00000000E+00  0.00000000E+00
  0.00000000E+00  0.00000000E+00  0.00000000E+00
  0.00000000E+00  0.00000000E+00  0.00000000E+00
  0.00000000E+00  0.00000000E+00  0.00000000E+00
  0.00000000E+00  0.00000000E+00  0.00000000E+00
  0.00000000E+00  0.00000000E+00  0.00000000E+00
  0.00000000E+00  0.00000000E+00  0.00000000E+00
  0.00000000E+00  0.00000000E+00  0.00000000E+00
  0.00000000E+00  0.00000000E+00  0.00000000E+00
  0.00000000E+00  0.00000000E+00  0.00000000E+00
  0.00000000E+00  0.00000000E+00  0.00000000E+00
  0.00000000E+00  0.00000000E+00  0.00000000E+00
  0.00000000E+00  0.00000000E+00  0.00000000E+00
  0.00000000E+00  0.00000000E+00  0.00000000E+00
  0.00000000E+00  0.00000000E+00  0.00000000E+00
  0.00000000E+00  0.00000000E+00  0.00000000E+00
  0.00000000E+00  0.00000000E+00  0.00000000E+00
  0.00000000E+00  0.00000000E+00  0.00000000E+00
  0.00000000E+00  0.00000000E+00  0.00000000E+00
  0.00000000E+00  0.00000000E+00  0.00000000E+00
  0.00000000E+00  0.00000000E+00  0.00000000E+00
