Ta N                                    
   1.00000000000000     
    11.9754398999999996    0.0000000000000000    0.0000000000000000
    -1.7175315499999999   11.8516346499999994    0.0000000000000000
     0.0000000000000000    0.0000000000000000   22.7106327899999982
   Ta   N 
    72    72
Direct
  0.9955339587019644  0.9955339540487195  0.2712224588739893
  0.2699333485827844  0.1030132974396997  0.3100259080635193
  0.1030132717436393  0.2699333822854820  0.3100259080635193
  0.3596205863249364  0.3596206399952562  0.3447007771003806
  0.1253409742651796  0.4593656738838134  0.3919418349552850
  0.4593656603424605  0.1253409739335124  0.3919418349552850
  0.2212943316304391  0.2212943160267999  0.4358043748022862
  0.4865744039269655  0.3201194736426207  0.4784709158255100
  0.3201194860359284  0.4865744178379570  0.4784709158255100
  0.0843344198794830  0.0843344318196847  0.5209636296362352
  0.3470736300731388  0.1814085510934919  0.5641707909360891
  0.1814085491212100  0.3470736513915099  0.5641707909360891
  0.4436518277192822  0.4436518677123578  0.6076300704939473
  0.2078986064942137  0.0429577944427638  0.6507649492084659
  0.0429577777969075  0.2078986030736894  0.6507649492084659
  0.3129786508818542  0.3129786548546620  0.6949990996355072
  0.0659955121370100  0.4044058327844016  0.7283727768401801
  0.4044057883095991  0.0659955260335561  0.7283727768401801
  0.9955339590589766  0.4955339536268346  0.2712224588739893
  0.2699333482257651  0.6030132978615845  0.3100259080635193
  0.1030132722216640  0.7699333827073594  0.3100259080635193
  0.3596205866819486  0.8596206395733715  0.3447007771003806
  0.1253409746221989  0.9593656734619287  0.3919418349552850
  0.4593656608204923  0.6253409743553900  0.3919418349552850
  0.2212943319874513  0.7212943156049151  0.4358043748022862
  0.4865744034489408  0.8201194732207431  0.4784709158255100
  0.3201194855578966  0.9865744174160793  0.4784709158255100
  0.0843344195224708  0.5843344322415625  0.5209636296362352
  0.3470736304301510  0.6814085506716142  0.5641707909360891
  0.1814085494782222  0.8470736509696251  0.5641707909360891
  0.4436518281973141  0.9436518681342424  0.6076300704939473
  0.2078986060161818  0.5429577940208790  0.6507649492084659
  0.0429577773188828  0.7078986026518047  0.6507649492084659
  0.3129786513598789  0.8129786552765397  0.6949990996355072
  0.0659955124940221  0.9044058323625241  0.7283727768401801
  0.4044057887876309  0.5659955264554407  0.7283727768401801
  0.4955339587019643  0.9955339540487195  0.2712224588739893
  0.7699333485827843  0.1030132974396997  0.3100259080635193
  0.6030132717436394  0.2699333822854820  0.3100259080635193
  0.8596205863249365  0.3596206399952562  0.3447007771003806
  0.6253409742651795  0.4593656738838134  0.3919418349552850
  0.9593656603424605  0.1253409739335124  0.3919418349552850
  0.7212943316304391  0.2212943160267999  0.4358043748022862
  0.9865744030919286  0.3201194736426207  0.4784709158255100
  0.8201194860359284  0.4865744178379570  0.4784709158255100
  0.5843344198794831  0.0843344318196847  0.5209636296362352
  0.8470736300731387  0.1814085510934919  0.5641707909360891
  0.6814085491212100  0.3470736513915099  0.5641707909360891
  0.9436518277192821  0.4436518677123578  0.6076300704939473
  0.7078986056591697  0.0429577944427638  0.6507649492084659
  0.5429577777969075  0.2078986030736894  0.6507649492084659
  0.8129786508818542  0.3129786548546620  0.6949990996355072
  0.5659955121370098  0.4044058327844016  0.7283727768401801
  0.9044057883095993  0.0659955260335561  0.7283727768401801
  0.4955339590589765  0.4955339536268346  0.2712224588739893
  0.7699333482257650  0.6030132978615845  0.3100259080635193
  0.6030132722216641  0.7699333827073594  0.3100259080635193
  0.8596205866819487  0.8596206395733715  0.3447007771003806
  0.6253409746221988  0.9593656734619287  0.3919418349552850
  0.9593656608204923  0.6253409743553900  0.3919418349552850
  0.7212943319874513  0.7212943156049151  0.4358043748022862
  0.9865744034489408  0.8201194732207431  0.4784709158255100
  0.8201194855578966  0.9865744174160793  0.4784709158255100
  0.5843344195224709  0.5843344322415625  0.5209636296362352
  0.8470736295951069  0.6814085506716142  0.5641707909360891
  0.6814085494782222  0.8470736509696251  0.5641707909360891
  0.9436518273622699  0.9436518681342424  0.6076300704939473
  0.7078986060161819  0.5429577940208790  0.6507649492084659
  0.5429577773188827  0.7078986026518047  0.6507649492084659
  0.8129786513598789  0.8129786552765397  0.6949990996355072
  0.5659955124940220  0.9044058323625241  0.7283727768401801
  0.9044057887876311  0.5659955264554407  0.7283727768401801
  0.4506180773709017  0.1400782132052796  0.2976725581183837
  0.2642075833142330  0.2642075209653372  0.2836189927733221
  0.1400781798198821  0.4506180903161022  0.2976725581183837
  0.3074132852265245  0.9999309000767919  0.3839488749030724
  0.1352939988863552  0.1352940283866045  0.3689431455789302
  0.9999308780646611  0.3074132624267216  0.3839488749030724
  0.1682215915898607  0.3642397497031905  0.4692903740435263
  0.4969636484836693  0.4969636915994948  0.4538006052029155
  0.3642397625017846  0.1682215904206556  0.4692903740435263
  0.0294837667870214  0.2250440344738108  0.5550968854544629
  0.3568444645395306  0.3568444555000912  0.5398573722005754
  0.2250440452080154  0.0294837561058446  0.5550968854544629
  0.3899083482495301  0.0874290292871273  0.6394526454652065
  0.2215960744017137  0.2215960619605793  0.6282804802437244
  0.0874290042171475  0.3899083506987923  0.6394526454652065
  0.2504067461924709  0.4513120288333459  0.7298324725401014
  0.0759008784520963  0.0759009284765644  0.7093403897055840
  0.4513119838164845  0.2504067034886748  0.7298324725401014
  0.4506180777279139  0.6400782127833948  0.2976725581183837
  0.2642075828362083  0.7642075205434524  0.2836189927733221
  0.1400781801769014  0.9506180898942242  0.2976725581183837
  0.3074132857045492  0.4999309004986766  0.3839488749030724
  0.1352939993643870  0.6352940288084822  0.3689431455789302
  0.9999308775866363  0.8074132620048439  0.3839488749030724
  0.1682215912328414  0.8642397501250751  0.4692903740435263
  0.4969636488406814  0.9969636911776172  0.4538006052029155
  0.3642397621447724  0.6682215908425404  0.4692903740435263
  0.0294837664300092  0.7250440348956884  0.5550968854544629
  0.3568444648965499  0.8568444550782065  0.5398573722005754
  0.2250440448509961  0.5294837565277293  0.5550968854544629
  0.3899083477715054  0.5874290288652497  0.6394526454652065
  0.2215960747587259  0.7215960615386945  0.6282804802437244
  0.0874290038601353  0.8899083511206770  0.6394526454652065
  0.2504067466705027  0.9513120292552306  0.7298324725401014
  0.0759008780950770  0.5759009288984491  0.7093403897055840
  0.4513119834594723  0.7504067039105596  0.7298324725401014
  0.9506180773709014  0.1400782132052796  0.2976725581183837
  0.7642075824791890  0.2642075209653372  0.2836189927733221
  0.6400781798198820  0.4506180903161022  0.2976725581183837
  0.8074132852265244  0.9999309000767919  0.3839488749030724
  0.6352939988863552  0.1352940283866045  0.3689431455789302
  0.4999308780646611  0.3074132624267216  0.3839488749030724
  0.6682215915898608  0.3642397497031905  0.4692903740435263
  0.9969636484836693  0.4969636915994948  0.4538006052029155
  0.8642397625017846  0.1682215904206556  0.4692903740435263
  0.5294837667870214  0.2250440344738108  0.5550968854544629
  0.8568444645395307  0.3568444555000912  0.5398573722005754
  0.7250440443729713  0.0294837561058446  0.5550968854544629
  0.8899083474144861  0.0874290292871273  0.6394526454652065
  0.7215960744017136  0.2215960619605793  0.6282804802437244
  0.5874290042171475  0.3899083506987923  0.6394526454652065
  0.7504067461924709  0.4513120288333459  0.7298324725401014
  0.5759008776170522  0.0759009284765644  0.7093403897055840
  0.9513119838164845  0.2504067034886748  0.7298324725401014
  0.9506180777279136  0.6400782127833948  0.2976725581183837
  0.7642075828362083  0.7642075205434524  0.2836189927733221
  0.6400781801769013  0.9506180898942242  0.2976725581183837
  0.8074132857045492  0.4999309004986766  0.3839488749030724
  0.6352939993643870  0.6352940288084822  0.3689431455789302
  0.4999308775866363  0.8074132620048439  0.3839488749030724
  0.6682215912328415  0.8642397501250751  0.4692903740435263
  0.9969636488406814  0.9969636911776172  0.4538006052029155
  0.8642397621447724  0.6682215908425404  0.4692903740435263
  0.5294837664300092  0.7250440348956884  0.5550968854544629
  0.8568444648965500  0.8568444550782065  0.5398573722005754
  0.7250440448509961  0.5294837565277293  0.5550968854544629
  0.8899083477715054  0.5874290288652497  0.6394526454652065
  0.7215960747587258  0.7215960615386945  0.6282804802437244
  0.5874290038601353  0.8899083511206770  0.6394526454652065
  0.7504067466705028  0.9513120292552306  0.7298324725401014
  0.5759008780950770  0.5759009288984491  0.7093403897055840
  0.9513119834594723  0.7504067039105596  0.7298324725401014
 
  0.00000000E+00  0.00000000E+00  0.00000000E+00
  0.00000000E+00  0.00000000E+00  0.00000000E+00
  0.00000000E+00  0.00000000E+00  0.00000000E+00
  0.00000000E+00  0.00000000E+00  0.00000000E+00
  0.00000000E+00  0.00000000E+00  0.00000000E+00
  0.00000000E+00  0.00000000E+00  0.00000000E+00
  0.00000000E+00  0.00000000E+00  0.00000000E+00
  0.00000000E+00  0.00000000E+00  0.00000000E+00
  0.00000000E+00  0.00000000E+00  0.00000000E+00
  0.00000000E+00  0.00000000E+00  0.00000000E+00
  0.00000000E+00  0.00000000E+00  0.00000000E+00
  0.00000000E+00  0.00000000E+00  0.00000000E+00
  0.00000000E+00  0.00000000E+00  0.00000000E+00
  0.00000000E+00  0.00000000E+00  0.00000000E+00
  0.00000000E+00  0.00000000E+00  0.00000000E+00
  0.00000000E+00  0.00000000E+00  0.00000000E+00
  0.00000000E+00  0.00000000E+00  0.00000000E+00
  0.00000000E+00  0.00000000E+00  0.00000000E+00
  0.00000000E+00  0.00000000E+00  0.00000000E+00
  0.00000000E+00  0.00000000E+00  0.00000000E+00
  0.00000000E+00  0.00000000E+00  0.00000000E+00
  0.00000000E+00  0.00000000E+00  0.00000000E+00
  0.00000000E+00  0.00000000E+00  0.00000000E+00
  0.00000000E+00  0.00000000E+00  0.00000000E+00
  0.00000000E+00  0.00000000E+00  0.00000000E+00
  0.00000000E+00  0.00000000E+00  0.00000000E+00
  0.00000000E+00  0.00000000E+00  0.00000000E+00
  0.00000000E+00  0.00000000E+00  0.00000000E+00
  0.00000000E+00  0.00000000E+00  0.00000000E+00
  0.00000000E+00  0.00000000E+00  0.00000000E+00
  0.00000000E+00  0.00000000E+00  0.00000000E+00
  0.00000000E+00  0.00000000E+00  0.00000000E+00
  0.00000000E+00  0.00000000E+00  0.00000000E+00
  0.00000000E+00  0.00000000E+00  0.00000000E+00
  0.00000000E+00  0.00000000E+00  0.00000000E+00
  0.00000000E+00  0.00000000E+00  0.00000000E+00
  0.00000000E+00  0.00000000E+00  0.00000000E+00
  0.00000000E+00  0.00000000E+00  0.00000000E+00
  0.00000000E+00  0.00000000E+00  0.00000000E+00
  0.00000000E+00  0.00000000E+00  0.00000000E+00
  0.00000000E+00  0.00000000E+00  0.00000000E+00
  0.00000000E+00  0.00000000E+00  0.00000000E+00
  0.00000000E+00  0.00000000E+00  0.00000000E+00
  0.00000000E+00  0.00000000E+00  0.00000000E+00
  0.00000000E+00  0.00000000E+00  0.00000000E+00
  0.00000000E+00  0.00000000E+00  0.00000000E+00
  0.00000000E+00  0.00000000E+00  0.00000000E+00
  0.00000000E+00  0.00000000E+00  0.00000000E+00
  0.00000000E+00  0.00000000E+00  0.00000000E+00
  0.00000000E+00  0.00000000E+00  0.00000000E+00
  0.00000000E+00  0.00000000E+00  0.00000000E+00
  0.00000000E+00  0.00000000E+00  0.00000000E+00
  0.00000000E+00  0.00000000E+00  0.00000000E+00
  0.00000000E+00  0.00000000E+00  0.00000000E+00
  0.00000000E+00  0.00000000E+00  0.00000000E+00
  0.00000000E+00  0.00000000E+00  0.00000000E+00
  0.00000000E+00  0.00000000E+00  0.00000000E+00
  0.00000000E+00  0.00000000E+00  0.00000000E+00
  0.00000000E+00  0.00000000E+00  0.00000000E+00
  0.00000000E+00  0.00000000E+00  0.00000000E+00
  0.00000000E+00  0.00000000E+00  0.00000000E+00
  0.00000000E+00  0.00000000E+00  0.00000000E+00
  0.00000000E+00  0.00000000E+00  0.00000000E+00
  0.00000000E+00  0.00000000E+00  0.00000000E+00
  0.00000000E+00  0.00000000E+00  0.00000000E+00
  0.00000000E+00  0.00000000E+00  0.00000000E+00
  0.00000000E+00  0.00000000E+00  0.00000000E+00
  0.00000000E+00  0.00000000E+00  0.00000000E+00
  0.00000000E+00  0.00000000E+00  0.00000000E+00
  0.00000000E+00  0.00000000E+00  0.00000000E+00
  0.00000000E+00  0.00000000E+00  0.00000000E+00
  0.00000000E+00  0.00000000E+00  0.00000000E+00
  0.00000000E+00  0.00000000E+00  0.00000000E+00
  0.00000000E+00  0.00000000E+00  0.00000000E+00
  0.00000000E+00  0.00000000E+00  0.00000000E+00
  0.00000000E+00  0.00000000E+00  0.00000000E+00
  0.00000000E+00  0.00000000E+00  0.00000000E+00
  0.00000000E+00  0.00000000E+00  0.00000000E+00
  0.00000000E+00  0.00000000E+00  0.00000000E+00
  0.00000000E+00  0.00000000E+00  0.00000000E+00
  0.00000000E+00  0.00000000E+00  0.00000000E+00
  0.00000000E+00  0.00000000E+00  0.00000000E+00
  0.00000000E+00  0.00000000E+00  0.00000000E+00
  0.00000000E+00  0.00000000E+00  0.00000000E+00
  0.00000000E+00  0.00000000E+00  0.00000000E+00
  0.00000000E+00  0.00000000E+00  0.00000000E+00
  0.00000000E+00  0.00000000E+00  0.00000000E+00
  0.00000000E+00  0.00000000E+00  0.00000000E+00
  0.00000000E+00  0.00000000E+00  0.00000000E+00
  0.00000000E+00  0.00000000E+00  0.00000000E+00
  0.00000000E+00  0.00000000E+00  0.00000000E+00
  0.00000000E+00  0.00000000E+00  0.00000000E+00
  0.00000000E+00  0.00000000E+00  0.00000000E+00
  0.00000000E+00  0.00000000E+00  0.00000000E+00
  0.00000000E+00  0.00000000E+00  0.00000000E+00
  0.00000000E+00  0.00000000E+00  0.00000000E+00
  0.00000000E+00  0.00000000E+00  0.00000000E+00
  0.00000000E+00  0.00000000E+00  0.00000000E+00
  0.00000000E+00  0.00000000E+00  0.00000000E+00
  0.00000000E+00  0.00000000E+00  0.00000000E+00
  0.00000000E+00  0.00000000E+00  0.00000000E+00
  0.00000000E+00  0.00000000E+00  0.00000000E+00
  0.00000000E+00  0.00000000E+00  0.00000000E+00
  0.00000000E+00  0.00000000E+00  0.00000000E+00
  0.00000000E+00  0.00000000E+00  0.00000000E+00
  0.00000000E+00  0.00000000E+00  0.00000000E+00
  0.00000000E+00  0.00000000E+00  0.00000000E+00
  0.00000000E+00  0.00000000E+00  0.00000000E+00
  0.00000000E+00  0.00000000E+00  0.00000000E+00
  0.00000000E+00  0.00000000E+00  0.00000000E+00
  0.00000000E+00  0.00000000E+00  0.00000000E+00
  0.00000000E+00  0.00000000E+00  0.00000000E+00
  0.00000000E+00  0.00000000E+00  0.00000000E+00
  0.00000000E+00  0.00000000E+00  0.00000000E+00
  0.00000000E+00  0.00000000E+00  0.00000000E+00
  0.00000000E+00  0.00000000E+00  0.00000000E+00
  0.00000000E+00  0.00000000E+00  0.00000000E+00
  0.00000000E+00  0.00000000E+00  0.00000000E+00
  0.00000000E+00  0.00000000E+00  0.00000000E+00
  0.00000000E+00  0.00000000E+00  0.00000000E+00
  0.00000000E+00  0.00000000E+00  0.00000000E+00
  0.00000000E+00  0.00000000E+00  0.00000000E+00
  0.00000000E+00  0.00000000E+00  0.00000000E+00
  0.00000000E+00  0.00000000E+00  0.00000000E+00
  0.00000000E+00  0.00000000E+00  0.00000000E+00
  0.00000000E+00  0.00000000E+00  0.00000000E+00
  0.00000000E+00  0.00000000E+00  0.00000000E+00
  0.00000000E+00  0.00000000E+00  0.00000000E+00
  0.00000000E+00  0.00000000E+00  0.00000000E+00
  0.00000000E+00  0.00000000E+00  0.00000000E+00
  0.00000000E+00  0.00000000E+00  0.00000000E+00
  0.00000000E+00  0.00000000E+00  0.00000000E+00
  0.00000000E+00  0.00000000E+00  0.00000000E+00
  0.00000000E+00  0.00000000E+00  0.00000000E+00
  0.00000000E+00  0.00000000E+00  0.00000000E+00
  0.00000000E+00  0.00000000E+00  0.00000000E+00
  0.00000000E+00  0.00000000E+00  0.00000000E+00
  0.00000000E+00  0.00000000E+00  0.00000000E+00
  0.00000000E+00  0.00000000E+00  0.00000000E+00
  0.00000000E+00  0.00000000E+00  0.00000000E+00
  0.00000000E+00  0.00000000E+00  0.00000000E+00
  0.00000000E+00  0.00000000E+00  0.00000000E+00
  0.00000000E+00  0.00000000E+00  0.00000000E+00
  0.00000000E+00  0.00000000E+00  0.00000000E+00
