Mo  S Cu                                
   1.00000000000000     
    15.9214998300000001    0.0000000000000000    0.0000000000000000
    -7.9622501300000001   13.7910221699999997    0.0000000000000000
     0.0000000000000000    0.0000000000000000   13.5821998300000004
   Mo   S    Cu
    25    50     2
Direct
  0.1319359224981156  0.0655654672918757  0.6787269370979487
  0.1323281645854379  0.2649682692564141  0.6785943150856326
  0.1327218831956856  0.4657333948360147  0.6785856176356404
  0.1328520876016555  0.6660914144561403  0.6784083453826284
  0.1325410567705276  0.8658170586887337  0.6784312662746999
  0.3327812310688643  0.0659084464903827  0.6785436685916650
  0.3321614444891168  0.2654203577737917  0.6793046717147675
  0.3332926416810125  0.4663510494279208  0.6790766170832967
  0.3328306976397428  0.6660370192322063  0.6784863191921531
  0.3326398940575075  0.8656843368228380  0.6781219412570749
  0.5327991209033627  0.0659619100639048  0.6785658000973527
  0.5320710001453079  0.2642319815684502  0.6789649869699304
  0.5323224755613367  0.4659526438092598  0.6791581362382573
  0.5327743045496192  0.6661024173766990  0.6785771815986621
  0.5328329569400054  0.8658188931757280  0.6784717422966011
  0.7332701168113473  0.0655869341528685  0.6786905616030836
  0.7331721385163021  0.2654942541347083  0.6792209256647723
  0.7333306078087602  0.4659277061509712  0.6791550768531565
  0.7327709310908546  0.6659503162141718  0.6785143189891656
  0.7327314005633241  0.8656170282259694  0.6783735951089440
  0.9325034089288664  0.0654027768745351  0.6782774808256207
  0.9324962708958893  0.2649998833791258  0.6784223927829913
  0.9328464950418649  0.4664763653939232  0.6788532151494096
  0.9329047769191803  0.6661289295695809  0.6785186965664991
  0.9324274035953835  0.8656177152458113  0.6783716235975987
  0.0658078622935037  0.1321585721865617  0.5632946707860000
  0.0651371200566828  0.1317365262872059  0.7940695347547759
  0.0659607322443847  0.3319550857883229  0.5634543792258526
  0.0660592581010917  0.3323497905736232  0.7933814924462155
  0.0659473365777004  0.5325323854998274  0.5635108613563418
  0.0667227558447223  0.5330427561175597  0.7936444656825259
  0.0659998788176992  0.7325760405439965  0.5633135364058361
  0.0661840179078510  0.7327345887030603  0.7937138617295361
  0.0658251773764604  0.9325190257319775  0.5633240447709866
  0.0653786830317955  0.9317705575201884  0.7936247838291948
  0.2660224625621552  0.1328148787566690  0.5640660131312032
  0.2641100085488048  0.1293178110645599  0.7973840207745866
  0.2664132907615908  0.3323327927617612  0.5642737335565116
  0.2646306451767089  0.3336207540814229  0.7969816697788232
  0.2663173458346719  0.5324399057888485  0.5636370056393432
  0.2659233503749263  0.5329653076556014  0.7937475545664654
  0.2660550046956160  0.7324308629036054  0.5631879895179992
  0.2661186143531467  0.7326595444827575  0.7935052750547698
  0.2659993995406680  0.9327479680092097  0.5633232731673843
  0.2659037991130688  0.9320167270631075  0.7932253936836773
  0.4657150861964823  0.1317581725720629  0.5635538685398345
  0.4656355275480593  0.1316415648550873  0.7946295829863317
  0.4653334594477485  0.3317207042022403  0.5645260853725560
  0.4681099096064472  0.3334621714831556  0.7974675218753617
  0.4661949219833872  0.5325257415479712  0.5637710271764576
  0.4663823112449990  0.5333716447784695  0.7944591043365037
  0.4661148360642144  0.7325544914717241  0.5633681287619723
  0.4661163653148250  0.7327356989139915  0.7937743901843319
  0.4663673498392740  0.9327952321635848  0.5633566473661347
  0.4657043843065907  0.9320516146764390  0.7932602182412793
  0.6664575381016959  0.1328342238572091  0.5640633080378450
  0.6649921833522754  0.1294166386670241  0.7973852903891796
  0.6662544130280139  0.3317456856049716  0.5644885385571214
  0.6653554030587188  0.3334212321877317  0.7975356175598733
  0.6657510330990064  0.5318272453914616  0.5640988930741386
  0.6664163731577304  0.5331467082132519  0.7937395309711164
  0.6659288400048311  0.7323352692639560  0.5633555044426330
  0.6660728541429961  0.7326052750924958  0.7936442505354009
  0.6662212725409091  0.9325028106519895  0.5633319581371978
  0.6659739609045729  0.9318022404379747  0.7936317257653229
  0.8659827244338558  0.1321211445029604  0.5632170147207489
  0.8662805431869884  0.1318364809080208  0.7939939414324400
  0.8658118408343540  0.3324099669314933  0.5641005968709010
  0.8691083291087054  0.3338318807995009  0.7967315448651391
  0.8659431799457096  0.5325904983802090  0.5636849317878045
  0.8667224909243743  0.5333887913903865  0.7943718907115880
  0.8659549705882199  0.7323669689138157  0.5633347858368509
  0.8661036492068064  0.7326090899037254  0.7936402756838135
  0.8659297043614842  0.9323139664425071  0.5631616609143251
  0.8659137821345340  0.9322886184699684  0.7935979555226780
  0.3324394198893117  0.2651512545446906  0.8907911687449612
  0.7333579842072382  0.2653178980721407  0.8907117284344466
 
  0.00000000E+00  0.00000000E+00  0.00000000E+00
  0.00000000E+00  0.00000000E+00  0.00000000E+00
  0.00000000E+00  0.00000000E+00  0.00000000E+00
  0.00000000E+00  0.00000000E+00  0.00000000E+00
  0.00000000E+00  0.00000000E+00  0.00000000E+00
  0.00000000E+00  0.00000000E+00  0.00000000E+00
  0.00000000E+00  0.00000000E+00  0.00000000E+00
  0.00000000E+00  0.00000000E+00  0.00000000E+00
  0.00000000E+00  0.00000000E+00  0.00000000E+00
  0.00000000E+00  0.00000000E+00  0.00000000E+00
  0.00000000E+00  0.00000000E+00  0.00000000E+00
  0.00000000E+00  0.00000000E+00  0.00000000E+00
  0.00000000E+00  0.00000000E+00  0.00000000E+00
  0.00000000E+00  0.00000000E+00  0.00000000E+00
  0.00000000E+00  0.00000000E+00  0.00000000E+00
  0.00000000E+00  0.00000000E+00  0.00000000E+00
  0.00000000E+00  0.00000000E+00  0.00000000E+00
  0.00000000E+00  0.00000000E+00  0.00000000E+00
  0.00000000E+00  0.00000000E+00  0.00000000E+00
  0.00000000E+00  0.00000000E+00  0.00000000E+00
  0.00000000E+00  0.00000000E+00  0.00000000E+00
  0.00000000E+00  0.00000000E+00  0.00000000E+00
  0.00000000E+00  0.00000000E+00  0.00000000E+00
  0.00000000E+00  0.00000000E+00  0.00000000E+00
  0.00000000E+00  0.00000000E+00  0.00000000E+00
  0.00000000E+00  0.00000000E+00  0.00000000E+00
  0.00000000E+00  0.00000000E+00  0.00000000E+00
  0.00000000E+00  0.00000000E+00  0.00000000E+00
  0.00000000E+00  0.00000000E+00  0.00000000E+00
  0.00000000E+00  0.00000000E+00  0.00000000E+00
  0.00000000E+00  0.00000000E+00  0.00000000E+00
  0.00000000E+00  0.00000000E+00  0.00000000E+00
  0.00000000E+00  0.00000000E+00  0.00000000E+00
  0.00000000E+00  0.00000000E+00  0.00000000E+00
  0.00000000E+00  0.00000000E+00  0.00000000E+00
  0.00000000E+00  0.00000000E+00  0.00000000E+00
  0.00000000E+00  0.00000000E+00  0.00000000E+00
  0.00000000E+00  0.00000000E+00  0.00000000E+00
  0.00000000E+00  0.00000000E+00  0.00000000E+00
  0.00000000E+00  0.00000000E+00  0.00000000E+00
  0.00000000E+00  0.00000000E+00  0.00000000E+00
  0.00000000E+00  0.00000000E+00  0.00000000E+00
  0.00000000E+00  0.00000000E+00  0.00000000E+00
  0.00000000E+00  0.00000000E+00  0.00000000E+00
  0.00000000E+00  0.00000000E+00  0.00000000E+00
  0.00000000E+00  0.00000000E+00  0.00000000E+00
  0.00000000E+00  0.00000000E+00  0.00000000E+00
  0.00000000E+00  0.00000000E+00  0.00000000E+00
  0.00000000E+00  0.00000000E+00  0.00000000E+00
  0.00000000E+00  0.00000000E+00  0.00000000E+00
  0.00000000E+00  0.00000000E+00  0.00000000E+00
  0.00000000E+00  0.00000000E+00  0.00000000E+00
  0.00000000E+00  0.00000000E+00  0.00000000E+00
  0.00000000E+00  0.00000000E+00  0.00000000E+00
  0.00000000E+00  0.00000000E+00  0.00000000E+00
  0.00000000E+00  0.00000000E+00  0.00000000E+00
  0.00000000E+00  0.00000000E+00  0.00000000E+00
  0.00000000E+00  0.00000000E+00  0.00000000E+00
  0.00000000E+00  0.00000000E+00  0.00000000E+00
  0.00000000E+00  0.00000000E+00  0.00000000E+00
  0.00000000E+00  0.00000000E+00  0.00000000E+00
  0.00000000E+00  0.00000000E+00  0.00000000E+00
  0.00000000E+00  0.00000000E+00  0.00000000E+00
  0.00000000E+00  0.00000000E+00  0.00000000E+00
  0.00000000E+00  0.00000000E+00  0.00000000E+00
  0.00000000E+00  0.00000000E+00  0.00000000E+00
  0.00000000E+00  0.00000000E+00  0.00000000E+00
  0.00000000E+00  0.00000000E+00  0.00000000E+00
  0.00000000E+00  0.00000000E+00  0.00000000E+00
  0.00000000E+00  0.00000000E+00  0.00000000E+00
  0.00000000E+00  0.00000000E+00  0.00000000E+00
  0.00000000E+00  0.00000000E+00  0.00000000E+00
  0.00000000E+00  0.00000000E+00  0.00000000E+00
  0.00000000E+00  0.00000000E+00  0.00000000E+00
  0.00000000E+00  0.00000000E+00  0.00000000E+00
  0.00000000E+00  0.00000000E+00  0.00000000E+00
  0.00000000E+00  0.00000000E+00  0.00000000E+00
