Ta  N Ru Cu                             
   1.00000000000000     
    18.1096308199999996    0.0000000000000000    0.0000000000000000
     0.0000000000000000   23.3551997799999995    0.0000000000000000
     0.0000000000000000    0.0000000000000000   30.4818171199999988
   Ta   N    Ru   Cu
   216   240    24    29
Selective dynamics
Direct
  0.9993395326432193  0.0006544152969781  0.1945357777279355   F   F   F
  0.3282567744801739  0.0603317468175391  0.2010627836218717   F   F   F
  0.1696570200982137  0.0603982844628845  0.2010485784319940   F   F   F
  0.2489309166380878  0.1248911175017113  0.2793129414326714   F   F   F
  0.0819163026979908  0.0631665331016933  0.2827579460262868   F   F   F
  0.4159947309185412  0.0630664269145456  0.2826770781439549   F   F   F
  0.9990159479131790  0.1253535841088009  0.3687822138603494   F   F   F
  0.3315679960393609  0.0629123284682080  0.3677298159710247   F   F   F
  0.1661304435139215  0.0629089459238159  0.3677966098892469   F   F   F
  0.2495851541605276  0.1247452827397737  0.4544062430881723   F   F   F
  0.0821702007506744  0.0624552996223642  0.4535105287712611   F   F   F
  0.4154117262120991  0.0626104684941353  0.4533359000744497   F   F   F
  0.9982586160748710  0.1260236704342148  0.1960370661786826   F   F   F
  0.3356470963111562  0.1882972118168738  0.2022927955943317   F   F   F
  0.1622805582957767  0.1884378657196848  0.2023748445086113   F   F   F
  0.2488526709789625  0.2511239062498802  0.2793474866172971   F   F   F
  0.0816006143188730  0.1879504796083538  0.2837502425117862   F   F   F
  0.4165785639135393  0.1878379136690924  0.2835085246387692   F   F   F
  0.9988297486453135  0.2505227125057772  0.3697667680252792   F   F   F
  0.3315833469873013  0.1879184524791953  0.3682353960661757   F   F   F
  0.1664470154008342  0.1879891433752476  0.3685332457634019   F   F   F
  0.2498124917601174  0.2477838363410498  0.4550772004631725   F   F   F
  0.0822931187726965  0.1871431647415349  0.4540062013205883   F   F   F
  0.4158206246636240  0.1872188224116300  0.4540567888559011   F   F   F
  0.3353679078478322  0.1845134719716768  0.5416089183596569   F   F   F
  0.0003552805721938  0.2499226748211498  0.1960146265715821   F   F   F
  0.3279541730602773  0.3161639835906414  0.2015960851614764   F   F   F
  0.1698112474277380  0.3162871253332540  0.2018631624150373   F   F   F
  0.2486556487406091  0.3752042835233667  0.2818389719411840   F   F   F
  0.0820412086125586  0.3128879679401280  0.2841669827589328   F   F   F
  0.4160183647520626  0.3127695788864742  0.2836105198704786   F   F   F
  0.9987142852203093  0.3753881826139533  0.3703855631556934   F   F   F
  0.3320791605181910  0.3129071071469980  0.3688092791759416   F   F   F
  0.1656740565183981  0.3129148998442020  0.3696667739866015   F   F   F
  0.2491575363875924  0.3744662894080335  0.4551801798881741   F   F   F
  0.0831965607126577  0.3125646994572620  0.4564327954999570   F   F   F
  0.4164126853249712  0.3125289472475643  0.4558171825945294   F   F   F
  0.9986942958564384  0.3758411010261113  0.1965015726070334   F   F   F
  0.3283206079183927  0.4348561389184553  0.2019888438986897   F   F   F
  0.1689959353903632  0.4348768195379549  0.2022618919248984   F   F   F
  0.2488817162977384  0.0008207594103453  0.2800543670475264   F   F   F
  0.0817115497664247  0.4380359019134019  0.2842315130325801   F   F   F
  0.4161824211058089  0.4380465633507882  0.2834164041464433   F   F   F
  0.9988330065803055  0.0003560235013325  0.3680942955542506   F   F   F
  0.3319687772630147  0.4378740964038954  0.3688592105823929   F   F   F
  0.1657325336906013  0.4377668825918306  0.3697355034849679   F   F   F
  0.2488288162684924  0.0001154774964647  0.4540695177558334   F   F   F
  0.0838286553209784  0.4383541179881973  0.4569317158871513   F   F   F
  0.4159644707765509  0.4378182630129501  0.4555981339737158   F   F   F
  0.3413813379990245  0.4388635976806015  0.5427229923620800   F   F   F
  0.0015736378219557  0.5000024024628544  0.1966993626526943   F   F   F
  0.3283814042985540  0.5655248991408968  0.2018218919095744   F   F   F
  0.1691920741209216  0.5655605228995384  0.2020211254387334   F   F   F
  0.2489364937810450  0.6254250504210432  0.2810058195113285   F   F   F
  0.0817343000921511  0.5625517710728829  0.2837952857582167   F   F   F
  0.4161386322507070  0.5626379189122943  0.2832869171153902   F   F   F
  0.9985401789653920  0.6257835144923760  0.3693004244361120   F   F   F
  0.3318066535825750  0.5629658116330631  0.3687220796500839   F   F   F
  0.1660398287456673  0.5629739040493860  0.3690745192686862   F   F   F
  0.2491346756233881  0.6258022683460851  0.4544122138608273   F   F   F
  0.0825112347596715  0.5629784854702677  0.4547220051033491   F   F   F
  0.4162619920266266  0.5632388129372714  0.4546160730984639   F   F   F
  0.9985650276221349  0.6245143752737334  0.1958229385243442   F   F   F
  0.3279564922682425  0.6843955157980659  0.2011005110314770   F   F   F
  0.1698256044294126  0.6842621836052629  0.2013250383282923   F   F   F
  0.2488795627474829  0.7497566779537976  0.2785059685444367   F   F   F
  0.0819521399829384  0.6878786801797148  0.2833107345931083   F   F   F
  0.4158582841834004  0.6879431626082209  0.2830999860024122   F   F   F
  0.9983451998388091  0.7503195932841678  0.3686937020767758   F   F   F
  0.3319998104743220  0.6881481704884820  0.3682252260688088   F   F   F
  0.1658550099587259  0.6881414053997048  0.3682198786185751   F   F   F
  0.2479072071994892  0.7527251389668876  0.4547267948440492   F   F   F
  0.0833901041390774  0.6886383397059532  0.4545959627488259   F   F   F
  0.4159211788945782  0.6887815626298206  0.4546046892627018   F   F   F
  0.3334865332169130  0.6913554220087264  0.5415057092895523   F   F   F
  0.0002456703863416  0.7510667502412574  0.1953185722675812   F   F   F
  0.3354201452462320  0.8126106468270180  0.2018288468755145   F   F   F
  0.1621713346445759  0.8125594376739684  0.2018757272827543   F   F   F
  0.2488200916290140  0.8761363718893449  0.2786956553986428   F   F   F
  0.0815891287175319  0.8129654286348398  0.2830467411451991   F   F   F
  0.4160701051773259  0.8129576359376358  0.2830935231331111   F   F   F
  0.9986018588533554  0.8755814205242487  0.3681943223993756   F   F   F
  0.3312793098672344  0.8130466953342435  0.3679060521835424   F   F   F
  0.1661734040804674  0.8129979695682152  0.3677827655702401   F   F   F
  0.2484888866442390  0.8758324138814118  0.4539814324560183   F   F   F
  0.0808642105714696  0.8137790376032470  0.4529938929047646   F   F   F
  0.4148878060894674  0.8136413808916672  0.4540465204391992   F   F   F
  0.9982224474744967  0.8750042471270163  0.1956586766635624   F   F   F
  0.3283865396876138  0.9406189288439464  0.2006381370219330   F   F   F
  0.1693097463154132  0.9407012231517697  0.2006528343084568   F   F   F
  0.2487883405676214  0.5000929176380637  0.2813853244455160   F   F   F
  0.0817667690036288  0.9377970732991088  0.2825269886666106   F   F   F
  0.4158736351313408  0.9377644467316983  0.2825694402040284   F   F   F
  0.9989753065545912  0.5003290534901197  0.3701474211849742   F   F   F
  0.3314944440153980  0.9380243888455411  0.3676118111950686   F   F   F
  0.1660555662282661  0.9380253736369468  0.3674994491273296   F   F   F
  0.2482985459335865  0.5023583232221895  0.4552125926539929   F   F   F
  0.0820671616540452  0.9380413015674947  0.4527875731838904   F   F   F
  0.4148823946042199  0.9383068527106389  0.4530351962166748   F   F   F
  0.3323627113012577  0.9384654469438232  0.5396728789244847   F   F   F
  0.1620043516712641  0.9371593566389933  0.5395052051936204   F   F   F
  0.4985953104040135  0.0005273343887424  0.1945486706600903   F   F   F
  0.8284305267797833  0.0598072383519579  0.2014722408386405   F   F   F
  0.6697484405151428  0.0598365680090112  0.2014420589109562   F   F   F
  0.7491866695049509  0.1254646514524467  0.2803982441844681   F   F   F
  0.5816066105758395  0.0631354907639334  0.2825205257973167   F   F   F
  0.9163810220621613  0.0631375031637589  0.2826017545505195   F   F   F
  0.4988267894463903  0.1253677565416211  0.3685793060095648   F   F   F
  0.8317990659071839  0.0628826562750149  0.3676174867097259   F   F   F
  0.6659127466409629  0.0629320242963018  0.3675701142058401   F   F   F
  0.7491297936906278  0.1247195925292175  0.4540735857547844   F   F   F
  0.5818994381907530  0.0626377001173282  0.4534271019863638   F   F   F
  0.9155392047909245  0.0623882481728018  0.4533429534597246   F   F   F
  0.4998825260425690  0.1259116182991633  0.1959286080776792   F   F   F
  0.8291467755056061  0.1912177177702574  0.2019419306850025   F   F   F
  0.6690659859624901  0.1910672159533959  0.2016155065758127   F   F   F
  0.7494546484631215  0.2506949225505650  0.2813383456189413   F   F   F
  0.5815153331767391  0.1877746301170831  0.2830736424285689   F   F   F
  0.9167718638231221  0.1878035316039615  0.2833371765862722   F   F   F
  0.4987186149607012  0.2504956949676753  0.3693152857548512   F   F   F
  0.8320645047804476  0.1878534990634932  0.3684272481456290   F   F   F
  0.6663344007362824  0.1877961670769324  0.3682604929951765   F   F   F
  0.7498246725716555  0.2478564111858788  0.4549960373228572   F   F   F
  0.5819261090823247  0.1870414315077227  0.4535878863641685   F   F   F
  0.9158526844005550  0.1874299959424306  0.4540581339200713   F   F   F
  0.8345062442305462  0.1836761423755178  0.5405940838477150   F   F   F
  0.4977622177722552  0.2497321390928420  0.1958713608344098   F   F   F
  0.8283853574437501  0.3093988091760167  0.2017180923234960   F   F   F
  0.6700897506203276  0.3094895812533238  0.2015003231539652   F   F   F
  0.7494976642489064  0.3743788570580975  0.2796774866287919   F   F   F
  0.5818833141734885  0.3128589380022007  0.2834482592027285   F   F   F
  0.9165094067886699  0.3129423455524787  0.2838144775274500   F   F   F
  0.4983949197921831  0.3751098719995625  0.3694480862366660   F   F   F
  0.8324050970355472  0.3127316001918601  0.3689053036349961   F   F   F
  0.6665507497076604  0.3125516402668964  0.3684094014405659   F   F   F
  0.7497489117782052  0.3761463435445691  0.4551621691508956   F   F   F
  0.5848718897296692  0.3126201474950534  0.4552997921798436   F   F   F
  0.9169554125675958  0.3128998710710249  0.4565630042727591   F   F   F
  0.4994343114941557  0.3757703244960240  0.1961444416670659   F   F   F
  0.8347952064988604  0.4386562348643750  0.2028209793288056   F   F   F
  0.6639229214281670  0.4386109772767668  0.2025858883572980   F   F   F
  0.7489427109149673  0.0006197763297422  0.2801463891205174   F   F   F
  0.5813623758896682  0.4376937939427918  0.2836584500838981   F   F   F
  0.9169198513788359  0.4377079663756120  0.2842651724432343   F   F   F
  0.4987627903504688  0.0004026940505142  0.3681044327451843   F   F   F
  0.8323282870765922  0.4377695372469219  0.3689086826986383   F   F   F
  0.6671998518410405  0.4377406357600435  0.3678385693300186   F   F   F
  0.7484546832965222  0.0001677570749550  0.4539198875686949   F   F   F
  0.5828137583204480  0.4378836874158409  0.4519061624761846   F   F   F
  0.9163449086810260  0.4377446177426805  0.4559522795273594   F   F   F
  0.8319469982436658  0.4397176687306441  0.5436839586943876   F   F   F
  0.4964402692334957  0.5000806719710269  0.1963165442677521   F   F   F
  0.8345104408925792  0.5617137564044441  0.2026348683769044   F   F   F
  0.6640863703703062  0.5617347795600836  0.2024242510119763   F   F   F
  0.7493005867913070  0.6261845386792046  0.2788524701968313   F   F   F
  0.5813480741072325  0.5629259061726586  0.2832650352178234   F   F   F
  0.9168042222961219  0.5628575273955576  0.2836675374686450   F   F   F
  0.4982621175266999  0.6257995280569588  0.3686894044327218   F   F   F
  0.8321074653469935  0.5630737533344288  0.3679437467867075   F   F   F
  0.6666005022403851  0.5632337177121798  0.3671711550508761   F   F   F
  0.7495545952824685  0.6255837302882625  0.4536077998751509   F   F   F
  0.5830717425966867  0.5630066162508314  0.4529589540428276   F   F   F
  0.9152808339800274  0.5630617645694969  0.4550467888903853   F   F   F
  0.4994175800652769  0.6246272837491418  0.1956420437968944   F   F   F
  0.8282084350077312  0.6914226447263587  0.2010060284752484   F   F   F
  0.6698938879859497  0.6912626375315867  0.2010095387646658   F   F   F
  0.7489921873515044  0.7503862165635482  0.2805735290101339   F   F   F
  0.5816581853433931  0.6879136188660766  0.2828224762999270   F   F   F
  0.9162698657376609  0.6878219476313987  0.2829599024902194   F   F   F
  0.4984090559169090  0.7504235958199104  0.3686512505393580   F   F   F
  0.8319467221474781  0.6882218157587516  0.3678337467828783   F   F   F
  0.6658560917035885  0.6882940052504267  0.3678179996901676   F   F   F
  0.7478998956202929  0.7525621773979125  0.4542926671820382   F   F   F
  0.5834351403967517  0.6887018801600675  0.4543168127241870   F   F   F
  0.9150351083744539  0.6884862536594412  0.4548466367808217   F   F   F
  0.8359111872828322  0.6909905353847492  0.5430953782981049   F   F   F
  0.4975123507238877  0.7510892291754985  0.1953295624260321   F   F   F
  0.8288179449480353  0.8097141612205050  0.2013911761176530   F   F   F
  0.6688659818853253  0.8097923879116564  0.2012517487343288   F   F   F
  0.7488166453964169  0.8754414945107385  0.2799054586021370   F   F   F
  0.5812565758311763  0.8131064250737907  0.2826533918920120   F   F   F
  0.9164479477776553  0.8131165298899461  0.2826357748320518   F   F   F
  0.4985230284225111  0.8756482150716991  0.3682894938909058   F   F   F
  0.8314054631843675  0.8131059112695809  0.3677377223238167   F   F   F
  0.6657160557180291  0.8131860219095088  0.3678666188388959   F   F   F
  0.7481174041956535  0.8760516798285352  0.4538248144964925   F   F   F
  0.5807610383964743  0.8138615459961613  0.4532165174278830   F   F   F
  0.9146852392875005  0.8134898086493720  0.4535428431177451   F   F   F
  0.4995153181151366  0.8749107775776039  0.1956595624375268   F   F   F
  0.8283410163962657  0.9412531773256347  0.2012461388325519   F   F   F
  0.6693220375654221  0.9411961878752138  0.2011111403190498   F   F   F
  0.7494839146588390  0.5003947776121294  0.2783344564597243   F   F   F
  0.5814168772767943  0.9377539565623891  0.2823954020231980   F   F   F
  0.9163055373648987  0.9377668873017058  0.2824107554385833   F   F   F
  0.4982464904825719  0.5005508456412784  0.3691083427115558   F   F   F
  0.8315533955208494  0.9380360778913470  0.3673989629920058   F   F   F
  0.6657789504292069  0.9380955079117683  0.3674162191810950   F   F   F
  0.7506819512293106  0.5002291613880629  0.4537254437802360   F   F   F
  0.5818954071864368  0.9382843309593838  0.4530722346909712   F   F   F
  0.9148467555563329  0.9380191223523724  0.4528268424963215   F   F   F
  0.8332166541647936  0.9382518756600433  0.5397719543827506   F   F   F
  0.6633433403144338  0.9375686445102218  0.5395971288472836   F   F   F
  0.3348789967215922  0.0612650721671528  0.5409171945061502   F   F   F
  0.1631608633753459  0.0610289363150969  0.5402546683870426   F   F   F
  0.3381667501049606  0.3097880586830044  0.5440486023098359   F   F   F
  0.3296011420292473  0.5669585841581721  0.5420312357021331   F   F   F
  0.3333503625779599  0.8150792619766634  0.5418830161920454   F   F   F
  0.8344176725740695  0.0607324284682278  0.5406282681614627   F   F   F
  0.6628311266700919  0.0618264032678724  0.5404322168572833   F   F   F
  0.8411899807022110  0.3115063484162590  0.5438369679451682   F   F   F
  0.8401850458042617  0.5650424798036155  0.5438573407463565   F   F   F
  0.8338391406258410  0.8153076479485364  0.5411350949014562   F   F   F
  0.1669164893555788  0.1865438977632223  0.5409267083746627   F   F   F
  0.6653854029256223  0.1863571727494744  0.5401251813559895   F   F   F
  0.1637692689309063  0.8115302022049349  0.5405728252725623   F   F   F
  0.6621422114666800  0.8119902282420099  0.5413305228832073   F   F   F
  0.4044438604408853  0.0003794872269793  0.2309871479210557   F   F   F
  0.2489187684059004  0.0004622097049776  0.1760584344060945   F   F   F
  0.0934110152114087  0.0005447180978919  0.2310193310417716   F   F   F
  0.1526157008649633  0.1254730007708815  0.3156754061648925   F   F   F
  0.9991738749315928  0.1253834703870780  0.3019619520635715   F   F   F
  0.3453788794574635  0.1253664720310965  0.3155214783337073   F   F   F
  0.4004266609339950  0.1253526849514301  0.4018093131319205   F   F   F
  0.2489565383641548  0.1252264175665303  0.3866225216694019   F   F   F
  0.0974246806871122  0.1252602430104304  0.4019375863245784   F   F   F
  0.1508078782580071  0.1247523475476768  0.4872029099031607   F   F   F
  0.9988195330864258  0.1248373821446265  0.4734371295250384   F   F   F
  0.3480138862378013  0.1241654546874500  0.4872097992562203   F   F   F
  0.4047285156086886  0.1225343404020336  0.5679842488340441   F   F   F
  0.2493843217948069  0.1236889440985962  0.5572838368895745   F   F   F
  0.0908747956464424  0.1217087426686945  0.5670424414645296   F   F   F
  0.4049699893330043  0.1250110907850228  0.2311732588729640   F   F   F
  0.2489610111223683  0.1264476445424805  0.2072167802573546   F   F   F
  0.0931013457291456  0.1251733244647042  0.2313178368678592   F   F   F
  0.1529449731764316  0.2506424288869837  0.3164096143622572   F   F   F
  0.9991281534031842  0.2505320037985967  0.3027068879678367   F   F   F
  0.3451284049974888  0.2505095676813767  0.3159972373720450   F   F   F
  0.4004398583316870  0.2503782478883991  0.4027730023990088   F   F   F
  0.2492739385396234  0.2503582095241654  0.3873369803879996   F   F   F
  0.0969706128995540  0.2506381900022419  0.4030061249839321   F   F   F
  0.1514982843808212  0.2471312193588062  0.4870375326233187   F   F   F
  0.9998190564991347  0.2488839767912268  0.4752701239223214   F   F   F
  0.3493437311274832  0.2486939548671216  0.4891299931793540   F   F   F
  0.4025269246212062  0.2456973202564470  0.5735331962387917   F   F   F
  0.2519606857452246  0.2461051951660949  0.5592305384187668   F   F   F
  0.0853879361412595  0.2295619840765042  0.5736625520440768   F   F   F
  0.4047955517626605  0.2508932937930979  0.2319797068581053   F   F   F
  0.2489329045306263  0.2499274703271226  0.2058423215157745   F   F   F
  0.0931675535945544  0.2510766790794747  0.2322893668748591   F   F   F
  0.1514668646348483  0.3753619357821663  0.3173132350319676   F   F   F
  0.9991467070668847  0.3752829812017140  0.3031886833917170   F   F   F
  0.3463097653583205  0.3753852710567571  0.3166982454489542   F   F   F
  0.4002021395155069  0.3751246010536136  0.4031896114203803   F   F   F
  0.2493451161363893  0.3752662825648514  0.3875846034207839   F   F   F
  0.0963999220830090  0.3751883555928188  0.4038976072696840   F   F   F
  0.1510685130576306  0.3743505550094710  0.4858510219944492   F   F   F
  0.0001345692810730  0.3759645853048639  0.4783604580591998   F   F   F
  0.3483405080258848  0.3742328510280899  0.4893264381608518   F   F   F
  0.4021218362970487  0.3738860760025560  0.5723777861180182   F   F   F
  0.2546107121580761  0.3737135662386564  0.5649684509359716   F   F   F
  0.0579781559566896  0.3776427983096440  0.5964143452613158   F   F   F
  0.4045236522386517  0.3753037046382346  0.2320139895911808   F   F   F
  0.2487779593510240  0.3757841115756904  0.1765379661853999   F   F   F
  0.0933343709101635  0.3753651042414674  0.2326130352428279   F   F   F
  0.1516134717096378  0.0004918818981707  0.3154528472546687   F   F   F
  0.9990585771643055  0.0004358772391555  0.3011191217329880   F   F   F
  0.3461227378018989  0.0004600688540961  0.3154232230365110   F   F   F
  0.4003558698718948  0.0005479721912280  0.4014129456859621   F   F   F
  0.2488386452927145  0.0004429848640726  0.3863433716447702   F   F   F
  0.0972211425787606  0.0005134616750411  0.4012797515268360   F   F   F
  0.1500653451752711  0.9999860938890279  0.4865598380048297   F   F   F
  0.9987417844004369  0.9997185303460512  0.4725149732149561   F   F   F
  0.3472722918820921  0.0003612043604591  0.4868409564160530   F   F   F
  0.4047935638701219  0.9982490931190853  0.5674739118046404   F   F   F
  0.2477059330798639  0.9998490366156929  0.5570929361969732   F   F   F
  0.0911623774338182  0.9990971269696445  0.5668377620658092   F   F   F
  0.4029636535682855  0.5002155455764665  0.2314301333227107   F   F   F
  0.2487977278379461  0.5001120568449267  0.2120046837942553   F   F   F
  0.0949164572754100  0.5001607826109549  0.2320471240987487   F   F   F
  0.1517568760686672  0.6253279414251267  0.3163990506875649   F   F   F
  0.9990524478289728  0.6254134470092723  0.3022977588154987   F   F   F
  0.3462039100805896  0.6254070672736489  0.3161953226756964   F   F   F
  0.4003250023182972  0.6258740724845993  0.4023562293454219   F   F   F
  0.2491239630913711  0.6260269292374261  0.3869369714268558   F   F   F
  0.0969185411588640  0.6264030767370272  0.4021222209865414   F   F   F
  0.1507370871959068  0.6243942307223520  0.4848120091339254   F   F   F
  0.9988226805829470  0.6269124707954035  0.4721550537273203   F   F   F
  0.3487184837045731  0.6265963955714895  0.4877784661415205   F   F   F
  0.3978086616787238  0.6296462945520531  0.5727381648958598   F   F   F
  0.2541474779771349  0.6294547312153185  0.5566813793678449   F   F   F
  0.0842569909440058  0.6492626970797843  0.5602111558105136   F   F   F
  0.4045408806406599  0.6252563085546825  0.2315592594828857   F   F   F
  0.2488347799461081  0.6244628235845511  0.1761895289528610   F   F   F
  0.0932401668914835  0.6251543184187653  0.2319178010999110   F   F   F
  0.1529284074052697  0.7503369341762891  0.3154692832826740   F   F   F
  0.9989093195661312  0.7503861309295132  0.3017613078573547   F   F   F
  0.3448472286416262  0.7503623246677265  0.3154723014754452   F   F   F
  0.4001914822027288  0.7509678429306064  0.4021966916124597   F   F   F
  0.2488715559580896  0.7505129977526579  0.3869114808205367   F   F   F
  0.0967746398266982  0.7503949084181230  0.4017631872728700   F   F   F
  0.1489281602042070  0.7539309518165069  0.4864114216560864   F   F   F
  0.9981726949417720  0.7519645374662716  0.4736888533632140   F   F   F
  0.3471608042421721  0.7525978011565542  0.4877869630102936   F   F   F
  0.3987067473526764  0.7549282457904098  0.5729448454876120   F   F   F
  0.2477651281021522  0.7543290216291183  0.5584638518427028   F   F   F
  0.0733299874083215  0.7665234795092815  0.5697467421850320   F   F   F
  0.4045747852523007  0.7498694151611289  0.2314579203800449   F   F   F
  0.2488583585603976  0.7507894672352933  0.2048898192457926   F   F   F
  0.0931146535653156  0.7497190417953234  0.2315225162665797   F   F   F
  0.1526573361698169  0.8756016301565523  0.3151474848819618   F   F   F
  0.9989816567668726  0.8754112228792934  0.3014207769776149   F   F   F
  0.3449185718961019  0.8756200842911426  0.3152395725678474   F   F   F
  0.4000986034457412  0.8754338730816045  0.4015383319116239   F   F   F
  0.2487580252063921  0.8756301034732559  0.3862528586681577   F   F   F
  0.0971416268771819  0.8755108580792452  0.4011351735319408   F   F   F
  0.1496558945313708  0.8749616441945065  0.4864869092817372   F   F   F
  0.9982782741233152  0.8766588251380796  0.4721381912155493   F   F   F
  0.3471408700975402  0.8760905148634990  0.4868960712405226   F   F   F
  0.4036961919690896  0.8784884391170920  0.5683071954602710   F   F   F
  0.2468308738278324  0.8752501024420667  0.5565463152414551   F   F   F
  0.0893415783061258  0.8763650147633228  0.5661590623702324   F   F   F
  0.4046678848862371  0.8758902596721896  0.2309610667987627   F   F   F
  0.2487833156170325  0.8746540467400763  0.2063712597984377   F   F   F
  0.0930630787977620  0.8759606080321021  0.2309328860641102   F   F   F
  0.1515962985268615  0.5002703085419711  0.3169069600401855   F   F   F
  0.9989660849419764  0.5003567989175224  0.3031438041775090   F   F   F
  0.3462354402650405  0.5003104280874595  0.3163911771412131   F   F   F
  0.4000179281401799  0.5004368239234154  0.4028523611849550   F   F   F
  0.2490848126521854  0.5003263132009934  0.3874376305555387   F   F   F
  0.0972780183930908  0.4998483040165169  0.4033106671955551   F   F   F
  0.1513424556934169  0.5027865362151900  0.4881665663638088   F   F   F
  0.9993794009324830  0.5005149221635108  0.4749991098955846   F   F   F
  0.3479460770145053  0.5023912495087188  0.4888360146424233   F   F   F
  0.4012799638065729  0.5051990182547712  0.5735439567521396   F   F   F
  0.2580645650069613  0.4978907956059473  0.5604604847783463   F   F   F
  0.0707846566692183  0.5220749175710964  0.5827834321709204   F   F   F
  0.9050466662135932  0.0005048126374874  0.2308371240565990   F   F   F
  0.7489668417216251  0.0005131619559222  0.1762016673368194   F   F   F
  0.5929502432562543  0.0004690176107758  0.2308131753531129   F   F   F
  0.6517337717876259  0.1255860376973388  0.3155426712959724   F   F   F
  0.4988923899001918  0.1253591503210885  0.3017646869210040   F   F   F
  0.8464376856910434  0.1255936163094589  0.3156862979040156   F   F   F
  0.9005328248872573  0.1251555125853869  0.4018721702769668   F   F   F
  0.7490544746510750  0.1251511024325751  0.3864349672340026   F   F   F
  0.5972603808165289  0.1251373581699227  0.4016567631713386   F   F   F
  0.6505334712284352  0.1246903485061921  0.4867590059211011   F   F   F
  0.4987985724161774  0.1250084789469526  0.4730610036544931   F   F   F
  0.8477278831684103  0.1238892849239406  0.4868699245053421   F   F   F
  0.9038067734613264  0.1219869676490504  0.5681650779486063   F   F   F
  0.7484721877947180  0.1237526130037665  0.5570564554322104   F   F   F
  0.5919609354024402  0.1259129884437229  0.5665697334253963   F   F   F
  0.9040331723338824  0.1257916021988308  0.2309800289228932   F   F   F
  0.7491549736627903  0.1257664257924844  0.2105587070066406   F   F   F
  0.5942409929259966  0.1256913247436131  0.2308303003164269   F   F   F
  0.6516573483633294  0.2501407847087975  0.3161076638596398   F   F   F
  0.4989843851493845  0.2504831067644986  0.3022571116324571   F   F   F
  0.8468887164205583  0.2503369294664211  0.3165316215242768   F   F   F
  0.9006947276907553  0.2507033146860138  0.4031774730364219   F   F   F
  0.7495019713494102  0.2503450218827439  0.3871851521691667   F   F   F
  0.5972297341398800  0.2506029087797401  0.4022043683201488   F   F   F
  0.6509835080116773  0.2462907213033461  0.4863376071590295   F   F   F
  0.4999139457885420  0.2493931139474910  0.4743769685079684   F   F   F
  0.8489762796832068  0.2486268606005453  0.4888623910227068   F   F   F
  0.9054640132084160  0.2425668824657805  0.5724597366129700   F   F   F
  0.7515106815413262  0.2457417215036983  0.5606535506961947   F   F   F
  0.5857528574400845  0.2399120132895760  0.5703857460844191   F   F   F
  0.9053130990331226  0.2507546522901123  0.2317481261760150   F   F   F
  0.7491547527858415  0.2501362461049368  0.1764260306014194   F   F   F
  0.5931723902475454  0.2506618249959587  0.2314073984576126   F   F   F
  0.6528384326279735  0.3751549155020726  0.3157344577625381   F   F   F
  0.4987973575929558  0.3752830240187279  0.3024467000673354   F   F   F
  0.8458606446622170  0.3751600963612063  0.3164155195220175   F   F   F
  0.9006351461338085  0.3753053316848991  0.4039721107020426   F   F   F
  0.7496365958497222  0.3749464822604054  0.3872618208267795   F   F   F
  0.5975607734669452  0.3742523755881138  0.4016224804382631   F   F   F
  0.6514872731127284  0.3772045661345231  0.4862480127628288   F   F   F
  0.5002463655965386  0.3745427177844505  0.4729010722442126   F   F   F
  0.8485403238054516  0.3760611376795495  0.4899318482624651   F   F   F
  0.8965375474175445  0.3785004231721487  0.5759451587445241   F   F   F
  0.7573839652684882  0.3718267059071181  0.5598150180096582   F   F   F
  0.5846872366004447  0.3793023859117710  0.5726207506358776   F   F   F
  0.9052796913946111  0.3749916113969576  0.2322556746577575   F   F   F
  0.7492661852065297  0.3750989536600713  0.2076222678945072   F   F   F
  0.5929704534970739  0.3749655358332404  0.2317453048219065   F   F   F
  0.6513237137321184  0.0004592125137464  0.3153340223176286   F   F   F
  0.4987439605905806  0.0004278276398466  0.3011065896717113   F   F   F
  0.8464412197222231  0.0004669195769154  0.3153143712581894   F   F   F
  0.9004011270065178  0.0004782660865743  0.4012808341394560   F   F   F
  0.7487346448291632  0.0004399020388064  0.3861857694919451   F   F   F
  0.5970375711943987  0.0005543519268514  0.4013940491747192   F   F   F
  0.6499024810048581  0.0004063334970112  0.4867715051759376   F   F   F
  0.4985781924404762  0.9996934823907537  0.4732822503070011   F   F   F
  0.8471564745017801  0.0002448277066307  0.4864808400897616   F   F   F
  0.9048323603539927  0.9991526178244499  0.5673364528079006   F   F   F
  0.7479378864554889  0.0001684421472348  0.5569969445443590   F   F   F
  0.5918219485823855  0.9992057537432899  0.5672029961972314   F   F   F
  0.9068470894427634  0.5000696251804868  0.2320240939756673   F   F   F
  0.7492613811328894  0.5000683834869761  0.1987654468284532   F   F   F
  0.5915173040507042  0.5001384321277698  0.2314591014119927   F   F   F
  0.6527689668275656  0.6257673296597233  0.3151211085016854   F   F   F
  0.4987199954416326  0.6254868353774370  0.3017673770493374   F   F   F
  0.8455279487580398  0.6255839015563325  0.3154751228295538   F   F   F
  0.8997611912665135  0.6256796404076823  0.4022925192328586   F   F   F
  0.7492933530712378  0.6256947119978804  0.3861023427070549   F   F   F
  0.5970418782949025  0.6258162266938214  0.4010029635661070   F   F   F
  0.6512333198408058  0.6247033267723978  0.4825375712378133   F   F   F