Ta N Ru                                 
   1.00000000000000     
    18.1096308199999996    0.0000000000000000    0.0000000000000000
     0.0000000000000000   11.6775998899999998    0.0000000000000000
     0.0000000000000000    0.0000000000000000   23.4818170799999990
   Ta   N    Ru
   119   120     1
Direct
  0.0000000000000000  0.0000000000000000  0.2547993735907403
  0.3335419795383097  0.1249600556121486  0.2637651564943659
  0.1664536469395916  0.1250042984297166  0.2638047085036186
  0.2499476506772215  0.2500093796319267  0.3612696415566842
  0.0825237586214647  0.1249972748911290  0.3684568728370097
  0.4174670429670683  0.1249371099859756  0.3684456402518899
  0.0000000000000000  0.2500063696657180  0.4798719656523231
  0.3325026688149247  0.1249210675146179  0.4782214809760106
  0.1676803080259567  0.1250050191674520  0.4781470149359532
  0.2503463481459564  0.2505033043252480  0.5911111272293422
  0.0837989614713618  0.1250527829213983  0.5898873059144976
  0.4165419154591674  0.1252173100027842  0.5902593581601833
  0.0000000000000000  0.2496188132856051  0.7023191213669431
  0.3359695637279171  0.1251482174531629  0.7045838415064153
  0.1652967867440181  0.1247997074104937  0.7040524976867433
  0.0000000000000000  0.2499026314125782  0.2547814368001854
  0.3334169392389859  0.3749367734809984  0.2637565807022932
  0.1666260732203215  0.3750480222134226  0.2637802570924274
  0.2498535797245039  0.5000000004281731  0.3612241001790471
  0.0823812092797899  0.3750145065336271  0.3682871775353771
  0.4174572014873267  0.3749470836032341  0.3683084431270759
  0.0000000000000000  0.5000000004281731  0.4799575781699944
  0.3322396470951390  0.3748285558183483  0.4779113754727476
  0.1679706537331629  0.3749724165388891  0.4778768279047693
  0.2500353582495456  0.5000000004281731  0.5908716964335294
  0.0836947456617861  0.3750118688792496  0.5897654437325645
  0.4159808704715006  0.3754431371804156  0.5886833877200707
  0.0000000000000000  0.5000000004281731  0.7024504780929041
  0.3354168388693118  0.3753492967971782  0.7035324840879157
  0.1653617089873449  0.3747171145124549  0.7041801225846924
  0.0000000000000000  0.5000000004281731  0.2547333525449915
  0.3334169392389859  0.6250632265190017  0.2637565807022932
  0.1666260732203215  0.6249519777865774  0.2637802570924274
  0.2499476506772215  0.7499906203680734  0.3612696415566842
  0.0823812092797899  0.6249854934663730  0.3682871775353771
  0.4174572014873267  0.6250529163967660  0.3683084431270759
  0.0000000000000000  0.7499936303342820  0.4798719656523231
  0.3322396470951390  0.6251714441816517  0.4779113754727476
  0.1679706537331629  0.6250275834611110  0.4778768279047693
  0.2503463481459564  0.7494966956747521  0.5911111272293422
  0.0836947456617861  0.6249881311207504  0.5897654437325645
  0.4159808704715006  0.6245568628195844  0.5886833877200707
  0.0000000000000000  0.7503811867143949  0.7023191213669431
  0.3354168388693118  0.6246507032028289  0.7035324840879157
  0.1653617089873449  0.6252828854875452  0.7041801225846924
  0.0000000000000000  0.7500973685874218  0.2547814368001854
  0.3335419795383097  0.8750399452441976  0.2637651564943659
  0.1664536469395916  0.8749957024266296  0.2638047085036186
  0.2500671016590877  0.0000000000000000  0.3613299623859667
  0.0825237586214647  0.8750027259652170  0.3684568728370097
  0.4174670429670683  0.8750628908703705  0.3684456402518899
  0.0000000000000000  0.0000000000000000  0.4798781978005288
  0.3325026688149247  0.8750789333417283  0.4782214809760106
  0.1676803080259567  0.8749949816888941  0.4781470149359532
  0.2504604889953189  0.0000000000000000  0.5911705019129372
  0.0837989614713618  0.8749472179349478  0.5898873059144976
  0.4165419154591674  0.8747826908535619  0.5902593581601833
  0.0000000000000000  0.0000000000000000  0.7021895499033709
  0.3359695637279171  0.8748517834031831  0.7045838415064153
  0.1652967867440181  0.8752002934458524  0.7040524976867433
  0.5000000000000000  0.0000000000000000  0.2548460654705391
  0.8335463530604085  0.1250042984297166  0.2638047085036186
  0.6664580204616903  0.1249600556121486  0.2637651564943659
  0.7500523487705874  0.2500093796319267  0.3612696415566842
  0.5825329570329317  0.1249371099859756  0.3684456402518899
  0.9174762413785353  0.1249972748911290  0.3684568728370097
  0.5000000000000000  0.2498179445927471  0.4796511174624083
  0.8323196627078469  0.1250050191674520  0.4781470149359532
  0.6674973311850753  0.1249210675146179  0.4782214809760106
  0.7496536513018522  0.2505033043252480  0.5911111272293422
  0.5834580839886413  0.1252173100027842  0.5902593581601833
  0.9162010379764470  0.1250527829213983  0.5898873059144976
  0.5000000000000000  0.2570840757035252  0.7032881593305412
  0.8347032127037837  0.1247997074104937  0.7040524976867433
  0.6640304070058862  0.1251482174531629  0.7045838415064153
  0.5000000000000000  0.2499540851917424  0.2547860165713327
  0.8333739267796785  0.3750480222134226  0.2637802570924274
  0.6665830607610140  0.3749367734809984  0.2637565807022932
  0.7501464197233049  0.5000000004281731  0.3612241001790471
  0.5825427985126732  0.3749470836032341  0.3683084431270759
  0.9176187907202101  0.3750145065336271  0.3682871775353771
  0.5000000000000000  0.5000000004281731  0.4792704257270011
  0.8320293170006404  0.3749724165388891  0.4778768279047693
  0.6677603529048609  0.3748285558183483  0.4779113754727476
  0.7499646411982632  0.5000000004281731  0.5908716964335294
  0.5840191289763084  0.3754431371804156  0.5886833877200707
  0.9163052537860227  0.3750118688792496  0.5897654437325645
  0.8346382904604569  0.3747171145124549  0.7041801225846924
  0.6645831318644846  0.3753492967971782  0.7035324840879157
  0.5000000000000000  0.5000000004281731  0.2547403559310774
  0.8333739267796785  0.6249519777865774  0.2637802570924274
  0.6665830607610140  0.6250632265190017  0.2637565807022932
  0.7500523487705874  0.7499906203680734  0.3612696415566842
  0.5825427985126732  0.6250529163967660  0.3683084431270759
  0.9176187907202101  0.6249854934663730  0.3682871775353771
  0.5000000000000000  0.7501820554072529  0.4796511174624083
  0.8320293170006404  0.6250275834611110  0.4778768279047693
  0.6677603529048609  0.6251714441816517  0.4779113754727476
  0.7496536513018522  0.7494966956747521  0.5911111272293422
  0.5840191289763084  0.6245568628195844  0.5886833877200707
  0.9163052537860227  0.6249881311207504  0.5897654437325645
  0.5000000000000000  0.7429159242964748  0.7032881593305412
  0.8346382904604569  0.6252828854875452  0.7041801225846924
  0.6645831318644846  0.6246507032028289  0.7035324840879157
  0.5000000000000000  0.7500459148082576  0.2547860165713327
  0.8335463530604085  0.8749957024266296  0.2638047085036186
  0.6664580204616903  0.8750399452441976  0.2637651564943659
  0.7499328977887211  0.0000000000000000  0.3613299623859667
  0.5825329570329317  0.8750628908703705  0.3684456402518899
  0.9174762413785353  0.8750027259652170  0.3684568728370097
  0.5000000000000000  0.0000000000000000  0.4799983521905145
  0.8323196627078469  0.8749949816888941  0.4781470149359532
  0.6674973311850753  0.8750789333417283  0.4782214809760106
  0.7495395104524899  0.0000000000000000  0.5911705019129372
  0.5834580839886413  0.8747826908535619  0.5902593581601833
  0.9162010379764470  0.8749472179349478  0.5898873059144976
  0.5000000000000000  0.0000000000000000  0.7029369062542943
  0.8347032127037837  0.8752002934458524  0.7040524976867433
  0.6640304070058862  0.8748517834031831  0.7045838415064153
  0.4068308142906024  0.0000000000000000  0.3012671719980813
  0.2499596464488019  0.0000000000000000  0.2577956106188571
  0.0931229140635038  0.0000000000000000  0.3012529635257207
  0.1544444238194466  0.2500195067900025  0.4099500946183245
  0.0000000000000000  0.2499697999419746  0.3931661674567094
  0.3455527704055756  0.2499023115920394  0.4099322746611553
  0.4011227040266584  0.2497568045445553  0.5220825247120262
  0.2499848770578705  0.2497811296005069  0.5029556443640811
  0.0989745887947449  0.2502373580123860  0.5220326368525188
  0.1519729725946634  0.2501027208415534  0.6331176076746785
  0.0000000000000000  0.2500634864413860  0.6136621830782653
  0.3489817035386228  0.2506564930472321  0.6334493500253059
  0.4035232660403086  0.2523794627397796  0.7409852648464360
  0.2505016071731127  0.2502834314328525  0.7238672201736042
  0.0971381478216774  0.2503773315979121  0.7400885341231104
  0.4068124706608741  0.2498607591872231  0.3011787256862487
  0.2500089828966229  0.2498827702514331  0.2576051475665371
  0.0931150588396348  0.2500073071265936  0.3011923500190365
  0.1543422095852912  0.5000000004281731  0.4098770352710868
  0.0000000000000000  0.5000000004281731  0.3931869859275219
  0.3455396224088317  0.5000000004281731  0.4097536156942538
  0.4008433303206448  0.5000000004281731  0.5214120486066030
  0.2498884189559943  0.5000000004281731  0.5026193477420039
  0.0989996986365914  0.5000000004281731  0.5219868315012822
  0.1519698140767882  0.5000000004281731  0.6332586598689612
  0.0000000000000000  0.5000000004281731  0.6137471713384626
  0.3484314458595258  0.5000000004281731  0.6327621322299951
  0.4067086693272459  0.5000000004281731  0.7372011120277278
  0.2513943528264653  0.5000000004281731  0.7244579096640835
  0.0970896888335344  0.5000000004281731  0.7401386445524055
  0.4067794876505876  0.5000000004281731  0.3010898771748115
  0.2500959223766707  0.5000000004281731  0.2574834574231025
  0.0930764124513247  0.5000000004281731  0.3011350652138834
  0.1544444238194466  0.7499804932099975  0.4099500946183245
  0.0000000000000000  0.7500302000580253  0.3931661674567094
  0.3455527704055756  0.7500976884079535  0.4099322746611553
  0.4011227040266584  0.7502431954554446  0.5220825247120262
  0.2499848770578705  0.7502188703994932  0.5029556443640811
  0.0989745887947449  0.7497626419876140  0.5220326368525188
  0.1519729725946634  0.7498972791584466  0.6331176076746785
  0.0000000000000000  0.7499365135586140  0.6136621830782653
  0.3489817035386228  0.7493435069527679  0.6334493500253059
  0.4035232660403086  0.7476205372602204  0.7409852648464360
  0.2505016071731127  0.7497165685671475  0.7238672201736042
  0.0971381478216774  0.7496226684020879  0.7400885341231104
  0.4068124706608741  0.7501392408127769  0.3011787256862487
  0.2500089828966229  0.7501172297485669  0.2576051475665371
  0.0931150588396348  0.7499926928734063  0.3011923500190365
  0.1545682000976361  0.0000000000000000  0.4099773987204335
  0.0000000000000000  0.0000000000000000  0.3932026645940468
  0.3455548614504422  0.0000000000000000  0.4100549410440827
  0.4011165291127297  0.0000000000000000  0.5222908123399576
  0.2501387577890525  0.0000000000000000  0.5030050601219284
  0.0990423835186808  0.0000000000000000  0.5221072861599086
  0.1521136852184763  0.0000000000000000  0.6331428072484493
  0.0000000000000000  0.0000000000000000  0.6134867639069200
  0.3486143682440062  0.0000000000000000  0.6336153941787084
  0.4033225395563392  0.0000000000000000  0.7410708678874536
  0.2506135525548957  0.0000000000000000  0.7239895049622508
  0.0971029520820090  0.0000000000000000  0.7401319068830020
  0.9068771152026928  0.0000000000000000  0.3012529635257207
  0.7500403529990070  0.0000000000000000  0.2577956106188571
  0.5931692149755941  0.0000000000000000  0.3012671719980813
  0.6544472295944244  0.2499023115920394  0.4099322746611553
  0.5000000000000000  0.2498999952488858  0.3930218013174410
  0.8455555761805533  0.2500195067900025  0.4099500946183245
  0.9010254112052551  0.2502373580123860  0.5220326368525188
  0.7500151223899383  0.2497811296005069  0.5029556443640811
  0.5988772954211433  0.2497568045445553  0.5220825247120262
  0.6510182964613771  0.2506564930472321  0.6334493500253059
  0.5000000000000000  0.2524599249133745  0.6145234281029084
  0.8480270274053366  0.2501027208415534  0.6331176076746785
  0.9028618521783226  0.2503773315979121  0.7400885341231104
  0.7494983922746961  0.2502834314328525  0.7238672201736042
  0.5964767339596914  0.2523794627397796  0.7409852648464360
  0.9068849704265689  0.2500073071265936  0.3011923500190365
  0.7499910165511858  0.2498827702514331  0.2576051475665371
  0.5931875586053296  0.2498607591872231  0.3011787256862487
  0.6544603775911682  0.5000000004281731  0.4097536156942538
  0.5000000000000000  0.5000000004281731  0.3927894743321179
  0.8456577904147089  0.5000000004281731  0.4098770352710868
  0.9010003013634086  0.5000000004281731  0.5219868315012822
  0.7501115804918146  0.5000000004281731  0.5026193477420039
  0.5991566691271569  0.5000000004281731  0.5214120486066030
  0.6515685541404742  0.5000000004281731  0.6327621322299951
  0.5000000000000000  0.5000000004281731  0.6118011353795930
  0.8480301859232119  0.5000000004281731  0.6332586598689612
  0.9029103111664656  0.5000000004281731  0.7401386445524055
  0.7486056466213437  0.5000000004281731  0.7244579096640835
  0.5932913306727542  0.5000000004281731  0.7372011120277278
  0.9069236168148720  0.5000000004281731  0.3011350652138834
  0.7499040770711382  0.5000000004281731  0.2574834574231025
  0.5932205416156090  0.5000000004281731  0.3010898771748115
  0.6544472295944244  0.7500976884079535  0.4099322746611553
  0.5000000000000000  0.7501000047511143  0.3930218013174410
  0.8455555761805533  0.7499804932099975  0.4099500946183245
  0.9010254112052551  0.7497626419876140  0.5220326368525188
  0.7500151223899383  0.7502188703994932  0.5029556443640811
  0.5988772954211433  0.7502431954554446  0.5220825247120262
  0.6510182964613771  0.7493435069527679  0.6334493500253059
  0.5000000000000000  0.7475400750866256  0.6145234281029084
  0.8480270274053366  0.7498972791584466  0.6331176076746785
  0.9028618521783226  0.7496226684020879  0.7400885341231104
  0.7494983922746961  0.7497165685671475  0.7238672201736042
  0.5964767339596914  0.7476205372602204  0.7409852648464360
  0.9068849704265689  0.7499926928734063  0.3011923500190365
  0.7499910165511858  0.7501172297485669  0.2576051475665371
  0.5931875586053296  0.7501392408127769  0.3011787256862487
  0.6544451385495580  0.0000000000000000  0.4100549410440827
  0.5000000000000000  0.0000000000000000  0.3932388019203749
  0.8454317999023638  0.0000000000000000  0.4099773987204335
  0.9009576164813192  0.0000000000000000  0.5221072861599086
  0.7498612416587562  0.0000000000000000  0.5030050601219284
  0.5988834703350719  0.0000000000000000  0.5222908123399576
  0.6513856317559940  0.0000000000000000  0.6336153941787084
  0.5000000000000000  0.0000000000000000  0.6140986841054084
  0.8478863147815237  0.0000000000000000  0.6331428072484493
  0.9028970479179910  0.0000000000000000  0.7401319068830020
  0.7493864468929131  0.0000000000000000  0.7239895049622508
  0.5966774604436609  0.0000000000000000  0.7410708678874536
  0.5000000000000000  0.5000000004281731  0.6977822023791844
 
  0.00000000E+00  0.00000000E+00  0.00000000E+00
  0.00000000E+00  0.00000000E+00  0.00000000E+00
  0.00000000E+00  0.00000000E+00  0.00000000E+00
  0.00000000E+00  0.00000000E+00  0.00000000E+00
  0.00000000E+00  0.00000000E+00  0.00000000E+00
  0.00000000E+00  0.00000000E+00  0.00000000E+00
  0.00000000E+00  0.00000000E+00  0.00000000E+00
  0.00000000E+00  0.00000000E+00  0.00000000E+00
  0.00000000E+00  0.00000000E+00  0.00000000E+00
  0.00000000E+00  0.00000000E+00  0.00000000E+00
  0.00000000E+00  0.00000000E+00  0.00000000E+00
  0.00000000E+00  0.00000000E+00  0.00000000E+00
  0.00000000E+00  0.00000000E+00  0.00000000E+00
  0.00000000E+00  0.00000000E+00  0.00000000E+00
  0.00000000E+00  0.00000000E+00  0.00000000E+00
  0.00000000E+00  0.00000000E+00  0.00000000E+00
  0.00000000E+00  0.00000000E+00  0.00000000E+00
  0.00000000E+00  0.00000000E+00  0.00000000E+00
  0.00000000E+00  0.00000000E+00  0.00000000E+00
  0.00000000E+00  0.00000000E+00  0.00000000E+00
  0.00000000E+00  0.00000000E+00  0.00000000E+00
  0.00000000E+00  0.00000000E+00  0.00000000E+00
  0.00000000E+00  0.00000000E+00  0.00000000E+00
  0.00000000E+00  0.00000000E+00  0.00000000E+00
  0.00000000E+00  0.00000000E+00  0.00000000E+00
  0.00000000E+00  0.00000000E+00  0.00000000E+00
  0.00000000E+00  0.00000000E+00  0.00000000E+00
  0.00000000E+00  0.00000000E+00  0.00000000E+00
  0.00000000E+00  0.00000000E+00  0.00000000E+00
  0.00000000E+00  0.00000000E+00  0.00000000E+00
  0.00000000E+00  0.00000000E+00  0.00000000E+00
  0.00000000E+00  0.00000000E+00  0.00000000E+00
  0.00000000E+00  0.00000000E+00  0.00000000E+00
  0.00000000E+00  0.00000000E+00  0.00000000E+00
  0.00000000E+00  0.00000000E+00  0.00000000E+00
  0.00000000E+00  0.00000000E+00  0.00000000E+00
  0.00000000E+00  0.00000000E+00  0.00000000E+00
  0.00000000E+00  0.00000000E+00  0.00000000E+00
  0.00000000E+00  0.00000000E+00  0.00000000E+00
  0.00000000E+00  0.00000000E+00  0.00000000E+00
  0.00000000E+00  0.00000000E+00  0.00000000E+00
  0.00000000E+00  0.00000000E+00  0.00000000E+00
  0.00000000E+00  0.00000000E+00  0.00000000E+00
  0.00000000E+00  0.00000000E+00  0.00000000E+00
  0.00000000E+00  0.00000000E+00  0.00000000E+00
  0.00000000E+00  0.00000000E+00  0.00000000E+00
  0.00000000E+00  0.00000000E+00  0.00000000E+00
  0.00000000E+00  0.00000000E+00  0.00000000E+00
  0.00000000E+00  0.00000000E+00  0.00000000E+00
  0.00000000E+00  0.00000000E+00  0.00000000E+00
  0.00000000E+00  0.00000000E+00  0.00000000E+00
  0.00000000E+00  0.00000000E+00  0.00000000E+00
  0.00000000E+00  0.00000000E+00  0.00000000E+00
  0.00000000E+00  0.00000000E+00  0.00000000E+00
  0.00000000E+00  0.00000000E+00  0.00000000E+00
  0.00000000E+00  0.00000000E+00  0.00000000E+00
  0.00000000E+00  0.00000000E+00  0.00000000E+00
  0.00000000E+00  0.00000000E+00  0.00000000E+00
  0.00000000E+00  0.00000000E+00  0.00000000E+00
  0.00000000E+00  0.00000000E+00  0.00000000E+00
  0.00000000E+00  0.00000000E+00  0.00000000E+00
  0.00000000E+00  0.00000000E+00  0.00000000E+00
  0.00000000E+00  0.00000000E+00  0.00000000E+00
  0.00000000E+00  0.00000000E+00  0.00000000E+00
  0.00000000E+00  0.00000000E+00  0.00000000E+00
  0.00000000E+00  0.00000000E+00  0.00000000E+00
  0.00000000E+00  0.00000000E+00  0.00000000E+00
  0.00000000E+00  0.00000000E+00  0.00000000E+00
  0.00000000E+00  0.00000000E+00  0.00000000E+00
  0.00000000E+00  0.00000000E+00  0.00000000E+00
  0.00000000E+00  0.00000000E+00  0.00000000E+00
  0.00000000E+00  0.00000000E+00  0.00000000E+00
  0.00000000E+00  0.00000000E+00  0.00000000E+00
  0.00000000E+00  0.00000000E+00  0.00000000E+00
  0.00000000E+00  0.00000000E+00  0.00000000E+00
  0.00000000E+00  0.00000000E+00  0.00000000E+00
  0.00000000E+00  0.00000000E+00  0.00000000E+00
  0.00000000E+00  0.00000000E+00  0.00000000E+00
  0.00000000E+00  0.00000000E+00  0.00000000E+00
  0.00000000E+00  0.00000000E+00  0.00000000E+00
  0.00000000E+00  0.00000000E+00  0.00000000E+00
  0.00000000E+00  0.00000000E+00  0.00000000E+00
  0.00000000E+00  0.00000000E+00  0.00000000E+00
  0.00000000E+00  0.00000000E+00  0.00000000E+00
  0.00000000E+00  0.00000000E+00  0.00000000E+00
  0.00000000E+00  0.00000000E+00  0.00000000E+00
  0.00000000E+00  0.00000000E+00  0.00000000E+00
  0.00000000E+00  0.00000000E+00  0.00000000E+00
  0.00000000E+00  0.00000000E+00  0.00000000E+00
  0.00000000E+00  0.00000000E+00  0.00000000E+00
  0.00000000E+00  0.00000000E+00  0.00000000E+00
  0.00000000E+00  0.00000000E+00  0.00000000E+00
  0.00000000E+00  0.00000000E+00  0.00000000E+00
  0.00000000E+00  0.00000000E+00  0.00000000E+00
  0.00000000E+00  0.00000000E+00  0.00000000E+00
  0.00000000E+00  0.00000000E+00  0.00000000E+00
  0.00000000E+00  0.00000000E+00  0.00000000E+00
  0.00000000E+00  0.00000000E+00  0.00000000E+00
  0.00000000E+00  0.00000000E+00  0.00000000E+00
  0.00000000E+00  0.00000000E+00  0.00000000E+00
  0.00000000E+00  0.00000000E+00  0.00000000E+00
  0.00000000E+00  0.00000000E+00  0.00000000E+00
  0.00000000E+00  0.00000000E+00  0.00000000E+00
  0.00000000E+00  0.00000000E+00  0.00000000E+00
  0.00000000E+00  0.00000000E+00  0.00000000E+00
  0.00000000E+00  0.00000000E+00  0.00000000E+00
  0.00000000E+00  0.00000000E+00  0.00000000E+00
  0.00000000E+00  0.00000000E+00  0.00000000E+00
  0.00000000E+00  0.00000000E+00  0.00000000E+00
  0.00000000E+00  0.00000000E+00  0.00000000E+00
  0.00000000E+00  0.00000000E+00  0.00000000E+00
  0.00000000E+00  0.00000000E+00  0.00000000E+00
  0.00000000E+00  0.00000000E+00  0.00000000E+00
  0.00000000E+00  0.00000000E+00  0.00000000E+00
  0.00000000E+00  0.00000000E+00  0.00000000E+00
  0.00000000E+00  0.00000000E+00  0.00000000E+00
  0.00000000E+00  0.00000000E+00  0.00000000E+00
  0.00000000E+00  0.00000000E+00  0.00000000E+00
  0.00000000E+00  0.00000000E+00  0.00000000E+00
  0.00000000E+00  0.00000000E+00  0.00000000E+00
  0.00000000E+00  0.00000000E+00  0.00000000E+00
  0.00000000E+00  0.00000000E+00  0.00000000E+00
  0.00000000E+00  0.00000000E+00  0.00000000E+00
  0.00000000E+00  0.00000000E+00  0.00000000E+00
  0.00000000E+00  0.00000000E+00  0.00000000E+00
  0.00000000E+00  0.00000000E+00  0.00000000E+00
  0.00000000E+00  0.00000000E+00  0.00000000E+00
  0.00000000E+00  0.00000000E+00  0.00000000E+00
  0.00000000E+00  0.00000000E+00  0.00000000E+00
  0.00000000E+00  0.00000000E+00  0.00000000E+00
  0.00000000E+00  0.00000000E+00  0.00000000E+00
  0.00000000E+00  0.00000000E+00  0.00000000E+00
  0.00000000E+00  0.00000000E+00  0.00000000E+00
  0.00000000E+00  0.00000000E+00  0.00000000E+00
  0.00000000E+00  0.00000000E+00  0.00000000E+00
  0.00000000E+00  0.00000000E+00  0.00000000E+00
  0.00000000E+00  0.00000000E+00  0.00000000E+00
  0.00000000E+00  0.00000000E+00  0.00000000E+00
  0.00000000E+00  0.00000000E+00  0.00000000E+00
  0.00000000E+00  0.00000000E+00  0.00000000E+00
  0.00000000E+00  0.00000000E+00  0.00000000E+00
  0.00000000E+00  0.00000000E+00  0.00000000E+00
  0.00000000E+00  0.00000000E+00  0.00000000E+00
  0.00000000E+00  0.00000000E+00  0.00000000E+00
  0.00000000E+00  0.00000000E+00  0.00000000E+00
  0.00000000E+00  0.00000000E+00  0.00000000E+00
  0.00000000E+00  0.00000000E+00  0.00000000E+00
  0.00000000E+00  0.00000000E+00  0.00000000E+00
  0.00000000E+00  0.00000000E+00  0.00000000E+00
  0.00000000E+00  0.00000000E+00  0.00000000E+00
  0.00000000E+00  0.00000000E+00  0.00000000E+00
  0.00000000E+00  0.00000000E+00  0.00000000E+00
  0.00000000E+00  0.00000000E+00  0.00000000E+00
  0.00000000E+00  0.00000000E+00  0.00000000E+00
  0.00000000E+00  0.00000000E+00  0.00000000E+00
  0.00000000E+00  0.00000000E+00  0.00000000E+00
  0.00000000E+00  0.00000000E+00  0.00000000E+00
  0.00000000E+00  0.00000000E+00  0.00000000E+00
  0.00000000E+00  0.00000000E+00  0.00000000E+00
  0.00000000E+00  0.00000000E+00  0.00000000E+00
  0.00000000E+00  0.00000000E+00  0.00000000E+00
  0.00000000E+00  0.00000000E+00  0.00000000E+00
  0.00000000E+00  0.00000000E+00  0.00000000E+00
  0.00000000E+00  0.00000000E+00  0.00000000E+00
  0.00000000E+00  0.00000000E+00  0.00000000E+00
  0.00000000E+00  0.00000000E+00  0.00000000E+00
  0.00000000E+00  0.00000000E+00  0.00000000E+00
  0.00000000E+00  0.00000000E+00  0.00000000E+00
  0.00000000E+00  0.00000000E+00  0.00000000E+00
  0.00000000E+00  0.00000000E+00  0.00000000E+00
  0.00000000E+00  0.00000000E+00  0.00000000E+00
  0.00000000E+00  0.00000000E+00  0.00000000E+00
  0.00000000E+00  0.00000000E+00  0.00000000E+00
  0.00000000E+00  0.00000000E+00  0.00000000E+00
  0.00000000E+00  0.00000000E+00  0.00000000E+00
  0.00000000E+00  0.00000000E+00  0.00000000E+00
  0.00000000E+00  0.00000000E+00  0.00000000E+00
  0.00000000E+00  0.00000000E+00  0.00000000E+00
  0.00000000E+00  0.00000000E+00  0.00000000E+00
  0.00000000E+00  0.00000000E+00  0.00000000E+00
  0.00000000E+00  0.00000000E+00  0.00000000E+00
  0.00000000E+00  0.00000000E+00  0.00000000E+00
  0.00000000E+00  0.00000000E+00  0.00000000E+00
  0.00000000E+00  0.00000000E+00  0.00000000E+00
  0.00000000E+00  0.00000000E+00  0.00000000E+00
  0.00000000E+00  0.00000000E+00  0.00000000E+00
  0.00000000E+00  0.00000000E+00  0.00000000E+00
  0.00000000E+00  0.00000000E+00  0.00000000E+00
  0.00000000E+00  0.00000000E+00  0.00000000E+00
  0.00000000E+00  0.00000000E+00  0.00000000E+00
  0.00000000E+00  0.00000000E+00  0.00000000E+00
  0.00000000E+00  0.00000000E+00  0.00000000E+00
  0.00000000E+00  0.00000000E+00  0.00000000E+00
  0.00000000E+00  0.00000000E+00  0.00000000E+00
  0.00000000E+00  0.00000000E+00  0.00000000E+00
  0.00000000E+00  0.00000000E+00  0.00000000E+00
  0.00000000E+00  0.00000000E+00  0.00000000E+00
  0.00000000E+00  0.00000000E+00  0.00000000E+00
  0.00000000E+00  0.00000000E+00  0.00000000E+00
  0.00000000E+00  0.00000000E+00  0.00000000E+00
  0.00000000E+00  0.00000000E+00  0.00000000E+00
  0.00000000E+00  0.00000000E+00  0.00000000E+00
  0.00000000E+00  0.00000000E+00  0.00000000E+00
  0.00000000E+00  0.00000000E+00  0.00000000E+00
  0.00000000E+00  0.00000000E+00  0.00000000E+00
  0.00000000E+00  0.00000000E+00  0.00000000E+00
  0.00000000E+00  0.00000000E+00  0.00000000E+00
  0.00000000E+00  0.00000000E+00  0.00000000E+00
  0.00000000E+00  0.00000000E+00  0.00000000E+00
  0.00000000E+00  0.00000000E+00  0.00000000E+00
  0.00000000E+00  0.00000000E+00  0.00000000E+00
  0.00000000E+00  0.00000000E+00  0.00000000E+00
  0.00000000E+00  0.00000000E+00  0.00000000E+00
  0.00000000E+00  0.00000000E+00  0.00000000E+00
  0.00000000E+00  0.00000000E+00  0.00000000E+00
  0.00000000E+00  0.00000000E+00  0.00000000E+00
  0.00000000E+00  0.00000000E+00  0.00000000E+00
  0.00000000E+00  0.00000000E+00  0.00000000E+00
  0.00000000E+00  0.00000000E+00  0.00000000E+00
  0.00000000E+00  0.00000000E+00  0.00000000E+00
  0.00000000E+00  0.00000000E+00  0.00000000E+00
  0.00000000E+00  0.00000000E+00  0.00000000E+00
  0.00000000E+00  0.00000000E+00  0.00000000E+00
  0.00000000E+00  0.00000000E+00  0.00000000E+00
  0.00000000E+00  0.00000000E+00  0.00000000E+00
  0.00000000E+00  0.00000000E+00  0.00000000E+00
  0.00000000E+00  0.00000000E+00  0.00000000E+00
  0.00000000E+00  0.00000000E+00  0.00000000E+00
  0.00000000E+00  0.00000000E+00  0.00000000E+00
  0.00000000E+00  0.00000000E+00  0.00000000E+00
  0.00000000E+00  0.00000000E+00  0.00000000E+00
  0.00000000E+00  0.00000000E+00  0.00000000E+00
  0.00000000E+00  0.00000000E+00  0.00000000E+00
  0.00000000E+00  0.00000000E+00  0.00000000E+00
  0.00000000E+00  0.00000000E+00  0.00000000E+00
  0.00000000E+00  0.00000000E+00  0.00000000E+00
  0.00000000E+00  0.00000000E+00  0.00000000E+00
  0.00000000E+00  0.00000000E+00  0.00000000E+00
  0.00000000E+00  0.00000000E+00  0.00000000E+00
  0.00000000E+00  0.00000000E+00  0.00000000E+00
