Ta  N  W Cu                             
   1.00000000000000     
    18.1096308199999996    0.0000000000000000    0.0000000000000000
     0.0000000000000000   23.3551997799999995    0.0000000000000000
     0.0000000000000000    0.0000000000000000   30.4818171199999988
   Ta   N    W    Cu
   228   240    12     1
Direct
  0.9999947515262306  0.0000675253617288  0.1975218962395076
  0.3341537844675386  0.0625536851064012  0.2026759537755893
  0.1657660679742676  0.0625918357302382  0.2027733336572481
  0.2498840317469373  0.1251051955172287  0.2778963953933768
  0.0827535950794953  0.0626213800268829  0.2841086746994108
  0.4170932144879131  0.0625946777960920  0.2839717715337571
  0.9999784862141894  0.1251445947261018  0.3699030969862775
  0.3324624883042873  0.0626466402794108  0.3683999853744311
  0.1673040103825372  0.0626680401097630  0.3684090646370350
  0.2502858587593124  0.1254659016581954  0.4550221681940982
  0.0839475974490327  0.0627002687583271  0.4546729889689090
  0.4160778891295394  0.0626834928806517  0.4543111785844260
  0.9999824839500064  0.1252577110326811  0.5410821419785421
  0.3353656957128592  0.0632131873998318  0.5418685874424582
  0.9999920422243136  0.1250993478085434  0.1975085208831260
  0.3341516534250744  0.1875579776652714  0.2026711034538309
  0.1657548468464967  0.1875612301893455  0.2027560672527287
  0.2499468480685465  0.2501059116380731  0.2779017950038423
  0.0827105602814129  0.1876279474287443  0.2840922455301040
  0.4171399195070435  0.1876022073824686  0.2839765728575188
  0.9999843918093063  0.2501632504384901  0.3698704654794440
  0.3324462358636922  0.1876364862146289  0.3684103348145626
  0.1673527271170272  0.1876460333703562  0.3684759569674085
  0.2505074706829262  0.2498131142405242  0.4550150500231425
  0.0836044494633725  0.1876815747560556  0.4547145462532853
  0.4162581925773097  0.1875989332480117  0.4542789025526943
  0.9999626765722738  0.2500933615095278  0.5410989435868174
  0.3357836996306176  0.1873276430382589  0.5416442070901368
  0.1656131934263030  0.1876881130237464  0.5419225126824543
  0.9999917502335478  0.2500581793776604  0.1975175805698015
  0.3341582650302257  0.3125839450842776  0.2026756210612106
  0.1657560229673507  0.3126130762319903  0.2027728444787300
  0.2498799619060037  0.3751231361694067  0.2779046588062002
  0.0827536956940662  0.3126290990866138  0.2841136115527192
  0.4170946546212306  0.3126023659357173  0.2839650080599867
  0.0000219306049090  0.3751537430277807  0.3699325019831932
  0.3324525880409794  0.3126380278784637  0.3683982888535979
  0.1672999270310456  0.3126482764796776  0.3684172223764861
  0.2502428446601144  0.3754676514589903  0.4550387447854192
  0.0839557537591418  0.3126035044066953  0.4546874342841321
  0.4160661659710385  0.3126441594581024  0.4543103498882246
  0.9999596470177394  0.3752237303031691  0.5410786585902940
  0.3352958860166453  0.3127798690689829  0.5418656496803749
  0.9999865629044038  0.3750912555453141  0.1975157211643008
  0.3341461861057979  0.4375690824299028  0.2026875415692899
  0.1657555803193986  0.4375530897039894  0.2027712150409329
  0.2499530326280350  0.0000910494992326  0.2779034085512890
  0.0827132597528788  0.4376256472899911  0.2841086377664439
  0.4171402344165642  0.4376037428091806  0.2839848327839078
  0.0000263907305111  0.0001496021983272  0.3698887949054424
  0.3323969575086849  0.4376220264911836  0.3684194217542185
  0.1673717770382765  0.4376238855819281  0.3685123918233586
  0.2504995904572453  0.9998169424909378  0.4550250223976278
  0.0836482059787258  0.4375853369983105  0.4547831670672480
  0.4161214572297496  0.4375579978956878  0.4543484227217789
  0.9999580971997446  0.0001205441049947  0.5410926402957088
  0.3356800966657616  0.4368374093510212  0.5418201041813688
  0.1658211503814044  0.4370893591135570  0.5420468114483867
  0.0000090379726814  0.5000619209541455  0.1975389847318141
  0.3341553365094825  0.5625810637805202  0.2027114828019876
  0.1657613874429273  0.5626045155628816  0.2028046021915770
  0.2498713112988185  0.6251020388938002  0.2778800322589206
  0.0827507024854484  0.5626238243746400  0.2841512106279680
  0.4171213692996076  0.5625964668505148  0.2840011523993482
  0.0001334634862431  0.6251029221154525  0.3700181148737158
  0.3324311441412178  0.5626121948649399  0.3683791078784537
  0.1673118591169214  0.5626193114238092  0.3684503132582009
  0.2503244662408619  0.6254363222432744  0.4549295334772481
  0.0841093198369975  0.5624629299462640  0.4548034412942457
  0.4159755967623227  0.5625459504312857  0.4544223838560271
  0.9992675468549379  0.6251777020426559  0.5410537508421598
  0.3359750271707540  0.5619560470561922  0.5423393916383930
  0.0000050646701979  0.6250812778750898  0.1975467095876979
  0.3341310328433096  0.6875662019935120  0.2027208039313564
  0.1657496389228328  0.6875551994609594  0.2028097409966065
  0.2499434221440353  0.7501074326597674  0.2778908393856483
  0.0827270880638125  0.6876162240791501  0.2841455498737844
  0.4171476018439719  0.6876005679161707  0.2840055085677164
  0.0001585268156177  0.7502017380869717  0.3699854483314056
  0.3324310052416735  0.6876375873435876  0.3684325253396068
  0.1673704187311245  0.6876428433246389  0.3685610737789631
  0.2505261503758049  0.7498450882530889  0.4549407005400710
  0.0837165474398063  0.6876749643633104  0.4546842498192305
  0.4161912202132072  0.6875814595747372  0.4542385182456030
  0.9992909141230015  0.7501631100955635  0.5410814689338537
  0.3390065740398285  0.6873970208244202  0.5406285279143361
  0.1630028711609839  0.6876017011805189  0.5407009802154121
  0.0000059308331899  0.7500671712726970  0.1975520123054793
  0.3341520551773911  0.8125598752007193  0.2027084048157235
  0.1657443009563835  0.8125822572759844  0.2028022391985758
  0.2498879157532201  0.8751063470356399  0.2779002631509471
  0.0827500046890464  0.8126240823573951  0.2841505727623357
  0.4171176661671652  0.8126053858844955  0.2839986879250631
  0.0000942458938624  0.8751471351086977  0.3699701752821838
  0.3324486523498607  0.8126716229068336  0.3683886530342946
  0.1673222515868957  0.8126970431038671  0.3684499698700634
  0.2502324893641941  0.8754263262506754  0.4551531572500096
  0.0841365430417866  0.8127967713879372  0.4548274442676359
  0.4159606192800780  0.8127791941118900  0.4544592080465222
  0.9995283147868506  0.8753775605773555  0.5410578384355205
  0.3359112053593805  0.8138643011132345  0.5424925784910641
  0.0000111327485897  0.8750762877857596  0.1975282065213406
  0.3341462219135423  0.9375499448464168  0.2026890718513172
  0.1657599575760003  0.9375554279923151  0.2027700129990961
  0.2499406940252413  0.5000963412545190  0.2779019583943025
  0.0827249265120287  0.9376216895123619  0.2841030051659672
  0.4171371827165657  0.9375989692671283  0.2839922460784834
  0.0000905568777299  0.5001458730443034  0.3699430163485218
  0.3324057598764441  0.9376483402668683  0.3684368282786110
  0.1673596415182388  0.9376590861748468  0.3685077470847062
  0.2504052151061984  0.4998433151049895  0.4551280108212623
  0.0836544705863531  0.9377571446980895  0.4547938687527946
  0.4161248173805774  0.9376126692157527  0.4543633109157525
  0.9995966414752999  0.4999665521460059  0.5411180594726517
  0.3356030844297777  0.9378130232461999  0.5418016018487108
  0.1658876435255792  0.9382587848948560  0.5420336003530295
  0.5000146689828995  0.0000685827486890  0.1974844370188080
  0.8342404662634522  0.0626002572030373  0.2027718127692140
  0.6658384358015113  0.0625665340484360  0.2026740751395408
  0.7501092468382140  0.1251100428166438  0.2778933117018099
  0.5829230094829114  0.0625974239460945  0.2839737316543776
  0.9172273920268452  0.0626230576189002  0.2841108446117886
  0.4999988660669743  0.1251318740464384  0.3696353384474449
  0.8326931334258987  0.0626536843452357  0.3684117387956292
  0.6675119111884484  0.0626432393861407  0.3684142660640148
  0.7497091091932759  0.1254959245235980  0.4550370919082667
  0.5838787329021500  0.0626672250652263  0.4543078859444023
  0.9160361458680697  0.0626538299628692  0.4546625663335888
  0.5000565253020994  0.1250537600545769  0.5410158342856164
  0.6647733376843590  0.0630678272364378  0.5418290878802310
  0.5000126669718625  0.1251050052879066  0.1974589036526098
  0.8342357240318776  0.1875595070991878  0.2027511788389234
  0.6658499153942756  0.1875572044482468  0.2026679179221276
  0.7500427089063564  0.2501038902907879  0.2778979199444080
  0.5828746389667643  0.1876016534597440  0.2839917462667145
  0.9172697729323360  0.1876252576421678  0.2840931278329037
  0.5000010661062433  0.2501185158537993  0.3696026614713759
  0.8326361121010208  0.1876472244904406  0.3685012531151699
  0.6675323391366490  0.1876392258633501  0.3684435030873985
  0.7494833797103340  0.2497956745980403  0.4550325490490650
  0.5837305812713680  0.1876026831461388  0.4543058247927192
  0.9163686970093465  0.1876828368153483  0.4547393235622081
  0.8343281306100963  0.1876879487131689  0.5419227981787316
  0.6643230060039471  0.1873504767073229  0.5416462656668273
  0.5000134385026200  0.2500483486262937  0.1974759660309644
  0.8342438578712503  0.3126047378948300  0.2027697780501967
  0.6658308956492007  0.3125762739369549  0.2026760357715105
  0.7501061278720158  0.3751139434643420  0.2778952980392404
  0.5829255779429445  0.3126039211325704  0.2839786713780512
  0.9172278623143981  0.3126260523571531  0.2841138549943309
  0.4999363822700644  0.3751565937670307  0.3696627152336021
  0.8326896978695260  0.3126664310584744  0.3684147675378924
  0.6675109778235822  0.3126600795510086  0.3684182214228429
  0.7496951175165449  0.3755234685748121  0.4550285538796857
  0.5838646159246608  0.3126798808935689  0.4543161085443614
  0.9160353242941923  0.3126460649907372  0.4546638671119894
  0.5000474974553342  0.3749989656367418  0.5410122189822744
  0.6647710882380196  0.3129950022716059  0.5418304471041324
  0.5000189319919102  0.3750813399956883  0.1974705251307824
  0.8342387174573673  0.4375754314821023  0.2027690775427331
  0.6658501844693347  0.4375781827951570  0.2026909833726833
  0.7500396856480620  0.0000968952540887  0.2778956049974610
  0.5828525355179295  0.4376050088374868  0.2840046612790132
  0.9173005082267665  0.4376220205075469  0.2841025596911848
  0.4999546858438748  0.0001070395838028  0.3696295189398668
  0.8326480035748531  0.4376581405933209  0.3684956595233970
  0.6674925435585237  0.4376542100810354  0.3684571582612648
  0.7494733419605950  0.9997799778040104  0.4550122136243075
  0.5836831711557338  0.4375942672649700  0.4542960582150357
  0.9163937817536976  0.4376572433047698  0.4547584748635600
  0.8342983207373607  0.4375706484918851  0.5418898672839632
  0.6643600433063028  0.4372729475517403  0.5415804716965411
  0.5000059509436738  0.5000682621658967  0.1975006552361549
  0.8342523098201866  0.5626042334983623  0.2027972208705791
  0.6658388618688988  0.5625768679636707  0.2027018578143895
  0.7501069820138753  0.6251022178017394  0.2779164291939296
  0.5828869373904553  0.5625991927432281  0.2840035703321675
  0.9172812000916934  0.5626230860057859  0.2841415493346489
  0.4998567865708097  0.6250917889202015  0.3697302628520092
  0.8327344918699922  0.5626655768843918  0.3684182495417474
  0.6674559309864136  0.5626575303234276  0.3684304525793962
  0.7497368310411687  0.6255027989839022  0.4550292626299210
  0.5837833911074739  0.5626464119251509  0.4543534325839715
  0.9161525620732860  0.5626297454664027  0.4546575789854259
  0.5008121859924373  0.6248844514115746  0.5410196250620132
  0.6649409217951785  0.5630056302510766  0.5417863052035727
  0.5000178228637537  0.6250804644061532  0.1974959669834604
  0.8342588837084506  0.6875583877695490  0.2028119068823102
  0.6658430555926245  0.6875719677567460  0.2027318780774294
  0.7500395068417163  0.7501097355631430  0.2779157708813642
  0.5828193072231258  0.6876021206919916  0.2840351272324142
  0.9173430541955980  0.6876214688233802  0.2841305382034562
  0.4998684530149688  0.7501490399741542  0.3697080479568413
  0.8326610355439783  0.6876475927864618  0.3685060484332183
  0.6674623919339879  0.6876337706995059  0.3684715119052271
  0.7495015357284700  0.7497933863237236  0.4550176489595259
  0.5836125168604767  0.6876018483843680  0.4543709181457416
  0.9165581945264378  0.6876829069901049  0.4548112412807654
  0.8342695240909634  0.6877013007174284  0.5418842173516580
  0.6645676000462544  0.6873735548639530  0.5415864486607589
  0.5000125185140121  0.7500708817657795  0.1975107786588808
  0.8342538563939428  0.8125976220157511  0.2027947270794499
  0.6658333633219158  0.8125708768957693  0.2027028690023300
  0.7501018499593144  0.8751140588264690  0.2778904026780395
  0.5828810222873813  0.8126032442851567  0.2840070887895365
  0.9172801154337193  0.8126252276401189  0.2841397426302379
  0.4998785639792445  0.8751298728870509  0.3696974234503401
  0.8327343293341798  0.8126473728528509  0.3684143024205966
  0.6674423975518167  0.8126409750009245  0.3684318491281360
  0.7497174423273023  0.8755016746573219  0.4550224541464232
  0.5838005483238788  0.8126820476580718  0.4543541273828495
  0.9161551801447487  0.8126718028286817  0.4546559264841363
  0.5002880242227690  0.8751283127058969  0.5409972140966488
  0.6648833731101647  0.8130465818856081  0.5417722206721152
  0.5000053200704500  0.8750828588640758  0.1974816075280970
  0.8342490744263742  0.9375552542483732  0.2027630222143983
  0.6658515513788146  0.9375486135999580  0.2026864676301372
  0.7500369444136652  0.5001057438901384  0.2778985512133758
  0.5828557559374659  0.9376000524950712  0.2840010930745152
  0.9173007495190006  0.9376240905423856  0.2841012339196212
  0.4998836600902052  0.5000994204581986  0.3696625561697573
  0.8326486841401746  0.9376376215979718  0.3684926740262924
  0.6675000407117295  0.9376219408672952  0.3684417537504245
  0.7494727800068191  0.4997906147730760  0.4550233632389364
  0.5836882002744375  0.9376211911943955  0.4542989533711150
  0.9163858567992733  0.9377013921421380  0.4547279742553414
  0.8342710290230499  0.9378265468895108  0.5418745726970542
  0.6643740456635925  0.9374397677338706  0.5415826320341282
  0.4055927408045434  0.0000568306743247  0.2322662192413247
  0.2499310303447757  0.0000686462512434  0.1993668246952822
  0.0943032639300299  0.0000875867483643  0.2323747296885159
  0.1549887913695116  0.1251616475981834  0.3158324810208128
  0.9999893319026398  0.1251085280860949  0.3032182970072554
  0.3449845303190457  0.1251239667135948  0.3157540205294822
  0.4008831703336568  0.1251756475879802  0.4021837304766507
  0.2497915881726556  0.1251178866035687  0.3872325285272353
  0.0990013779537264  0.1251684682440697  0.4024474658208490
  0.1524047056494098  0.1250875963252938  0.4876870747086741
  0.0000014433386397  0.1249964747662986  0.4731588044108435
  0.3483856289503962  0.1252135805885928  0.4878605369646678
  0.4026337043325157  0.1253149071951540  0.5703034904393505
  0.2492706594020291  0.1238826224535217  0.5575777870906720
  0.0987922644816308  0.1231794841715583  0.5695753944178179
  0.4055957456452290  0.1250861979233591  0.2322336871415587
  0.2499679379124373  0.1250658804786724  0.1992935757566556
  0.0942890285267666  0.1251000562434328  0.2323851102571624
  0.1549627485574661  0.2501104288697817  0.3158062174209348
  0.9999897132743740  0.2501466350693136  0.3032135421413358
  0.3449493754750392  0.2501098414765366  0.3157768672920653
  0.4009227627418142  0.2500938115445237  0.4020948334273413
  0.2499130440792712  0.2501635866906540  0.3872172757626444
  0.0990456281988656  0.2501421350372794  0.4024492105017003
  0.1526183744006246  0.2502243714330845  0.4877306906360843
  0.9999959102354197  0.2503518648816794  0.4732442991703749
  0.3484012461776729  0.2500884567190553  0.4878248153532283
  0.4073677307943839  0.2498736514472455  0.5695732352227481
  0.2498870393444435  0.2512269844820523  0.5581051156910917
  0.0987892717664636  0.2520895503450262  0.5696458505246156
  0.4055824072560057  0.2500756985268069  0.2322595302426009
  0.2499330256040437  0.2500817146164778  0.1994029414542950
  0.0943033206229984  0.2501031575669614  0.2323732212621152
  0.1549929332329469  0.3751698421983107  0.3158527751382820
  0.0000030752201639  0.3751240005196408  0.3032442724499447
  0.3449710341004106  0.3751429041220078  0.3157622887929179
  0.4008220381599870  0.3751757394953898  0.4022065249469264
  0.2497828301537339  0.3751207886016061  0.3872505682020631
  0.0990453916813578  0.3751334401962581  0.4024780915635731
  0.1523966936561720  0.3749668934170458  0.4877445211827904
  0.0000090276297087  0.3749576930262890  0.4731655721955619
  0.3483320366670597  0.3751307213521500  0.4879078067383418
  0.4026380922347599  0.3751419421323874  0.5703544780718133
  0.2492543850699320  0.3737644556493649  0.5576571028144244
  0.0987547013085361  0.3729347959743450  0.5696525066183682
  0.4056059689291445  0.3751031197143320  0.2322390348645058
  0.2499585419477413  0.3750795531033120  0.1992617950060023
  0.0942794965575331  0.3751135006828292  0.2323934383769597
  0.1549741275923679  0.0000946681730269  0.3158163203401045
  0.0000089469314446  0.0001295884231354  0.3032310619553300
  0.3449373158430475  0.0000923381507363  0.3157908019738471
  0.4008774417188903  0.0000769649867252  0.4021241574420671
  0.2499044699293478  0.0001647185986329  0.3872316234572466
  0.0990795183681570  0.0001783602000600  0.4024694393575103
  0.1526473054675748  0.0003421190184554  0.4877657702609355
  0.0000154737295546  0.0003810004254774  0.4732411722428154
  0.3483726980070898  0.0001409434449187  0.4878769108834078
  0.4073348839312558  0.9999295585420853  0.5696076179302665
  0.2499440152417307  0.0012876378755777  0.5581546086948492
  0.0988279197823658  0.0023327393052170  0.5696687236595110
  0.4055916354983466  0.5000901189945495  0.2322878821857302
  0.2499194928116069  0.5000837592800167  0.1994197618676878
  0.0943087195819672  0.5001114279868943  0.2324075180837681
  0.1550237879659875  0.6251496974581201  0.3158920703979433
  0.0000411183541900  0.6251210566090961  0.3033156827817791
  0.3449260874649198  0.6251243909866417  0.3157713347962741
  0.4006872082404058  0.6251034616168454  0.4022328280415977
  0.2498199559267320  0.6251027439520485  0.3872263000980354
  0.0992002632817659  0.6250901571883247  0.4025367074317074
  0.1527148229104469  0.6244421780920320  0.4878995750652493
  0.0001342710596219  0.6249550804120787  0.4731585554881121
  0.3481582951927393  0.6246011223493610  0.4880743444129223
  0.4034889455769459  0.6248193188657680  0.5705367316225534
  0.2492350208323160  0.6252287077453502  0.5607195342565348
  0.0980198152968441  0.6227299964487756  0.5697430495923044
  0.4056149107404607  0.6250891443431073  0.2322708325966971
  0.2499530788834718  0.6250730779498568  0.1992733528996808
  0.0942807351147792  0.6250975004194288  0.2324364850379794
  0.1549990502694669  0.7501054161401086  0.3158591804930353
  0.0000436201916969  0.7501272654610602  0.3033130201975496
  0.3449046946015812  0.7501091877989552  0.3158004935047174
  0.4007300426426355  0.7501518629144570  0.4021645332339432
  0.2499420903284246  0.7501928605964139  0.3872138075245104
  0.0992539979369127  0.7502286053164724  0.4025508723863709
  0.1529511706971718  0.7508389756475538  0.4879728542821127
  0.0001451359763891  0.7503804969206485  0.4732346328971033
  0.3481944890034470  0.7506930533155511  0.4880850707616560
  0.4081017664352089  0.7502879267065055  0.5697917975492928
  0.2503124834790853  0.7491080370352350  0.5614573661013154
  0.0980709405876610  0.7525907943807937  0.5698174092064079
  0.4055996329107998  0.7500741821771513  0.2322988923968623
  0.2499233980643822  0.7500718386573269  0.1993796108890749
  0.0942975591512720  0.7500927369090746  0.2324242283429001
  0.1550141625127068  0.8751548514237655  0.3158771647458352
  0.0000274835781156  0.8751037968132280  0.3032739317765518
  0.3449494576224339  0.8751283342493821  0.3157786061642014
  0.4007444696086608  0.8751880307676316  0.4022693580178327
  0.2498005127496086  0.8751225109083833  0.3873420788952870
  0.0991365481404856  0.8751952957451365  0.4025536727511110
  0.1524566286768874  0.8752653958698673  0.4879532760597982
  0.0000405362569111  0.8750196986128458  0.4731594727558672
  0.3482071988704121  0.8751960369563534  0.4881308365680184
  0.4025850559689133  0.8753702907348497  0.5704799303437653
  0.2491202183092867  0.8736674930601893  0.5581967840934894
  0.0984737472742125  0.8734564916712060  0.5697961906899280
  0.4056092862305363  0.8750729599503657  0.2322644838919388
  0.2499494585402644  0.8750586782299123  0.1993140452945568
  0.0942966412496347  0.8750785079989996  0.2324159386932863
  0.1549830993209653  0.5001105871305072  0.3158489878374269
  0.0000271805021299  0.5001462217562320  0.3032751964307039
  0.3449117096481871  0.5001076007137755  0.3157953939931701
  0.4007911820652907  0.5000796848828912  0.4021665257471057
  0.2499134892574304  0.5001578416629826  0.3873192367313010
  0.0991721193793609  0.5001008006730245  0.4025480558585173
  0.1526492203823153  0.5000378216935175  0.4879811769259987
  0.0000436662561967  0.5003305142142906  0.4732635580888598
  0.3482340239689705  0.5000418615609448  0.4880311159642119
  0.4070893634206101  0.4998250780986169  0.5697299459996401
  0.2497981507888056  0.5013551868832593  0.5586200626779672
  0.0985883365615408  0.5018346328284906  0.5699082367105746
  0.9056874472283951  0.0000936843410457  0.2323779426147397
  0.7500663473328757  0.0000734698317615  0.1994026978649686
  0.5944248683359348  0.0000624839228891  0.2322772818195986
  0.6550301499724824  0.1251354074317845  0.3157648452225246
  0.5000025624080635  0.1250834734141719  0.3029836847827951
  0.8449910696676213  0.1251705131396932  0.3158389524059828
  0.9009815024876175  0.1251591307601956  0.4024626952997608
  0.7502041240314554  0.1251153563111203  0.3872372146988639
  0.5990947718244328  0.1251775328988174  0.4022026669016228
  0.6516034149823966  0.1252007875942596  0.4878618007517304
  0.4999867611244611  0.1250385954210671  0.4729880353048372
  0.8476112307081536  0.1250478523353920  0.4876837609212714
  0.9012190322790730  0.1231122881880324  0.5695505778038310
  0.7507472496334699  0.1238587305155576  0.5575680005764738
  0.5974133301676900  0.1252878162461855  0.5702814427473868
  0.9056982668263416  0.1251000952649832  0.2323857778125529
  0.7500316462272210  0.1250660698376223  0.1992972557276502
  0.5944185388083270  0.1250904363738883  0.2322449035865759
  0.6550685450377358  0.2501057370742004  0.3157895802877277
  0.5000072328786302  0.2501204546896219  0.3029663401812854
  0.8450150000834498  0.2501002646567514  0.3158095277331867
  0.9009420770161185  0.2501583173106212  0.4024571188528228
  0.7500747946045720  0.2501755610455874  0.3872219422701733
  0.5990594976636601  0.2501020290237506  0.4021111453123254
  0.6515703764378813  0.2501314998547670  0.4878403398637232
  0.4999755599264759  0.2502031694764000  0.4725209660064493
  0.8473821905914889  0.2502641300999642  0.4877207578397673
  0.9011902970957948  0.2521717111587947  0.5696168207498715
  0.7501016016866089  0.2512737854543872  0.5580968479261230
  0.5926014621077869  0.2499181745861918  0.5695841481554638
  0.9056810078836932  0.2501001365545079  0.2323752784110127
  0.7500627398984605  0.2500840128405386  0.1994008199700303
  0.5944329598808125  0.2500692675042586  0.2322702577249487
  0.6550269702385165  0.3751525295894496  0.3157728719655140
  0.4999882838664718  0.3751036510767989  0.3030070143148862
  0.8449946143673301  0.3751801569459374  0.3158404063178253
  0.9009927060781493  0.3751829479389386  0.4024623067936162
  0.7502016450236724  0.3751441909562772  0.3872409854939534
  0.5990636644528209  0.3751924251564489  0.4022017909650799
  0.6515702865946693  0.3752253245504562  0.4878455661046388
  0.4999298950329347  0.3750793515650699  0.4729976221401557
  0.8476034063072362  0.3750542472451528  0.4876694993412301
  0.9011988711093366  0.3730767559657266  0.5695399698331940
  0.7507187654636454  0.3738956632980077  0.5575393084315436
  0.5974042078874007  0.3753150522370490  0.5702582102182703
  0.9057000968525060  0.3751084689070794  0.2323969137855073
  0.7500393003062484  0.3750763473019205  0.1993121347570721
  0.5944164700263599  0.3751024417508972  0.2322557240670449
  0.6550633820896792  0.0000938396791312  0.3157907050821436
  0.4999888070187595  0.0000979625540793  0.3029874206031948
  0.8450227854680534  0.0000908487499274  0.3158059463725209
  0.9009519765135465  0.0001412526099642  0.4024488760824241
  0.7500723001921941  0.0001486527250378  0.3872123268105909
  0.5990380219314773  0.0000781223692883  0.4021064130932075
  0.6515637588742891  0.0001032836788113  0.4878189431635107
  0.4999375973982580  0.0001832917364339  0.4725209895145852
  0.8473808353319754  0.0002581253770586  0.4877007184176563
  0.9011949653420857  0.0022068258676669  0.5696001306937504
  0.7500707581060269  0.0012437188843037  0.5580645001163020
  0.5925786483389359  0.9999084695565870  0.5695547680095672
  0.9057049773763168  0.5001102212067607  0.2323994116920503
  0.7500670541292607  0.5000919545136284  0.1993598281936571
  0.5944151360594674  0.5000791389533816  0.2322943351725826
  0.6550180149675313  0.6251382080341230  0.3157893753507324
  0.4999619368992185  0.6250935489016953  0.3030753768882235
  0.8450147147583138  0.6251702514051800  0.3158582489749335
  0.9010642115900893  0.6251877576581109  0.4024712309960847
  0.7501987109127981  0.6251180063931088  0.3872549319861918
  0.5990272826209306  0.6251682845017541  0.4022267621408275
  0.6515906202538702  0.6252090404080519  0.4878407420542601
  0.4999051899127380  0.6250369953206274  0.4729946566091101
  0.8476690641576212  0.6250496230017291  0.4876510494961011
  0.9008349693892939  0.6230066262296532  0.5696952456169839
  0.7508146667331630  0.6238662448857184  0.5574333822550699
  0.5979311908650971  0.6252648709725221  0.5704549678312176
  0.9057327144700480  0.6251014516632623  0.2324285325617268
  0.7500424047864342  0.6250792462823611  0.1993415118555859
  0.5943974229223414  0.6251006295910457  0.2322872495005868
  0.6550576358656670  0.7501009376006067  0.3158131310098824
  0.4999632488726391  0.7501014628142286  0.3030592935419776
  0.8450345965451831  0.7500969018865078  0.3158272509903384
  0.9010277819651762  0.7501218846295856  0.4024664909670790
  0.7500656757241089  0.7501676731537543  0.3872313259102640
  0.5989886182531450  0.7500859022969237  0.4021398999237249
  0.6515741866008398  0.7501120708751827  0.4878176540799330
  0.4998934087272815  0.7501833305326286  0.4725496206203346
  0.8474339592706954  0.7502752794323939  0.4876903520943117
  0.9008235126858324  0.7522956180818525  0.5697527384815757
  0.7501324615933740  0.7512867099703868  0.5579821274246015
  0.5930216012160372  0.7499501396293908  0.5697438088939535
  0.9057160076193469  0.7500974269001119  0.2324173452440732
  0.7500720138642194  0.7500770664968357  0.1994235143934660
  0.5944051534569041  0.7500715308087322  0.2323137286208876
  0.6550243446299646  0.8751250972124680  0.3157722945105661
  0.4999747639109771  0.8750886403299916  0.3030393348036284
  0.8450016420702511  0.8751607654508433  0.3158391738389668
  0.9010331293053255  0.8751568016603528  0.4024523475132540
  0.7501983128142982  0.8750725690559804  0.3872398292633079
  0.5990283971284143  0.8751625007259136  0.4022089939979381
  0.6515961198539131  0.8752113590410389  0.4878168857265308
  0.4999061321066094  0.8750710986676964  0.4730022877382751
  0.8476299414173241  0.8750288325733138  0.4876484459002270
  0.9010559463415575  0.8732055045912830  0.5695707892880222
  0.7507437267897572  0.8738706194022114  0.5575130588047301
  0.5974390944361474  0.8753204514554724  0.5702457665576475
  0.9057178139601731  0.8750921705571173  0.2324047409448013
  0.7500444082799334  0.8750606950969981  0.1992653681938421
  0.5943977337314053  0.8750841846939466  0.2322695267504571
  0.6550574826290401  0.5001100216265613  0.3158009815926945
  0.4999762631079818  0.5001143508261237  0.3030199744757169
  0.8450274169476160  0.5001083907206407  0.3158150964363102
  0.9009997368814879  0.5001491878742357  0.4024613762722851
  0.7500769042669191  0.5002123298656755  0.3872242837530919
  0.5989904374300465  0.5001151237088592  0.4021260282118391
  0.6515581398296604  0.5001210922800539  0.4878103527566537
  0.4998774880597026  0.5001611908422703  0.4725566933586904
  0.8473940217892562  0.5002855726934001  0.4876884146777840
  0.9010927176276837  0.5020922037470470  0.5696314551418382
  0.7500917176292461  0.5012717022216790  0.5580534346034014
  0.5925474655793010  0.4998899678910362  0.5695404091367919
  0.1645761653684303  0.0628695626581077  0.5404003411963103
  0.1645720185828736  0.3124081555202949  0.5404255680363264
  0.1635818496935002  0.5614955504026895  0.5409822667132360
  0.1634297324013616  0.8137093290370245  0.5410076734553115
  0.8353735197524088  0.0626827245727739  0.5403677192043617
  0.4999845202088977  0.2500185011119314  0.5398148495221946
  0.8353572633169222  0.3125638564678255  0.5403676651448421
  0.5000393167897386  0.9999572615513799  0.5397998635110071
  0.8352207598829793  0.5625903678769077  0.5402936359273482
  0.5008250014120463  0.7500495700556655  0.5398034402368808
  0.8351918917595214  0.8126867502224400  0.5403021943994233
  0.5001689266009990  0.4999916556654398  0.5398157596600512
  0.2507524761554620  0.6863447244382002  0.6095468915784963
 
  0.00000000E+00  0.00000000E+00  0.00000000E+00
  0.00000000E+00  0.00000000E+00  0.00000000E+00
  0.00000000E+00  0.00000000E+00  0.00000000E+00
  0.00000000E+00  0.00000000E+00  0.00000000E+00
  0.00000000E+00  0.00000000E+00  0.00000000E+00
  0.00000000E+00  0.00000000E+00  0.00000000E+00