Ru Ta  N  Cu                            
   1.00000000000000     
    18.1096308199999996    0.0000000000000000    0.0000000000000000
     0.0000000000000000   23.3551997799999995    0.0000000000000000
     0.0000000000000000    0.0000000000000000   30.4818170799999990
   Ru   Ta   N    Cu
    64   240   240     3
Selective dynamics
Direct
  0.0687411226819746  0.0114845424870986  0.5332455385741646   T   T   T
  0.2867894121190918  0.5118451940920519  0.5259587332594809   T   T   T
  0.4432236882159827  0.0621586372638221  0.5196802137327617   T   T   T
  0.0663809980689365  0.2621300468348464  0.5322496288531005   T   T   T
  0.2869352977087042  0.2482589122677497  0.5244565996830129   T   T   T
  0.4440134521587387  0.3116030854799218  0.5201086263317726   T   T   T
  0.0674444291386527  0.1277247938183149  0.5331747683875829   T   T   T
  0.2860270420562117  0.1269963097278741  0.5246122458278712   T   T   T
  0.4495473542034864  0.1865266073890414  0.5215837406321084   T   T   T
  0.0711460304251571  0.3746523436155280  0.5344280225346929   T   T   T
  0.2715609952463512  0.3710048653607572  0.5290258160303722   T   T   T
  0.4322050300415857  0.4369144910385715  0.5189265866998516   T   T   T
  0.1756313128663883  0.4401068831434302  0.5506293804946542   T   T   T
  0.1830258789420031  0.3000816697124520  0.5559883834804302   T   T   T
  0.1775395286801273  0.1856070491557480  0.5484913350009397   T   T   T
  0.1882493433978688  0.0554871385170186  0.5526010127540821   T   T   T
  0.0662601330805380  0.5111836349408010  0.5335497236959051   T   T   T
  0.2902481673609636 -0.0014884745132815  0.5242075837789775   T   T   T
  0.4417598242657820  0.5625829625863059  0.5199337506197125   T   T   T
  0.0687823093323245  0.7635593428582832  0.5332664754860094   T   T   T
  0.2845787039588460  0.7495181803080241  0.5251224947796795   T   T   T
  0.4415849417932880  0.8114484324671467  0.5195038775417737   T   T   T
  0.0674545825233338  0.6242573434640520  0.5332005506625135   T   T   T
  0.2780876642388978  0.6298995154850608  0.5262600399380408   T   T   T
  0.4455736295713179  0.6883863112032108  0.5207454328716783   T   T   T
  0.0689225167954067  0.8755794545283166  0.5335723110201647   T   T   T
  0.2858384436384868  0.8778612196437530  0.5244293536223783   T   T   T
  0.4477460008141571  0.9366454200760627  0.5215167527633985   T   T   T
  0.1781367624913506  0.9379863615321099  0.5484367046301942   T   T   T
  0.1867784741285568  0.8113669860916570  0.5523799605390670   T   T   T
  0.1710516588700569  0.6887661965961172  0.5487429473255362   T   T   T
  0.1812451259147649  0.5579347164712768  0.5537126675276250   T   T   T
  0.5705202437323664  0.0050848044999177  0.5336626066072551   T   T   T
  0.7850232295265331  0.4953085875403685  0.5251612850807729   T   T   T
  0.9431647853540814  0.0579787009473648  0.5204415378205133   T   T   T
  0.5697107569364545  0.2459167847671121  0.5339733190437927   T   T   T
  0.7897793243666180  0.2458856691948829  0.5240237098042229   T   T   T
  0.9420496547072830  0.3124401599702508  0.5196715023900581   T   T   T
  0.5670342088013565  0.1161635375987676  0.5326194411509468   T   T   T
  0.7900794331841544  0.1228338223119201  0.5237360885561166   T   T   T
  0.9522344601010883  0.1899065635512871  0.5221399111630222   T   T   T
  0.5728649571527612  0.3554059804362602  0.5347722577589346   T   T   T
  0.7851148892786509  0.3795590834684336  0.5251800032877966   T   T   T
  0.9450648673374347  0.4375655568194117  0.5215340762852202   T   T   T
  0.6715444814508794  0.4360434202796890  0.5495423810136969   T   T   T
  0.6917337343334974  0.3135859419431369  0.5514468766670453   T   T   T
  0.6809700308635952  0.1866218358500774  0.5468197979412337   T   T   T
  0.6854507333631661  0.0708702794311704  0.5529180313780250   T   T   T
  0.5712206120791300  0.5191197624548242  0.5352949634765062   T   T   T
  0.7805294691080080  0.9997146889935808  0.5261991293301804   T   T   T
  0.9412164630307472  0.5606789081763395  0.5193409528848225   T   T   T
  0.5659151109303745  0.7581939810950428  0.5330219722739421   T   T   T
  0.7893716083770388  0.7537855181222601  0.5241911977356124   T   T   T
  0.9413489462475891  0.8117513943810833  0.5192090653227178   T   T   T
  0.5683174855426145  0.6283177108334265  0.5342404449037589   T   T   T
  0.7878845038360385  0.6299678936066302  0.5240496748854382   T   T   T
  0.9492285669306602  0.6888764834281201  0.5220804139070745   T   T   T
  0.5679328478404106  0.8694331309400825  0.5332170835213302   T   T   T
  0.7795145801200467  0.8759729502921139  0.5264437903994136   T   T   T
  0.9477539018845135  0.9375048913531507  0.5208935097167203   T   T   T
  0.6722284121983345  0.9370717803657937  0.5487272047245580   T   T   T
  0.6834208574333654  0.8050885261478770  0.5523629298984136   T   T   T
  0.6793515992871483  0.6891882932992727  0.5472293833389162   T   T   T
  0.6899108301746288  0.5615154899054520  0.5500537229490573   T   T   T
  0.9996246524628063  0.9999635445867767  0.1022212275957983   F   F   F
  0.3339438256838960  0.0624457813299060  0.1075563970202325   F   F   F
  0.1656734882889026  0.0624869619810369  0.1076523577670159   F   F   F
  0.2496380332605455  0.1248777014917124  0.1827535963680589   F   F   F
  0.0820753910794778  0.0624168821917976  0.1887361965005994   F   F   F
  0.4168249566545654  0.0624128089775482  0.1889653308070223   F   F   F
  0.0000944745378527  0.1249155415640711  0.2747443523738671   T   T   T
  0.3321470573265640  0.0624225404534882  0.2732297498654644   T   T   T
  0.1676865105805450  0.0624614369024333  0.2728260015312732   T   T   T
  0.2494665763865873  0.1249720334472831  0.3595787252984925   T   T   T
  0.0835875123411898  0.0625261435879372  0.3591173959689560   T   T   T
  0.4161973203163306  0.0624522883077634  0.3592224114109503   T   T   T
  0.4934454091622943  0.1249742493206309  0.4448064879260847   T   T   T
  0.3317178788723063  0.0623455211113949  0.4451917620767392   T   T   T
  0.1646375676192956  0.0626898790275098  0.4466253120586079   T   T   T
  0.9996175425524214  0.1249358288969233  0.1022184789678420   F   F   F
  0.3339435537114426  0.1874256191358299  0.1075504356733603   F   F   F
  0.1656688965935942  0.1874633245330628  0.1076544484778310   F   F   F
  0.2496428192825420  0.2499248694537357  0.1827745152021549   F   F   F
  0.0820483011947246  0.1874164370395803  0.1887315368489411   F   F   F
  0.4168235962087010  0.1874178821048673  0.1889761876915443   F   F   F
  0.0000996371150108  0.2499379004917201  0.2747665381459752   T   T   T
  0.3321645487696854  0.1874286075016025  0.2732555248657542   T   T   T
  0.1675603389899360  0.1874645103807656  0.2728651483712881   T   T   T
  0.2492861240230320  0.2501036025746642  0.3595717437363524   T   T   T
  0.0833688875282818  0.1875116554638593  0.3593887723162325   T   T   T
  0.4159808552696067  0.1874332294694523  0.3591473431418460   T   T   T
  0.4950826847103433  0.2494755597130055  0.4445192201663527   T   T   T
  0.3317346315810386  0.1876753219770863  0.4445461753270893   T   T   T
  0.1638470753137586  0.1877772525185628  0.4474173870028944   T   T   T
  0.9996247444640574  0.2499647011854407  0.1022230082490267   F   F   F
  0.3339438339619036  0.3124448417397900  0.1075557633545969   F   F   F
  0.1656741876920407  0.3124866150128511  0.1076519504247102   F   F   F
  0.2496342491082189  0.3748782083517597  0.1827543288382500   F   F   F
  0.0820773763724816  0.3124181279228466  0.1887355922833933   F   F   F
  0.4168238893201348  0.3124134579098339  0.1889644027201030   F   F   F
  0.0001532927579214  0.3749611955831197  0.2747582783311798   T   T   T
  0.3320611200756031  0.3124305499264375  0.2732204890525977   T   T   T
  0.1676416952444950  0.3124539357733599  0.2728696114909563   T   T   T
  0.2491619269452285  0.3749581358968457  0.3596511587370274   T   T   T
  0.0835174990578050  0.3125427004833403  0.3591981553855541   T   T   T
  0.4161017102469423  0.3124733285390738  0.3591353702438742   T   T   T
  0.4973540993814989  0.3748375429882334  0.4440441978028906   T   T   T
  0.3320764992969797  0.3123766855343055  0.4452609488072566   T   T   T
  0.1650949940911785  0.3128841128811765  0.4464416539528203   T   T   T
  0.9996196554118555  0.3749345235867736  0.1022175688270863   F   F   F
  0.3339389444248013  0.4374272239936090  0.1075500232538360   F   F   F
  0.1656692123176882  0.4374660331456823  0.1076535614342404   F   F   F
  0.2496367764464793  0.9999279799998888  0.1827742299965678   F   F   F
  0.0820476334098430  0.4374171254006285  0.1887298800136392   F   F   F
  0.4168193524269412  0.4374154383080295  0.1889763507298241   F   F   F
  0.5002714022032793  0.4998672296714952  0.2748217792449505   T   T   T
  0.3320806755623353  0.4374133261416867  0.2732485938211413   T   T   T
  0.1675486370327564  0.4374537125682202  0.2728945697179124   T   T   T
  0.2491628629498980  0.5000521261643370  0.3596715859051103   T   T   T
  0.0837343113970689  0.4375646255894599  0.3595380141716406   T   T   T
  0.4159843318968460  0.4374112421946936  0.3592135980925842   T   T   T
  0.4979086794092072  0.4996886490249874  0.4440281420042068   T   T   T
  0.3328310183470785  0.4372643936117290  0.4453916724114266   T   T   T
  0.1649749940032923  0.4378742518298193  0.4483527805757836   T   T   T
  0.9996246524628063  0.4999635445867767  0.1022212275957983   F   F   F
  0.3339438256838960  0.5624457813299060  0.1075563970202325   F   F   F
  0.1656734882889026  0.5624869619810369  0.1076523577670159   F   F   F
  0.2496380332605455  0.6248777014917124  0.1827535963680589   F   F   F
  0.0820753910794778  0.5624168821917976  0.1887361965005994   F   F   F
  0.4168249566545654  0.5624128089775482  0.1889653308070223   F   F   F
  0.0001347919229651  0.6248918989106770  0.2747925880065789   T   T   T
  0.3320629547774971  0.5623757446649310  0.2731936314231725   T   T   T
  0.1676369847555511  0.5624294779482976  0.2728933955174075   T   T   T
  0.2492256306204315  0.6248934206502189  0.3596576953130665   T   T   T
  0.0835845872729946  0.5625520828676974  0.3593451916350396   T   T   T
  0.4161306050227148  0.5623786616495526  0.3590714880251311   T   T   T
  0.4964072629605043  0.6251454814074989  0.4440102491048399   T   T   T
  0.3325207234101010  0.5623331255363354  0.4451236791664849   T   T   T
  0.1650999453721800  0.5625715942295286  0.4469655352366886   T   T   T
  0.9996175425524214  0.6249358288969233  0.1022184789678420   F   F   F
  0.3339435537114426  0.6874256191358228  0.1075504356733603   F   F   F
  0.1656688965935942  0.6874633245330557  0.1076544484778310   F   F   F
  0.2496428192825420  0.7499248694537357  0.1827745152021549   F   F   F
  0.0820483011947246  0.6874164370395732  0.1887315368489411   F   F   F
  0.4168235962087010  0.6874178821048602  0.1889761876915443   F   F   F
  0.0001350530413750  0.7499207772147757  0.2747707141052327   T   T   T
  0.3320924493989192  0.6873777097927101  0.2732205915876008   T   T   T
  0.1675939399385364  0.6873966388559484  0.2728767793823513   T   T   T
  0.2492035888834266  0.7499852069952759  0.3596491209435526   T   T   T
  0.0834732868449056  0.6874792517980076  0.3594684366263176   T   T   T
  0.4158985641709366  0.6873908336759991  0.3589460888805155   T   T   T
  0.4953212598786562  0.7497731047483178  0.4438997127321298   T   T   T
  0.3323305030702997  0.6871644144066855  0.4448024408489861   T   T   T
  0.1637518793260657  0.6877924582786700  0.4478577762780376   T   T   T
  0.9996247444640574  0.7499647011854407  0.1022230082490267   F   F   F
  0.3339438339619036  0.8124448417397900  0.1075557633545969   F   F   F
  0.1656741876920407  0.8124866150128511  0.1076519504247102   F   F   F
  0.2496342491082189  0.8748782083517597  0.1827543288382500   F   F   F
  0.0820773763724816  0.8124181279228466  0.1887355922833933   F   F   F
  0.4168238893201348  0.8124134579098339  0.1889644027201030   F   F   F
  0.0001542520583036  0.8749211344064313  0.2747411899004289   T   T   T
  0.3320723914231229  0.8123927662244838  0.2731948000497175   T   T   T
  0.1677003320983965  0.8123952815554535  0.2728194742705706   T   T   T
  0.2493123206917779  0.8748601436640652  0.3595983085500786   T   T   T
  0.0837069750636266  0.8124840432824620  0.3591127572966873   T   T   T
  0.4160740132093456  0.8123586469676707  0.3590612734814279   T   T   T
  0.4947996770206147  0.8749581866059046  0.4444278387181053   T   T   T
  0.3319919817863283  0.8122265034930732  0.4451512786439168   T   T   T
  0.1652406254145762  0.8126941023771690  0.4469645457993884   T   T   T
  0.9996196554118555  0.8749345235867736  0.1022175688270863   F   F   F
  0.3339389444248013  0.9374272239936019  0.1075500232538360   F   F   F
  0.1656692123176882  0.9374660331456752  0.1076535614342404   F   F   F
  0.2496367764464793  0.4999279799998888  0.1827742299965678   F   F   F
  0.0820476334098430  0.9374171254006214  0.1887298800136392   F   F   F
  0.4168193524269412  0.9374154383080224  0.1889763507298241   F   F   F
  0.5001346535383226  0.9999175334061718  0.2747591358831605   T   T   T
  0.3321594682787563  0.9374073448000675  0.2732544216044709   T   T   T
  0.1676952476368380  0.9374262425402120  0.2728053698518024   T   T   T
  0.2494475236856684  0.0000339766815045  0.3595528788951770   T   T   T
  0.0837481298565702  0.9375082034923156  0.3592027008796410   T   T   T
  0.4160883283109542  0.9374091244212790  0.3590493140144677   T   T   T
  0.4945118430048802  0.9995963528978247  0.4448795825567505   T   T   T
  0.3317356038532613  0.9373875290508606  0.4441068707907910   T   T   T
  0.1642892001544181  0.9377679321396838  0.4476735406318074   T   T   T
  0.4996261485864011  0.9999638794554073  0.1022212895025945   F   F   F
  0.8339437371848675  0.0624482785398897  0.1075580759875550   F   F   F
  0.6656689243728380  0.0624780056916450  0.1076592327669417   F   F   F
  0.7496377014008289  0.1248750966894079  0.1827574333080477   F   F   F
  0.5820735458319604  0.0624174442172745  0.1887352315057669   F   F   F
  0.9168252921289621  0.0624138005358219  0.1889639379559043   F   F   F
  0.5001352032701336  0.1249035395969703  0.2747716636297301   T   T   T
  0.8321012197432538  0.0624034382466046  0.2732175361759681   T   T   T
  0.6676865533258296  0.0623946500169860  0.2728528190604515   T   T   T
  0.7495330442099455  0.1246524814173370  0.3596626454184945   T   T   T
  0.5835504785739811  0.0623584838315428  0.3591764319118400   T   T   T
  0.9161289847179981  0.0623105347201221  0.3591301102380215   T   T   T
  0.9939197994017213  0.1246966083978057  0.4450628333472281   T   T   T
  0.8327043304733110  0.0620778990691127  0.4452946430659031   T   T   T
  0.6652427463065879  0.0622115161926886  0.4466465240469034   T   T   T
  0.4996213536236240  0.1249348955726433  0.1022183024833154   F   F   F
  0.8339388961320680  0.1874236234033546  0.1075519903559652   F   F   F
  0.6656669566206190  0.1874574838225769  0.1076541056651124   F   F   F
  0.7496375557706187  0.2499211919418656  0.1827775726101990   F   F   F
  0.5820467926301731  0.1874136002736648  0.1887331258771638   F   F   F
  0.9168211714113710  0.1874148173649246  0.1889752459503455   F   F   F
  0.5001824747224574  0.2499512349669852  0.2747924844536107   T   T   T
  0.8321612445629767  0.1874004656449268  0.2733028177874616   T   T   T
  0.6676292759275541  0.1873914000915399  0.2728832090244224   T   T   T
  0.7493710999246815  0.2498412707536131  0.3597275781049190   T   T   T
  0.5835433423398444  0.1873143295677194  0.3594290760580526   T   T   T
  0.9160572874713926  0.1873648658476224  0.3591958080233061   T   T   T
  0.9933781953939284  0.2496533854310917  0.4448287089782901   T   T   T
  0.8319591248166350  0.1869620900906215  0.4444560486491519   T   T   T
  0.6644255264629886  0.1869221598805038  0.4476505828243114   T   T   T
  0.4996265847195431  0.2499624135589542  0.1022211658925301   F   F   F
  0.8339432913754052  0.3124470264806618  0.1075580597257542   F   F   F
  0.6656786166489255  0.3124812578813660  0.1076589101753385   F   F   F
  0.7496359798815462  0.3748756411498491  0.1827578042801292   F   F   F
  0.5820751330297256  0.3124154754956550  0.1887345581865603   F   F   F
  0.9168256971425777  0.3124110138011744  0.1889624020058491   F   F   F
  0.5002234611347741  0.3749421644356502  0.2748181885027688   T   T   T
  0.8320939846868614  0.3123992635149608  0.2732584290123833   T   T   T
  0.6676819625173128  0.3123939832393650  0.2729029842682026   T   T   T
  0.7490189702624345  0.3748338996138597  0.3597789376589310   T   T   T
  0.5837843951105690  0.3123368342130663  0.3593738669711457   T   T   T
  0.9161746916507921  0.3123927500283397  0.3591969036754590   T   T   T
  0.9958088885648051  0.3750204728725496  0.4446931819220850   T   T   T
  0.8317145260111747  0.3125913341938375  0.4451653638224734   T   T   T
  0.6649764230759173  0.3121575500250354  0.4474750982826607   T   T   T
  0.4996231203952064  0.3749337364865255  0.1022171720136171   F   F   F
  0.8339311317052278  0.4374224703005467  0.1075522038351053   F   F   F
  0.6656706818776428  0.4374574332997483  0.1076540871022118   F   F   F
  0.7496383104150084  0.9999213865668750  0.1827756388646549   F   F   F
  0.5820474546648100  0.4374150382907018  0.1887310280212660   F   F   F
  0.9168210958579976  0.4374163027642837  0.1889749839040178   F   F   F
  0.0001617112794842  0.4999374863411891  0.2747849741325141   T   T   T
  0.8321378538899343  0.4374078543076667  0.2733262149490626   T   T   T
  0.6677131140364823  0.4374040327613224  0.2729472397771064   T   T   T
  0.7490240999394152  0.4999372574161874  0.3598787555385806   T   T   T
  0.5836900840746747  0.4373914475797679  0.3597087144948023   T   T   T
  0.9161594912535868  0.4374319914841134  0.3590110185788559   T   T   T
  0.9956878153099377  0.4992912573067002  0.4444053635993769   T   T   T
  0.8321967099811101  0.4373903707626579  0.4440232955481365   T   T   T
  0.6632447605406668  0.4373740732754665  0.4489275895744953   T   T   T
  0.4996261485864011  0.4999638794554073  0.1022212895025945   F   F   F
  0.8339437371848675  0.5624482785398897  0.1075580759875550   F   F   F
  0.6656689243728380  0.5624780056916450  0.1076592327669417   F   F   F
  0.7496377014008289  0.6248750966894079  0.1827574333080477   F   F   F
  0.5820735458319604  0.5624174442172745  0.1887352315057669   F   F   F
  0.9168252921289621  0.5624138005358219  0.1889639379559043   F   F   F
  0.5002285516301986  0.6248721649269647  0.2747853576357916   T   T   T
  0.8321086530034457  0.5623908203846566  0.2733080080326570   T   T   T
  0.6677269442549107  0.5623984269437923  0.2729039192773269   T   T   T
  0.7493603068347974  0.6248993498963602  0.3598423362124502   T   T   T
  0.5839127128595627  0.5624551277669115  0.3593831365207838   T   T   T
  0.9161739996451567  0.5624444854991614  0.3593192935158601   T   T   T
  0.9934373201015719  0.6249201925838401  0.4452423421724938   T   T   T
  0.8320204282319779  0.5620879440883295  0.4456265805179515   T   T   T
  0.6651152701579243  0.5624984321683915  0.4478775664007414   T   T   T
  0.4996213536236240  0.6249348955726433  0.1022183024833154   F   F   F
  0.8339388961320680  0.6874236234033475  0.1075519903559652   F   F   F
  0.6656669566206190  0.6874574838225698  0.1076541056651124   F   F   F
  0.7496375557706187  0.7499211919418656  0.1827775726101990   F   F   F
  0.5820467926301731  0.6874136002736577  0.1887331258771638   F   F   F
  0.9168211714113710  0.6874148173649175  0.1889752459503455   F   F   F
  0.5002015374940526  0.7498729830719922  0.2747578562264522   T   T   T
  0.8321721620753645  0.6873871872584527  0.2733062772361206   T   T   T
  0.6677396357314339  0.6873864729685785  0.2728504174954224   T   T   T
  0.7494220352434241  0.7501136657403010  0.3596885342109656   T   T   T
  0.5837118486554952  0.6874314306565085  0.3593113969522359   T   T   T
  0.9160682779537662  0.6874177520081568  0.3591941767625367   T   T   T
  0.9954283595920755  0.7495799777109798  0.4442760290480377   T   T   T
  0.8317110921795657  0.6876361805874510  0.4444494937822910   T   T   T
  0.6645044814089666  0.6878170247849600  0.4479049411906822   T   T   T
  0.4996265847195431  0.7499624135589542  0.1022211658925301   F   F   F
  0.8339432913754052  0.8124470264806618  0.1075580597257542   F   F   F
  0.6656786166489255  0.8124812578813660  0.1076589101753385   F   F   F
  0.7496359798815462  0.8748756411498491  0.1827578042801292   F   F   F
  0.5820751330297256  0.8124154754956550  0.1887345581865603   F   F   F
  0.9168256971425777  0.8124110138011744  0.1889624020058491   F   F   F
  0.5001569850138891  0.8748986878836296  0.2747474112437593   T   T   T
  0.8321055050449965  0.8123887376448663  0.2732089127177302   T   T   T
  0.6677248009776066  0.8124122371030674  0.2728374192471826   T   T   T
  0.7493586239204049  0.8748700569916961  0.3596844397578564   T   T   T
  0.5836680287594146  0.8124709268892176  0.3591037165840374   T   T   T
  0.9160558157615596  0.8125124106477652  0.3591054671151586   T   T   T
  0.9960777706521339  0.8748639000062284  0.4439228215668081   T   T   T
  0.8327814551330192  0.8126976458384416  0.4453716270809117   T   T   T
  0.6653198050661461  0.8125143886044648  0.4468742079002850   T   T   T
  0.4996231203952064  0.8749337364865255  0.1022171720136171   F   F   F
  0.8339311317052278  0.9374224703005396  0.1075522038351053   F   F   F
  0.6656706818776428  0.9374574332997412  0.1076540871022118   F   F   F
  0.7496383104150084  0.4999213865668750  0.1827756388646549   F   F   F
  0.5820474546648100  0.9374150382906947  0.1887310280212660   F   F   F
  0.9168210958579976  0.9374163027642766  0.1889749839040178   F   F   F
  0.0001455866535396  0.9999179786213723  0.2747405551391930   T   T   T
  0.8320885083576791  0.9374013806888106  0.2731944338973076   T   T   T
  0.6676771445499955  0.9374030285470307  0.2728313733672172   T   T   T
  0.7493836987104870 -0.0001068015738190  0.3596791546020587   T   T   T
  0.5835038766901480  0.9374022132451055  0.3593195704142705   T   T   T
  0.9159339548243941  0.9373972112699261  0.3589598268826626   T   T   T
  0.9958333206020374  0.9993323452101410  0.4437983319327115   T   T   T
  0.8319850235949686  0.9372815504201656  0.4452058727807342   T   T   T
  0.6642219951816410  0.9373807767090682  0.4478696850939133   T   T   T
  0.4054220745019208  0.9999222115495812  0.1371706404740110   F   F   F
  0.2498130538845231  0.9999469596221715  0.1043552466225179   F   F   F
  0.0938777968594522  0.9999465964224399  0.1371098030237761   F   F   F
  0.1543635830516692  0.1248899271375592  0.2204647086472562   F   F   F
  0.9995670073461937  0.1248966516782701  0.2080976692853085   F   F   F
  0.3446973568903360  0.1248674306196307  0.2206598414842134   F   F   F
  0.4005396847854633  0.1249171062049565  0.3069355496912798   T   T   T
  0.2496585848442470  0.1249711673030245  0.2919622396541101   T   T   T
  0.0993235939945156  0.1250341599627081  0.3070793845576979   T   T   T
  0.1518251287181056  0.1251667400775629  0.3932105715128751   T   T   T
  0.4995592454557050  0.1249127897121477  0.3767977722818953   T   T   T
  0.3479302096983955  0.1248278602268753  0.3925773619731686   T   T   T
  0.3954958719327343  0.1262751391287675  0.4813049844550841   T   T   T
  0.2496176079113270  0.1249925500564406  0.4630403357075688   T   T   T
  0.0946475874983810  0.1246365683936418  0.4720137811447557   T   T   T
  0.4054214644049878  0.1249282036816339  0.1371697875501496   F   F   F
  0.2498118312390858  0.1249501818115135  0.1042602234590362   F   F   F
  0.0938664600244081  0.1249385922007349  0.1371069089706722   F   F   F
  0.1543560911150905  0.2498790211591952  0.2204709660202369   F   F   F
  0.9995706735895027  0.2499094862395950  0.2080999580462830   F   F   F
  0.3447055266517580  0.2498932390428195  0.2206623926809286   F   F   F
  0.4005286926422027  0.2499551236564234  0.3069187559041416   T   T   T
  0.2496386635122536  0.2499361863016095  0.2919719473957038   T   T   T
  0.0993378205430290  0.2499692776090452  0.3071258393418541   T   T   T
  0.1516438180040898  0.2501366600135192  0.3934015979589367   T   T   T
  0.4995868293652245  0.2497774293059991  0.3766096930353863   T   T   T
  0.3477499459304692  0.2504084655250093  0.3925865952640116   T   T   T
  0.3982006434131654  0.2489077210497951  0.4801392950474987   T   T   T
  0.2499135259928794  0.2500248618417519  0.4631533938010237   T   T   T
  0.0941365637213255  0.2515814441081034  0.4722436368449008   T   T   T
  0.4054229972694188  0.2499207711709062  0.1371716336629376   F   F   F
  0.2498138581555835  0.2499451823925298  0.1043557657097551   F   F   F
  0.0938776901322669  0.2499459403779412  0.1371098843944125   F   F   F
  0.1543617400249389  0.3748920346981564  0.2204674382050342   F   F   F
  0.9995672189247742  0.3748993922795947  0.2080981530608312   F   F   F
  0.3446956533108718  0.3748674624887514  0.2206599019871973   F   F   F
  0.4004995802059030  0.3749484958875681  0.3069381900806974   T   T   T
  0.2496031119259959  0.3749697273195871  0.2919963291079284   T   T   T
  0.0993977628535794  0.3749856487973647  0.3071505208217610   T   T   T
  0.1518122859980214  0.3752266346418511  0.3936121637222560   T   T   T
  0.4997007814097317  0.3747628494326287  0.3762376268934945   T   T   T
  0.3473227511923594  0.3751757970726786  0.3927657184336827   T   T   T
  0.4014157400958980  0.3732030065141824  0.4779881134057964   T   T   T
  0.2501741841208447  0.3748665640205731  0.4644635458562298   T   T   T
  0.0955676484139270  0.3745060549714183  0.4732643521993681   T   T   T
  0.4054204481464510  0.3749288137657416  0.1371674470345781   F   F   F
  0.2498106243523637  0.3749504007233213  0.1042578114000037   F   F   F
  0.0938682935435935  0.3749385903486697  0.1371059653233644   F   F   F
  0.1543531827738107  0.9998787448957458  0.2204712064644667   F   F   F
  0.9995677263797802  0.9999081653989563  0.2081008624749074   F   F   F
  0.3447067510723798  0.9998918897834912  0.2206650007889195   F   F   F
  0.4005239432830440  0.4998564907138572  0.3069065303096004   T   T   T
  0.2496161361678348  0.4999183337312941  0.2920217490025997   T   T   T
  0.0994883835031317  0.5000163916134174  0.3071996344230132   T   T   T
  0.1519115292307646  0.5000821891714456  0.3938292659190119   T   T   T
  0.4997721290798008  0.5000076582462145  0.3762100209907457   T   T   T
  0.3479862078684739  0.0002225696607250  0.3924580333521556   T   T   T
  0.4017084807714577  0.5006315380507120  0.4774749512081790   T   T   T
  0.2511715618578235  0.5005283948797143  0.4641031156261974   T   T   T
  0.0949304125066403  0.0011753708764704  0.4726258671721394   T   T   T
  0.4054220745019208  0.4999222115495883  0.1371706404740110   F   F   F
  0.2498130538845231  0.4999469596221715  0.1043552466225179   F   F   F
  0.0938777968594522  0.4999465964224399  0.1371098030237761   F   F   F
  0.1543635830516692  0.6248899271375592  0.2204647086472562   F   F   F
  0.9995670073461937  0.6248966516782701  0.2080976692853085   F   F   F
  0.3446973568903360  0.6248674306196307  0.2206598414842134   F   F   F
  0.4004960289873553  0.6248181740753864  0.3068196143539140   T   T   T
  0.2496106803393875  0.6249133804904418  0.2920150944912098   T   T   T
  0.0993463408035836  0.6249529123932304  0.3071854863420621   T   T   T
  0.1516711787990097  0.6251100789145072  0.3935895954725145   T   T   T
  0.4996996806516272  0.6249931010456788  0.3761779566599206   T   T   T
  0.3478064371448304  0.6248501244786199  0.3924494624188268   T   T   T
  0.4003339259680433  0.6260327811177937  0.4788614462129349   T   T   T
  0.2498869496317838  0.6254705653064146  0.4635373374694051   T   T   T
  0.0941255034416223  0.6243705883656376  0.4724639837758878   T   T   T
  0.4054214644049878  0.6249282036816339  0.1371697875501496   F   F   F
  0.2498118312390858  0.6249501818115135  0.1042602234590362   F   F   F
  0.0938664600244081  0.6249385922007349  0.1371069089706722   F   F   F
  0.1543560911150905  0.7498790211591952  0.2204709660202369   F   F   F
  0.9995706735895027  0.7499094862395950  0.2080999580462830   F   F   F
  0.3447055266517580  0.7498932390428195  0.2206623926809286   F   F   F
  0.4004766829067265  0.7499106038318556  0.3068021311963210   T   T   T
  0.2496200030250320  0.7498850338400770  0.2920055712846626   T   T   T
  0.0994232275490697  0.7498951784585490  0.3071005336648004   T   T   T
  0.1516715397551536  0.7500424973492920  0.3935925919154885   T   T   T
  0.4996568562253550  0.7498841687249297  0.3761248235610676   T   T   T
  0.3476907970346189  0.7499371392511381  0.3925006732946329   T   T   T
  0.3986913354940373  0.7486813493537809  0.4790435139926708   T   T   T
  0.2502125856801781  0.7498417580448021  0.4632966261386237   T   T   T
  0.0946251179783788  0.7515267594567326  0.4730908546130063   T   T   T
  0.4054229972694188  0.7499207711709062  0.1371716336629376   F   F   F
  0.2498138581555835  0.7499451823925369  0.1043557657097551   F   F   F
  0.0938776901322669  0.7499459403779412  0.1371098843944125   F   F   F
  0.1543617400249389  0.8748920346981564  0.2204674382050342   F   F   F
  0.9995672189247742  0.8748993922795947  0.2080981530608312   F   F   F
  0.3446956533108718  0.8748674624887514  0.2206599019871973   F   F   F
  0.4005269868869306  0.8748864016891201  0.3068459786322775   T   T   T
  0.2496517947513320  0.8749065495662780  0.2919631035024988   T   T   T
  0.0995085404623511  0.8749302118691904  0.3069839052070405   T   T   T
  0.1517113756135709  0.8751249926211219  0.3934570376998451   T   T   T
  0.4996633353797532  0.8749563187925292  0.3764835261498665   T   T   T
  0.3479611349081409  0.8745360484054407  0.3923915199701258   T   T   T