Ta  N Cu                                
   1.00000000000000     
    18.1096308199999996    0.0000000000000000    0.0000000000000000
     0.0000000000000000   23.3551997799999995    0.0000000000000000
     0.0000000000000000    0.0000000000000000   30.4818170799999990
   Ta   N    Cu
   240   240    29
Selective dynamics
Direct
  0.9967484251564684  0.9992329853664828  0.1949655751952974   F   F   F
  0.3278825537096210  0.0581367324103468  0.2013597150029227   F   F   F
  0.1685821224267201  0.0580911322865987  0.2013736905477188   F   F   F
  0.2482132874313336  0.1240121269474344  0.2800145075865643   F   F   F
  0.0809672496680989  0.0616821099185643  0.2828807409141518   F   F   F
  0.4153285660408628  0.0617189753707166  0.2828976362323843   F   F   F
  0.9982467991581103  0.1239145897813430  0.3686712629534625   F   F   F
  0.3307897913293871  0.0615477501173416  0.3679287875314543   F   F   F
  0.1657402643838068  0.0614812552890101  0.3678585161301697   F   F   F
  0.2484695046919825  0.1240208188020020  0.4552824053624320   F   F   F
  0.0820996305655228  0.0613832471357227  0.4539077169739372   F   F   F
  0.4145342373136245  0.0614878919267383  0.4539515791884696   F   F   F
  0.9987582397331281  0.1240266419164016  0.5402616240619480   F   F   F
  0.3335864248170211  0.0614557363465238  0.5422559933556315   F   F   F
  0.1634507643706868  0.0615906955859913  0.5420724084996067   F   F   F
  0.0000038200668300  0.1240270272695554  0.1949384770732294   F   F   F
  0.3278640552651524  0.1900472289601609  0.2013793988688306   F   F   F
  0.1686137078304029  0.1900807546849421  0.2014137144083961   F   F   F
  0.2481766770770619  0.2488708319668262  0.2806475407141278   F   F   F
  0.0808954094404868  0.1862965010355424  0.2828822828169777   F   F   F
  0.4153101780348720  0.1863315253559321  0.2828931417496747   F   F   F
  0.9981463553656269  0.2487999269856829  0.3687858558594854   F   F   F
  0.3307527392212180  0.1864108652895453  0.3679885936773672   F   F   F
  0.1657230912010377  0.1863878725510943  0.3678331567495903   F   F   F
  0.2484088187502849  0.2487613488528240  0.4552421190502045   F   F   F
  0.0820754445396261  0.1862211430845662  0.4537947315836348   F   F   F
  0.4146046418410663  0.1862882801681636  0.4541463510416150   F   F   F
  0.9984093093732085  0.2490380324205503  0.5399772906189213   F   F   F
  0.3325299151515253  0.1853910923814013  0.5423783941951257   F   F   F
  0.1626126467883466  0.1864979979203554  0.5418618239408417   F   F   F
  0.9967325772353846  0.2488392330078355  0.1950234129546189   F   F   F
  0.3279095006973733  0.3081054783424335  0.2013491841346635   F   F   F
  0.1684748866680650  0.3080308054637442  0.2013916028656908   F   F   F
  0.2480589496633385  0.3739313335901571  0.2799980387520904   F   F   F
  0.0808424541920090  0.3114852824435985  0.2828738187546378   F   F   F
  0.4152705858417960  0.3115328093331371  0.2828737531417502   F   F   F
  0.9982924654672800  0.3738916422148435  0.3688539948419631   F   F   F
  0.3308590362528463  0.3113789677889045  0.3679423037860445   F   F   F
  0.1656137018921271  0.3113952810726062  0.3677528793831328   F   F   F
  0.2478352013141674  0.3738794821818487  0.4548119281608152   F   F   F
  0.0819535756831087  0.3112403691029328  0.4537366969856507   F   F   F
  0.4145455020380169  0.3112711973556088  0.4539535147686138   F   F   F
  0.9998411441940149  0.3738541345074324  0.5395025157732505   F   F   F
  0.3290821364187266  0.3103186899821040  0.5406009411037402   F   F   F
  0.1617132910719405  0.3108875996949436  0.5415090890637941   F   F   F
  0.0002026093207803  0.3736457868997931  0.1950910598404505   F   F   F
  0.3277023181193712  0.4399696896962269  0.2012770099596679   F   F   F
  0.1686544044082297  0.4400228256150669  0.2013914060270352   F   F   F
  0.2481856778127280  0.9991377603193428  0.2806413074899297   F   F   F
  0.0806922578668008  0.4362452514204094  0.2828835294618202   F   F   F
  0.4152751690384804  0.4362734250179869  0.2827619815898430   F   F   F
  0.9983280266560399  0.9990364552557054  0.3686703443730508   F   F   F
  0.3307128157127153  0.4364379279996058  0.3677279792927592   F   F   F
  0.1653024310519911  0.4364512440920763  0.3677086562977294   F   F   F
  0.2484608352717359  0.9991049624838624  0.4553264316091727   F   F   F
  0.0820081322894666  0.4365333671318297  0.4542014002532682   F   F   F
  0.4141650414936535  0.4364122806060635  0.4534279227424562   F   F   F
  0.9985172629819488  0.9990470738760706  0.5403425247508267   F   F   F
  0.3291846785422194  0.4357344444004596  0.5397664764150605   F   F   F
  0.1608215003910303  0.4354197821381263  0.5417021221754510   F   F   F
  0.9976008445212443  0.4988353818311921  0.1947350443190814   F   F   F
  0.3277226940179006  0.5581179832665057  0.2013364880411501   F   F   F
  0.1686368446907949  0.5579685946921060  0.2014146657952480   F   F   F
  0.2479569597322140  0.6240954107565315  0.2798782624280491   F   F   F
  0.0805801075960275  0.5616076130178129  0.2828329091199961   F   F   F
  0.4153731279652888  0.5616585224517365  0.2827160525693984   F   F   F
  0.9984227828670882  0.6239970172500904  0.3689372575947516   F   F   F
  0.3307358421346294  0.5616335173134601  0.3676473738618711   F   F   F
  0.1654065745333639  0.5615486539845804  0.3677354919682472   F   F   F
  0.2477493906195463  0.6242359790253076  0.4546251938862440   F   F   F
  0.0824777719019210  0.5615128161408549  0.4546363808833647   F   F   F
  0.4137400190248570  0.5617634241448570  0.4533956083959296   F   F   F
  0.9979264171438231  0.6237122412660412  0.5402437117439689   F   F   F
  0.3307266205220216  0.5618570649623464  0.5394233866323006   F   F   F
  0.1595195964353735  0.5614277387268842  0.5428271207249153   F   F   F
  0.0008227666343998  0.6241105251637435  0.1950450652071183   F   F   F
  0.3277811711901037  0.6900706973956758  0.2013106365639246   F   F   F
  0.1686277887358969  0.6901343663008461  0.2014092855385670   F   F   F
  0.2480290208367677  0.7491680295958503  0.2804790140155262   F   F   F
  0.0806749190263147  0.6865015992597066  0.2828380597315743   F   F   F
  0.4153985840336389  0.6865539216552179  0.2827377704347782   F   F   F
  0.9983781657234232  0.7491360452837057  0.3687130911685159   F   F   F
  0.3306293794452984  0.6866834003164328  0.3676972724619461   F   F   F
  0.1655076809566864  0.6865669380285624  0.3677612122197047   F   F   F
  0.2481782784349420  0.7491718831274312  0.4552113794129511   F   F   F
  0.0823335944735746  0.6865852208950756  0.4542029421561011   F   F   F
  0.4140358836978209  0.6869259587211261  0.4536589129088782   F   F   F
  0.9981668417026270  0.7489947063086078  0.5399652506542765   F   F   F
  0.3307281666606627  0.6882939196163846  0.5407148122680070   F   F   F
  0.1609731876356406  0.6875185462446964  0.5423839384840221   F   F   F
  0.9975980283401498  0.7493139071748089  0.1946506989536729   F   F   F
  0.3277710660696940  0.8082074303712048  0.2012476481930250   F   F   F
  0.1687063657104417  0.8081356690497117  0.2013215611095092   F   F   F
  0.2481457543042254  0.8741976601494983  0.2799929537533998   F   F   F
  0.0808713338530680  0.8118137793124873  0.2828588918229968   F   F   F
  0.4153433095771959  0.8118671721334323  0.2827951489039009   F   F   F
  0.9983655757373384  0.8741241433302775  0.3686361272528202   F   F   F
  0.3306642227839731  0.8116679017335287  0.3677885727933088   F   F   F
  0.1656476617230140  0.8115763161328857  0.3678065179177281   F   F   F
  0.2482606103176224  0.8741869987121120  0.4551125664061004   F   F   F
  0.0820637932805752  0.8116980449139177  0.4538620504050357   F   F   F
  0.4143477067303323  0.8119510078538923  0.4537772129429740   F   F   F
  0.9984651912412659  0.8740033565236303  0.5402623786101373   F   F   F
  0.3320569623848328  0.8133865768199371  0.5417812841228411   F   F   F
  0.1628014413603580  0.8119422731823036  0.5419382629534510   F   F   F
  0.0002528488871789  0.8744730163896719  0.1950101919580192   F   F   F
  0.3279763159743965  0.9401535934966887  0.2012991215023732   F   F   F
  0.1685214917042686  0.9401396779659663  0.2013535473916050   F   F   F
  0.2479035627298316  0.4990320832100394  0.2804684503408197   F   F   F
  0.0809792874618083  0.9365027576741198  0.2828721784324841   F   F   F
  0.4153004594491208  0.9365566642992746  0.2828537412114116   F   F   F
  0.9982808694274610  0.4989412683157113  0.3690074961895959   F   F   F
  0.3307419714699620  0.9366247433572568  0.3678450982949073   F   F   F
  0.1657359572833101  0.9365800852079005  0.3678294168150700   F   F   F
  0.2476265830359949  0.4990198375430026  0.4544330793549918   F   F   F
  0.0820840587406266  0.9365954137002035  0.4538904607848266   F   F   F
  0.4144871905235235  0.9367398355005605  0.4538695302740763   F   F   F
  0.9968901729383788  0.4985235454920200  0.5412602521922878   F   F   F
  0.3336684806035137  0.9371174815957843  0.5421783733110672   F   F   F
  0.1633445225583046  0.9367562772353182  0.5420688982101822   F   F   F
  0.4996421014837651  0.9992523386584367  0.1949209256261284   F   F   F
  0.8279897116091490  0.0649630923431133  0.2014638426535669   F   F   F
  0.6683045126813880  0.0648950989191661  0.2014551817525714   F   F   F
  0.7481824524570868  0.1239567217266568  0.2805640811226837   F   F   F
  0.5806927874192880  0.0613756685236098  0.2829037054243742   F   F   F
  0.9156019338443926  0.0613956640708295  0.2828564641461995   F   F   F
  0.4982387045701273  0.1239624163900004  0.3687242781656366   F   F   F
  0.8307939653515248  0.0614359120673740  0.3678372903614289   F   F   F
  0.6656835868065443  0.0614487143556346  0.3678289903313043   F   F   F
  0.7486362441484573  0.1238481377700325  0.4551839532264523   F   F   F
  0.5822062362726825  0.0613121280694955  0.4539405562235572   F   F   F
  0.9145224529762146  0.0613042925552776  0.4538856710441195   F   F   F
  0.4980499099981088  0.1243541921010305  0.5402013914322694   F   F   F
  0.8334247754698296  0.0610465341093303  0.5421080691033424   F   F   F
  0.6634496373460550  0.0605638150529231  0.5421684657652293   F   F   F
  0.4963544033196357  0.1240400436429070  0.1949210896583438   F   F   F
  0.8279526595009870  0.1831978762889435  0.2014836905516901   F   F   F
  0.6682730377161832  0.1831781804608497  0.2014276571467448   F   F   F
  0.7481280062891997  0.2488007833260326  0.2801722737718109   F   F   F
  0.5806582753960328  0.1865555011749933  0.2828889097185012   F   F   F
  0.9155919943816926  0.1865963057927615  0.2828564313397521   F   F   F
  0.4981578083876173  0.2487611775847540  0.3687827064409390   F   F   F
  0.8308543751970348  0.1863398746743670  0.3678413583603870   F   F   F
  0.6656306867773054  0.1863433856698080  0.3678384385869435   F   F   F
  0.7485245908508276  0.2486492539007514  0.4548178005141423   F   F   F
  0.5823532298821306  0.1861704477357264  0.4540816239292269   F   F   F
  0.9142760095205489  0.1860891382193088  0.4540463898092497   F   F   F
  0.4973614917678404  0.2501678450639204  0.5403457725887009   F   F   F
  0.8351687646385741  0.1854105313073902  0.5426498675124236   F   F   F
  0.6639275046248585  0.1839657566825608  0.5420439325069282   F   F   F
  0.4996335977212354  0.2488500228962707  0.1949460225551647   F   F   F
  0.8277710434298058  0.3144542572609055  0.2014598402675034   F   F   F
  0.6683737023856153  0.3143999224655758  0.2013839589644277   F   F   F
  0.7482166883841543  0.3736913442065202  0.2804639558581101   F   F   F
  0.5806409917747857  0.3111231361087476  0.2828446866330978   F   F   F
  0.9155521813116678  0.3111295158443710  0.2828252324122928   F   F   F
  0.4980509591636135  0.3738265603480926  0.3686050923575692   F   F   F
  0.8309047351413668  0.3113096898544256  0.3678257096869899   F   F   F
  0.6654632068308501  0.3113176966367206  0.3678163598506856   F   F   F
  0.7490929072401684  0.3737628914429294  0.4546685640041233   F   F   F
  0.5820104288575436  0.3111427463028136  0.4537317104062879   F   F   F
  0.9146847423143640  0.3111768714658396  0.4538477139893686   F   F   F
  0.4978749202353967  0.3737447370274651  0.5399538340120529   F   F   F
  0.8347896293559032  0.3101787211515799  0.5409931093254912   F   F   F
  0.6646163093897925  0.3107314460317596  0.5397012572060191   F   F   F
  0.4961496503880696  0.3736534083289271  0.1950260374700719   F   F   F
  0.8277764549150533  0.4322406613984455  0.2010994942956330   F   F   F
  0.6684984426424663  0.4322697769704078  0.2010461838254685   F   F   F
  0.7481786975489513  0.9991593829132270  0.2801800817052893   F   F   F
  0.5808173067991902  0.4363404764675494  0.2828232312192611   F   F   F
  0.9154133049300910  0.4363679649928471  0.2829119398416111   F   F   F
  0.4982479261827351  0.9990814131241805  0.3686831716923322   F   F   F
  0.8310862959933019  0.4363668089333714  0.3678896166383012   F   F   F
  0.6655670189968035  0.4363656956909168  0.3676540335698419   F   F   F
  0.7484246992507195  0.9989380617492643  0.4551721757133507   F   F   F
  0.5816450431649400  0.4365227485114644  0.4532791455226430   F   F   F
  0.9146399042937503  0.4365269445791924  0.4541892946757358   F   F   F
  0.4984440096940617  0.9990368406088592  0.5403777916772441   F   F   F
  0.8336312401977537  0.4360903394507361  0.5407842307017745   F   F   F
  0.6656823167640908  0.4365028814153007  0.5386095900028280   F   F   F
  0.4988962552467981  0.4988671948752668  0.1946182861878114   F   F   F
  0.8323094573167040  0.5619939937846254  0.2025001981935617   F   F   F
  0.6641934956904905  0.5619376894064843  0.2024176571825294   F   F   F
  0.7482033805479844  0.6240495537306856  0.2775131803264514   F   F   F
  0.5806984750007160  0.5613051107884814  0.2828696851427992   F   F   F
  0.9155790178609493  0.5613104200986641  0.2829568518623233   F   F   F
  0.4981145717248836  0.6242109310700172  0.3685441707925889   F   F   F
  0.8310333959640630  0.5614966741252161  0.3676683043726214   F   F   F
  0.6658962913082718  0.5615343102836832  0.3674648716184734   F   F   F
  0.7489003577600286  0.6241274807027182  0.4546537682982503   F   F   F
  0.5818247817820534  0.5617956225420926  0.4533993483304499   F   F   F
  0.9146994306314653  0.5616018755374554  0.4542808574586488   F   F   F
  0.4998111275688615  0.6245649421715171  0.5390678960140249   F   F   F
  0.8352266896184020  0.5632302923507666  0.5423056295041562   F   F   F
  0.6666955345476211  0.5628211757476151  0.5399805056503553   F   F   F
  0.4956361114820353  0.6241020045772459  0.1949884412861920   F   F   F
  0.8322319295076639  0.6860620825740611  0.2024541051409017   F   F   F
  0.6641554496360484  0.6861234821772939  0.2023827183205427   F   F   F
  0.7481524684112770  0.7502005191582199  0.2785074451998497   F   F   F
  0.5807358032050729  0.6868040586720241  0.2828595151454110   F   F   F
  0.9155055762754643  0.6868041014890451  0.2829045583918983   F   F   F
  0.4981642690383694  0.7492597864645631  0.3685717610113031   F   F   F
  0.8307420040493128  0.6866083420845825  0.3675120472837605   F   F   F
  0.6657730971900619  0.6866655028030735  0.3675088322523337   F   F   F
  0.7485122217416915  0.7491677298767243  0.4548712750165222   F   F   F
  0.5819832609928355  0.6868428937069879  0.4535673173195249   F   F   F
  0.9146899329226628  0.6866435804900632  0.4537025126718603   F   F   F
  0.4985692469240490  0.7486364991393799  0.5394492709159735   F   F   F
  0.8351102322471320  0.6872333849074863  0.5416162021007693   F   F   F
  0.6674596583521080  0.6877580646411374  0.5401490323489568   F   F   F
  0.4988884141151146  0.7492777696119575  0.1945711105225243   F   F   F
  0.8278540379433323  0.8158585316969607  0.2010073738031863   F   F   F
  0.6685312428693706  0.8158523232294073  0.2009637740402042   F   F   F
  0.7481895205194462  0.8743179759689497  0.2804596582140491   F   F   F
  0.5809316106202118  0.8117155142571022  0.2828311375720673   F   F   F
  0.9153704548020158  0.8117075502918283  0.2828426854400661   F   F   F
  0.4981711714430190  0.8741649051310318  0.3686012868101614   F   F   F
  0.8307359299332191  0.8116662318698431  0.3677114448453978   F   F   F
  0.6657654769353272  0.8116736392138861  0.3677436935790439   F   F   F
  0.7485031105675546  0.8739923525501112  0.4550858291549034   F   F   F
  0.5820876253511642  0.8117796969664823  0.4537636966883838   F   F   F
  0.9145913113650082  0.8116789485240687  0.4536414598811049   F   F   F
  0.4983121461556124  0.8737724015307080  0.5401140606805299   F   F   F
  0.8341234092589858  0.8117337543065943  0.5417538907427897   F   F   F
  0.6642413155499085  0.8128679342857694  0.5418713706158087   F   F   F
  0.4961704128212574  0.8745085545142786  0.1949777463857174   F   F   F
  0.8279153312966301  0.9336465200641513  0.2013796285139335   F   F   F
  0.6684548194450741  0.9336904931412207  0.2013266461081997   F   F   F
  0.7482258547775302  0.4978857860148835  0.2785866727601274   F   F   F
  0.5807408281556548  0.9368834009605749  0.2828251339929650   F   F   F
  0.9155788522032395  0.9369124308985022  0.2828318921202566   F   F   F
  0.4980816610595014  0.4989646464073161  0.3685554234025972   F   F   F
  0.8307960636825413  0.9365965697596792  0.3677984803391539   F   F   F
  0.6656858507952705  0.9365857798712440  0.3678239709455013   F   F   F
  0.7492329984449668  0.4992408589878465  0.4544697241520197   F   F   F
  0.5821441698500607  0.9365834249352787  0.4538711705962371   F   F   F
  0.9145655792004703  0.9365115779797435  0.4537940426483260   F   F   F
  0.4986291045771836  0.4998038599522516  0.5386010275211603   F   F   F
  0.8335614983011581  0.9364876432669078  0.5420257249309657   F   F   F
  0.6631802226877213  0.9365457031427695  0.5420502969569014   F   F   F
  0.4048559616081704  0.9991900398978331  0.2311877924306458   F   F   F
  0.2482528796244097  0.9991122841938704  0.1761235226203937   F   F   F
  0.0916003764233579  0.9991463665398825  0.2312012430723485   F   F   F
  0.1511583547565678  0.1239750045931771  0.3154657406007928   F   F   F
  0.9981476254080803  0.1239876784303817  0.3015856953630163   F   F   F
  0.3452100190300840  0.1240326362988640  0.3155299428100875   F   F   F
  0.3996159873125436  0.1240260852951707  0.4017520008029649   F   F   F
  0.2482586776443156  0.1239540670715655  0.3871573328134446   F   F   F
  0.0969213573399585  0.1238942088809623  0.4015868203615653   F   F   F
  0.1499344203638486  0.1237906773324156  0.4872546463033913   F   F   F
  0.9983186393857153  0.1238456972000250  0.4722644966413512   F   F   F
  0.3470044233623995  0.1239574924329787  0.4875024005622706   F   F   F
  0.4014613037815664  0.1244223996100615  0.5702941184371184   F   F   F
  0.2485998773110296  0.1245136854915856  0.5574509208359828   F   F   F
  0.0953493760951218  0.1238503642549418  0.5699379716899742   F   F   F
  0.4034563196026539  0.1240601248241617  0.2308347951020480   F   F   F
  0.2482217911938633  0.1240833316476966  0.2098015345743960   F   F   F
  0.0929621932513811  0.1240399580088720  0.2308123883013593   F   F   F
  0.1508100870274944  0.2489006326110754  0.3157096893122642   F   F   F
  0.9983068776881865  0.2489067982616078  0.3016805715966839   F   F   F
  0.3455171484274331  0.2489425504713054  0.3158070260291694   F   F   F
  0.3995572340441527  0.2488106312400831  0.4018369694907946   F   F   F
  0.2482925270367247  0.2489325741061990  0.3871896799664114   F   F   F
  0.0968878392629762  0.2488173963288602  0.4015458779204764   F   F   F
  0.1497042665831643  0.2486123456315852  0.4871559973287489   F   F   F
  0.9981544725934981  0.2486476268540798  0.4720362294097171   F   F   F
  0.3471082907475846  0.2485209312990051  0.4878859078830189   F   F   F
  0.3995925743559710  0.2502713766124742  0.5720967340704206   F   F   F
  0.2472417601718959  0.2491398084713765  0.5576240076301886   F   F   F
  0.0947008813733490  0.2488006976919976  0.5700442317594252   F   F   F
  0.4048579495007090  0.2489491014749916  0.2312033426847151   F   F   F
  0.2482655248297334  0.2490895412927188  0.1762196126924565   F   F   F
  0.0915164984020365  0.2489172884309170  0.2312315234194031   F   F   F
  0.1510412347544445  0.3738945965890608  0.3154313922547800   F   F   F
  0.9980447519691609  0.3738480544909280  0.3017232199728141   F   F   F
  0.3451077530027717  0.3739246541354149  0.3154620006662654   F   F   F
  0.3993950551444740  0.3738556331030480  0.4015343628589250   F   F   F
  0.2480916394517649  0.3739453775719284  0.3868987196218683   F   F   F
  0.0969828163509732  0.3739729089142472  0.4015740258487241   F   F   F
  0.1494058066060546  0.3737278671225326  0.4871351652373335   F   F   F
  0.9984067140690627  0.3739450350357885  0.4717963486972039   F   F   F
  0.3465240712179209  0.3736185980936213  0.4869544673483119   F   F   F
  0.3974333365234202  0.3741094952003863  0.5690444554035778   F   F   F
  0.2464448913597437  0.3738320837433662  0.5572524418547573   F   F   F
  0.0946062356007786  0.3738325975475760  0.5701849385942168   F   F   F
  0.4033734355276053  0.3739143352341756  0.2308751798336033   F   F   F
  0.2481640870909843  0.3739183600338265  0.2099701268858851   F   F   F
  0.0929708074523816  0.3739046585881951  0.2309196325641096   F   F   F
  0.1508186460092631  0.9990776024096135  0.3157297340490430   F   F   F
  0.9983780552849524  0.9990959280931477  0.3015821194607042   F   F   F
  0.3455492308042523  0.9991250436651171  0.3157534859139020   F   F   F
  0.3996297921218499  0.9991039776924566  0.4017151263608341   F   F   F
  0.2482708258765030  0.9990640722320521  0.3872381678894357   F   F   F
  0.0969214677784365  0.9990093949005825  0.4016731013071251   F   F   F
  0.1498997979021226  0.9990405228723773  0.4872679329128786   F   F   F
  0.9982955577445622  0.9989556595434976  0.4722995667291130   F   F   F
  0.3470754353014485  0.9991689311081515  0.4874078195865863   F   F   F
  0.4015673247170071  0.9991752680267609  0.5701155529668966   F   F   F
  0.2485628804220994  0.9991558719177860  0.5574434737733824   F   F   F
  0.0955340292243463  0.9991166943466823  0.5698198356880866   F   F   F
  0.4046503251688023  0.4986610737525439  0.2311411088620048   F   F   F
  0.2482596163713495  0.4990101180800082  0.1760552524121408   F   F   F
  0.0916697870045269  0.4986594467058794  0.2313056987874305   F   F   F
  0.1508703312152875  0.6240684360354436  0.3154105273569243   F   F   F
  0.9979094648380027  0.6240527650070078  0.3018331215574648   F   F   F
  0.3451640214054876  0.6241295359195576  0.3152840913249122   F   F   F
  0.3992491659197697  0.6243017887813593  0.4013597341618862   F   F   F
  0.2480339905681177  0.6241023471133857  0.3867074908645804   F   F   F
  0.0971308591259259  0.6239315500301856  0.4018920515088951   F   F   F
  0.1503853958741246  0.6242333671872373  0.4881993734475856   F   F   F
  0.9984501716087451  0.6239645619507499  0.4722230949100634   F   F   F
  0.3457868944011935  0.6246664613202455  0.4871426451063812   F   F   F
  0.4001339989767914  0.6239156220996378  0.5677893465004686   F   F   F
  0.2480079270881603  0.6237721850906794  0.5617384933142588   F   F   F
  0.0941418970350938  0.6240492968285807  0.5706410465737264   F   F   F
  0.4029634879105757  0.6240960101947763  0.2308123554949191   F   F   F
  0.2481394040919511  0.6241002918965393  0.2096011856259068   F   F   F
  0.0934206785779210  0.6240546489557772  0.2309069364705962   F   F   F
  0.1506866720323359  0.7490296449949696  0.3156923675102661   F   F   F
  0.9980799818425012  0.7491546278693377  0.3016632169882456   F   F   F
  0.3454741326416482  0.7491006356101479  0.3156160925298721   F   F   F
  0.3994198485819851  0.7492346956922518  0.4015584755946549   F   F   F
  0.2481880522399322  0.7491014063164627  0.3871047440850290   F   F   F
  0.0969607838753248  0.7490339695137465  0.4017167338765475   F   F   F
  0.1497585470933416  0.7493729518420764  0.4874142496494471   F   F   F
  0.9983014109837072  0.7490657825578211  0.4719890537444300   F   F   F
  0.3469402586087611  0.7498155085359741  0.4876153203396854   F   F   F
  0.4001970593456861  0.7495211415399865  0.5709277420806558   F   F   F
  0.2475343669098606  0.7488935725130403  0.5578152363874764   F   F   F
  0.0948149643174219  0.7492345244241818  0.5700791706214119   F   F   F
  0.4046551292424425  0.7495011888097807  0.2311365159599603   F   F   F
  0.2482775074042038  0.7491385286707199  0.1760786434061217   F   F   F
  0.0917177725216618  0.7494701036550069  0.2312433337389450   F   F   F
  0.1510897172447159  0.8741213602241373  0.3154548160552082   F   F   F
  0.9981105732999112  0.8741634493524373  0.3015540043389038   F   F   F
  0.3452112890725374  0.8741533873532958  0.3154364444470303   F   F   F
  0.3994952228407698  0.8741998010003726  0.4015487320810323   F   F   F
  0.2482281414061447  0.8741106987867511  0.3870486122607488   F   F   F
  0.0970019774262880  0.8741032914427080  0.4015972528104967   F   F   F
  0.1498608131206538  0.8742474991579812  0.4872482490469707   F   F   F
  0.9983115713233488  0.8740646276758142  0.4721969153684071   F   F   F
  0.3468264517608759  0.8744271165468049  0.4872406051457077   F   F   F
  0.4012806264374191  0.8739192210840514  0.5700092272845581   F   F   F
  0.2483972227104729  0.8738998249750765  0.5572997159393722   F   F   F
  0.0953375039591222  0.8742539645276395  0.5699096925359513   F   F   F
  0.4033818840708960  0.8742356388441053  0.2308353528115816   F   F   F
  0.2482444310811189  0.8742579036932554  0.2099183583185535   F   F   F
  0.0930578329702243  0.8741846437761467  0.2308657643844114   F   F   F
  0.1505629809409896  0.4990653520327086  0.3156872825115684   F   F   F
  0.9980624221250665  0.4989132231691826  0.3018790505779094   F   F   F
  0.3453634732902842  0.4990674928835901  0.3155409985814401   F   F   F
  0.3992133838540610  0.4990441147919853  0.4013178075275050   F   F   F
  0.2479723106801544  0.4990006555191187  0.3866156656301314   F   F   F
  0.0969705024610761  0.4991210997896260  0.4019321081760125   F   F   F
  0.1503011313181446  0.4988942552303897  0.4880985920541434   F   F   F
  0.9981845670777716  0.4991068845397848  0.4729795786833080   F   F   F
  0.3456269794902411  0.4988750732065057  0.4868679239512090   F   F   F
  0.3997824180934870  0.4995288034311969  0.5678075212699909   F   F   F
  0.2474224927352751  0.4986715211048391  0.5615417858809622   F   F   F
  0.0932295647979444  0.4986405215841003  0.5704380403033369   F   F   F
  0.9038170994586849  0.9992015576755620  0.2308491643241624   F   F   F
  0.7482052580020522  0.9992852649449731  0.2102178155318839   F   F   F
  0.5925509529520028  0.9991837886132586  0.2308613355145823   F   F   F
  0.6507578269892065  0.1239753471293170  0.3156827224159713   F   F   F
  0.4981046322621836  0.1240128548367281  0.3016309026417119   F   F   F
  0.8455994576702253  0.1239597189178880  0.3156868560278099   F   F   F
  0.8995821152802463  0.1238561445523203  0.4017079417497769   F   F   F
  0.7482384447636150  0.1238749840400644  0.3871038583110575   F   F   F
  0.5968673855053197  0.1239413932343609  0.4017389110321403   F   F   F
  0.6501688033859097  0.1234826945248244  0.4873190781577890   F   F   F
  0.4984109885902157  0.1239117210411607  0.4723744310324420   F   F   F
  0.8468459215117221  0.1235550981015834  0.4874941005321460   F   F   F
  0.9016779062092439  0.1234678798367383  0.5700827793301642   F   F   F
  0.7485656187440739  0.1241215672444156  0.5578867216271632   F   F   F
  0.5955231836139632  0.1238401738047585  0.5698619591611305   F   F   F
  0.9051600313075880  0.1240230881039395  0.2311546251165950   F   F   F
  0.7481208830075943  0.1240482645102858  0.1767981215114602   F   F   F
  0.5911851051196635  0.1240215895083239  0.2311822481417494   F   F   F
  0.6509499899346949  0.2489003757089705  0.3154903126267286   F   F   F
  0.4978706131348929  0.2489161751884623  0.3016877562077411   F   F   F
  0.8453371662934899  0.2489334732635697  0.3154844402734014   F   F   F
  0.8993284381045186  0.2487475617731576  0.4016684755986333   F   F   F
  0.7481943245930864  0.2488931824500114  0.3868876310440754   F   F   F
  0.5969499934841878  0.2487315910255958  0.4016712313398614   F   F   F
  0.6503119316487513  0.2481351071534306  0.4877203993771886   F   F   F
  0.4983217543028857  0.2489896920076760  0.4725683827245106   F   F   F
  0.8464561841355049  0.2481822486898011  0.4877307990196726   F   F   F
  0.9022742187518560  0.2483747968179415  0.5705645747546768   F   F   F
  0.7491827489391056  0.2504229488547765  0.5615465428152220   F   F   F
  0.5964947660926398  0.2472628816879237  0.5702862776971926   F   F   F
  0.9037826426546687  0.2488711745029661  0.2308686513514076   F   F   F
  0.7481042067979615  0.2487983427560323  0.2101745110268851   F   F   F
  0.5924776218049956  0.2488599136273351  0.2309045416002462   F   F   F
  0.6507569987006505  0.3738587159283142  0.3155959821802057   F   F   F
  0.4980776300551852  0.3738878743172975  0.3015597454664629   F   F   F
  0.8455880825073621  0.3738528928139218  0.3156837722221510   F   F   F
  0.8995231411349138  0.3739668717147637  0.4016609957295927   F   F   F
  0.7482774295450838  0.3739287645691007  0.3868933721716274   F   F   F
  0.5966579941578303  0.3738554190179570  0.4013633756770787   F   F   F
  0.6498913819381755  0.3738604714260347  0.4860309659728443   F   F   F
  0.4981039696313374  0.3740768686329758  0.4723970674782336   F   F   F
  0.8477322454881531  0.3736913870235341  0.4873727494988316   F   F   F
  0.9034931834132252  0.3732169744685407  0.5710145151228616   F   F   F
  0.7488718646336281  0.3746579811958242  0.5554096383285554   F   F   F
  0.5974928538051785  0.3748617901995956  0.5679024303101059   F   F   F
  0.9051175124949324  0.3736774286757978  0.2310873719080817   F   F   F