Ta  N Ru                                
   1.00000000000000     
    11.9754398999999996    0.0000000000000000    0.0000000000000000
    -1.7175315499999999   11.8516346499999994    0.0000000000000000
     0.0000000000000000    0.0000000000000000   22.7106327899999982
   Ta   N    Ru
    72    72     1
Selective dynamics
Direct
  0.9955339587019623  0.9955339540487174  0.2712224588739929   F   F   F
  0.2699333485827822  0.1030132974397020  0.3100259080635226   F   F   F
  0.1030132717436416  0.2699333822854797  0.3100259080635226   F   F   F
  0.3596205863249367  0.3596206399952564  0.3447007771003783   F   F   F
  0.1253409742651783  0.4593656738838163  0.3919418349552828   F   F   F
  0.4593656603424634  0.1253409739335112  0.3919418349552828   F   F   F
  0.2213603602056112  0.2212749718003877  0.4358162109010117   T   T   T
  0.4865055154772241  0.3199971863683074  0.4783142399907732   T   T   T
  0.3200758316598541  0.4862449772862865  0.4783266186513319   T   T   T
  0.0841827129905587  0.0841287214361418  0.5208020682199594   T   T   T
  0.3476005876421232  0.1813947985933663  0.5641818738413384   T   T   T
  0.1819227175147907  0.3473399892784390  0.5643600215142823   T   T   T
  0.4455975643944503  0.4457533406117685  0.6064828046051082   T   T   T
  0.2075401290719185  0.0418585031300011  0.6494716291511669   T   T   T
  0.0411750491301658  0.2062201696783069  0.6494411177889278   T   T   T
  0.3062961211803776  0.3067051616387633  0.7014287187658368   T   T   T
  0.0712019396435091  0.3984856967021376  0.7306797045995190   T   T   T
  0.4006845972412165  0.0694207130934647  0.7299346256389089   T   T   T
  0.9955339590589745  0.4955339536268326  0.2712224588739929   F   F   F
  0.2699333482257629  0.6030132978615868  0.3100259080635226   F   F   F
  0.1030132722216663  0.7699333827073573  0.3100259080635226   F   F   F
  0.3596205866819489  0.8596206395733716  0.3447007771003783   F   F   F
  0.1253409746221976  0.9593656734619316  0.3919418349552828   F   F   F
  0.4593656608204952  0.6253409743553888  0.3919418349552828   F   F   F
  0.2213242663000204  0.7211588805061281  0.4358382976028832   T   T   T
  0.4864418571060118  0.8200428733589090  0.4784323688158603   T   T   T
  0.3202045030860862  0.9863456444413961  0.4784490144147599   T   T   T
  0.0845041609196493  0.5839244052312220  0.5210913660381823   T   T   T
  0.3470863623595902  0.6813314318438812  0.5641406318598315   T   T   T
  0.1813321915615607  0.8465799460342880  0.5642180700285958   T   T   T
  0.4431278380866598  0.9441345144271298  0.6081513531242597   T   T   T
  0.2076126733571191  0.5421598031878065  0.6504896132570387   T   T   T
  0.0431165798238643  0.7069456192978444  0.6511962084828055   T   T   T
  0.3125925969128858  0.8129545164536751  0.6946422789721595   T   T   T
  0.0658360925338223  0.9021083120273430  0.7289193162158161   T   T   T
  0.4046857361597551  0.5648088987952755  0.7278915505183802   T   T   T
  0.4955339587019623  0.9955339540487174  0.2712224588739929   F   F   F
  0.7699333485827822  0.1030132974397020  0.3100259080635226   F   F   F
  0.6030132717436416  0.2699333822854797  0.3100259080635226   F   F   F
  0.8596205863249367  0.3596206399952564  0.3447007771003783   F   F   F
  0.6253409742651783  0.4593656738838163  0.3919418349552828   F   F   F
  0.9593656603424634  0.1253409739335112  0.3919418349552828   F   F   F
  0.7212755118732624  0.2213353297931464  0.4357748681193715   T   T   T
  0.9864745698679741  0.3201542402345170  0.4784448417212536   T   T   T
  0.8201771307901621  0.4863995551898407  0.4784684584739434   T   T   T
  0.5840888736837845  0.0843533166684351  0.5209611222583816   T   T   T
  0.8464279107463774  0.1811165536781925  0.5640322719774450   T   T   T
  0.6814647567631551  0.3470506793404966  0.5641432236087255   T   T   T
  0.9442275615691902  0.4426567838583834  0.6082451747639483   T   T   T
  0.7069447088417742  0.0424220091452574  0.6508404236780321   T   T   T
  0.5424886902923582  0.2073381835879053  0.6505152394171639   T   T   T
  0.8123761945254329  0.3123953042867784  0.6947604588057588   T   T   T
  0.5644745202947107  0.4046336941876724  0.7277684190196726   T   T   T
  0.9012783210294352  0.0633291657932113  0.7286427462806133   T   T   T
  0.4955339590589745  0.4955339536268326  0.2712224588739929   F   F   F
  0.7699333482257629  0.6030132978615868  0.3100259080635226   F   F   F
  0.6030132722216663  0.7699333827073573  0.3100259080635226   F   F   F
  0.8596205866819489  0.8596206395733716  0.3447007771003783   F   F   F
  0.6253409746221976  0.9593656734619316  0.3919418349552828   F   F   F
  0.9593656608204952  0.6253409743553888  0.3919418349552828   F   F   F
  0.7214802072840215  0.7213453672242284  0.4357373736225726   T   T   T
  0.9866712548260859  0.8198219856795398  0.4785616440878583   T   T   T
  0.8199792272754718  0.9864506328358489  0.4785227264504510   T   T   T
  0.5842364711785605  0.5839933324246376  0.5211726141170404   T   T   T
  0.8472203571591970  0.6808080830110025  0.5643866345869863   T   T   T
  0.6810254201848375  0.8468043871560816  0.5642171287292336   T   T   T
  0.9438458739823756  0.9431343526883733  0.6072453205568551   T   T   T
  0.7082140902950456  0.5423687234722520  0.6507834872764019   T   T   T
  0.5431568378699819  0.7076338335910577  0.6507850915577631   T   T   T
  0.8127618098968309  0.8115672582296407  0.6951685455915457   T   T   T
  0.5637888616424331  0.9054715056395144  0.7287093691486873   T   T   T
  0.9062970426418672  0.5639226357981341  0.7290081900362352   T   T   T
  0.4506180773709048  0.1400782132052782  0.2976725581183857   F   F   F
  0.2642075833142314  0.2642075209653356  0.2836189927733201   F   F   F
  0.1400781798198807  0.4506180903161052  0.2976725581183857   F   F   F
  0.3074132852265237  0.9999309000767909  0.3839488749030693   F   F   F
  0.1352939988863540  0.1352940283866033  0.3689431455789318   F   F   F
  0.9999308780646601  0.3074132624267207  0.3839488749030693   F   F   F
  0.1681954206321040  0.3641369790195190  0.4692793520250317   T   T   T
  0.4969661822584521  0.4969011405172272  0.4537859137640831   T   T   T
  0.3642182814430526  0.1681314766438313  0.4691794933225991   T   T   T
  0.0291568326626224  0.2250850261778253  0.5546569240553852   T   T   T
  0.3576937165866239  0.3572745146356001  0.5400127528013285   T   T   T
  0.2251017227674240  0.0291660641774896  0.5548171313707728   T   T   T
  0.3884931395535298  0.0876996367666994  0.6404974727560570   T   T   T
  0.2222108807907485  0.2217841674071677  0.6271429147036820   T   T   T
  0.0876832513355922  0.3877624781984689  0.6409623024835945   T   T   T
  0.2530289757970454  0.4565902788358077  0.7299013938161812   T   T   T
  0.0777288105621598  0.0775048358861193  0.7076363975935476   T   T   T
  0.4543341483594760  0.2509344392511142  0.7301661383592800   T   T   T
  0.4506180777279170  0.6400782127833935  0.2976725581183857   F   F   F
  0.2642075828362067  0.7642075205434509  0.2836189927733201   F   F   F
  0.1400781801769000  0.9506180898942276  0.2976725581183857   F   F   F
  0.3074132857045484  0.4999309004986756  0.3839488749030693   F   F   F
  0.1352939993643858  0.6352940288084810  0.3689431455789318   F   F   F
  0.9999308775866353  0.8074132620048431  0.3839488749030693   F   F   F
  0.1681982123305355  0.8640304496476050  0.4693047864503492   T   T   T
  0.4969491177722672  0.9969138422471669  0.4537991521643144   T   T   T
  0.3642423100522317  0.6680733648364956  0.4692698636599392   T   T   T
  0.0294950000301892  0.7246331307262839  0.5552903120577772   T   T   T
  0.3570547738583662  0.8570057695299127  0.5400349364512261   T   T   T
  0.2255087734064483  0.5295710007929846  0.5547520655423844   T   T   T
  0.3901569607591310  0.5876351687586799  0.6390437293595169   T   T   T
  0.2214237219529367  0.7209311505997856  0.6281273132101317   T   T   T
  0.0872742436599038  0.8896634151818850  0.6395259122272114   T   T   T
  0.2491871748211275  0.9502905080118716  0.7285595307555537   T   T   T
  0.0755623044913727  0.5736607874231098  0.7096735491210510   T   T   T
  0.4502738256807153  0.7503278951752724  0.7295090867554699   T   T   T
  0.9506180773709048  0.1400782132052782  0.2976725581183857   F   F   F
  0.7642075824791874  0.2642075209653356  0.2836189927733201   F   F   F
  0.6400781798198807  0.4506180903161052  0.2976725581183857   F   F   F
  0.8074132852265237  0.9999309000767909  0.3839488749030693   F   F   F
  0.6352939988863540  0.1352940283866033  0.3689431455789318   F   F   F
  0.4999308780646601  0.3074132624267207  0.3839488749030693   F   F   F
  0.6682736559482991  0.3642296379531602  0.4692557580071658   T   T   T
  0.9970057926687340  0.4969179763520643  0.4538504771852594   T   T   T
  0.8640734510040543  0.1680986083045357  0.4692415872642071   T   T   T
  0.5297384673042317  0.2252069162903486  0.5547834035903615   T   T   T
  0.8571713372543960  0.3569619827596530  0.5400279761346826   T   T   T
  0.7246514649565857  0.0291691090241401  0.5550565379884589   T   T   T
  0.8894093271751158  0.0861126312088435  0.6391623169195433   T   T   T
  0.7209011817965580  0.2209759779636346  0.6282374164203782   T   T   T
  0.5874491345722612  0.3899055957875728  0.6389571255966580   T   T   T
  0.7506667908956002  0.4500787721240107  0.7294968518266021   T   T   T
  0.5740387889925751  0.0753256658918427  0.7095182166410469   T   T   T
  0.9477902832325663  0.2453470640465802  0.7291390146588396   T   T   T
  0.9506180777279170  0.6400782127833935  0.2976725581183857   F   F   F
  0.7642075828362067  0.7642075205434509  0.2836189927733201   F   F   F
  0.6400781801769000  0.9506180898942276  0.2976725581183857   F   F   F
  0.8074132857045484  0.4999309004986756  0.3839488749030693   F   F   F
  0.6352939993643858  0.6352940288084810  0.3689431455789318   F   F   F
  0.4999308775866353  0.8074132620048431  0.3839488749030693   F   F   F
  0.6681791377069685  0.8641053828770440  0.4692611943848565   T   T   T
  0.9967765689898398  0.9967193397893926  0.4537736658074654   T   T   T
  0.8643285390037631  0.6681050811340254  0.4693161058247775   T   T   T
  0.5293638019304815  0.7249727955101029  0.5551164594884190   T   T   T
  0.8565680911786466  0.8563360410518390  0.5398171232878107   T   T   T
  0.7252064177670151  0.5291895857269178  0.5551435835558780   T   T   T
  0.8898057740484909  0.5863119085329239  0.6399669093324855   T   T   T
  0.7217727776927173  0.7212915220589354  0.6283532021147535   T   T   T
  0.5865133409201964  0.8893831358430524  0.6397472954977855   T   T   T
  0.7493364798049827  0.9497591226802283  0.7299860483777579   T   T   T
  0.5781829129540844  0.5775754019751036  0.7094445209618304   T   T   T
  0.9510694945594773  0.7498242243184182  0.7299220296624278   T   T   T
  0.1579196077867344  0.1986134524252593  0.7592946859360363   T   T   T
 
  0.00000000E+00  0.00000000E+00  0.00000000E+00
  0.00000000E+00  0.00000000E+00  0.00000000E+00
  0.00000000E+00  0.00000000E+00  0.00000000E+00
  0.00000000E+00  0.00000000E+00  0.00000000E+00
  0.00000000E+00  0.00000000E+00  0.00000000E+00
  0.00000000E+00  0.00000000E+00  0.00000000E+00
  0.00000000E+00  0.00000000E+00  0.00000000E+00
  0.00000000E+00  0.00000000E+00  0.00000000E+00
  0.00000000E+00  0.00000000E+00  0.00000000E+00
  0.00000000E+00  0.00000000E+00  0.00000000E+00
  0.00000000E+00  0.00000000E+00  0.00000000E+00
  0.00000000E+00  0.00000000E+00  0.00000000E+00
  0.00000000E+00  0.00000000E+00  0.00000000E+00
  0.00000000E+00  0.00000000E+00  0.00000000E+00
  0.00000000E+00  0.00000000E+00  0.00000000E+00
  0.00000000E+00  0.00000000E+00  0.00000000E+00
  0.00000000E+00  0.00000000E+00  0.00000000E+00
  0.00000000E+00  0.00000000E+00  0.00000000E+00
  0.00000000E+00  0.00000000E+00  0.00000000E+00
  0.00000000E+00  0.00000000E+00  0.00000000E+00
  0.00000000E+00  0.00000000E+00  0.00000000E+00
  0.00000000E+00  0.00000000E+00  0.00000000E+00
  0.00000000E+00  0.00000000E+00  0.00000000E+00
  0.00000000E+00  0.00000000E+00  0.00000000E+00
  0.00000000E+00  0.00000000E+00  0.00000000E+00
  0.00000000E+00  0.00000000E+00  0.00000000E+00
  0.00000000E+00  0.00000000E+00  0.00000000E+00
  0.00000000E+00  0.00000000E+00  0.00000000E+00
  0.00000000E+00  0.00000000E+00  0.00000000E+00
  0.00000000E+00  0.00000000E+00  0.00000000E+00
  0.00000000E+00  0.00000000E+00  0.00000000E+00
  0.00000000E+00  0.00000000E+00  0.00000000E+00
  0.00000000E+00  0.00000000E+00  0.00000000E+00
  0.00000000E+00  0.00000000E+00  0.00000000E+00
  0.00000000E+00  0.00000000E+00  0.00000000E+00
  0.00000000E+00  0.00000000E+00  0.00000000E+00
  0.00000000E+00  0.00000000E+00  0.00000000E+00
  0.00000000E+00  0.00000000E+00  0.00000000E+00
  0.00000000E+00  0.00000000E+00  0.00000000E+00
  0.00000000E+00  0.00000000E+00  0.00000000E+00
  0.00000000E+00  0.00000000E+00  0.00000000E+00
  0.00000000E+00  0.00000000E+00  0.00000000E+00
  0.00000000E+00  0.00000000E+00  0.00000000E+00
  0.00000000E+00  0.00000000E+00  0.00000000E+00
  0.00000000E+00  0.00000000E+00  0.00000000E+00
  0.00000000E+00  0.00000000E+00  0.00000000E+00
  0.00000000E+00  0.00000000E+00  0.00000000E+00
  0.00000000E+00  0.00000000E+00  0.00000000E+00
  0.00000000E+00  0.00000000E+00  0.00000000E+00
  0.00000000E+00  0.00000000E+00  0.00000000E+00
  0.00000000E+00  0.00000000E+00  0.00000000E+00
  0.00000000E+00  0.00000000E+00  0.00000000E+00
  0.00000000E+00  0.00000000E+00  0.00000000E+00
  0.00000000E+00  0.00000000E+00  0.00000000E+00
  0.00000000E+00  0.00000000E+00  0.00000000E+00
  0.00000000E+00  0.00000000E+00  0.00000000E+00
  0.00000000E+00  0.00000000E+00  0.00000000E+00
  0.00000000E+00  0.00000000E+00  0.00000000E+00
  0.00000000E+00  0.00000000E+00  0.00000000E+00
  0.00000000E+00  0.00000000E+00  0.00000000E+00
  0.00000000E+00  0.00000000E+00  0.00000000E+00
  0.00000000E+00  0.00000000E+00  0.00000000E+00
  0.00000000E+00  0.00000000E+00  0.00000000E+00
  0.00000000E+00  0.00000000E+00  0.00000000E+00
  0.00000000E+00  0.00000000E+00  0.00000000E+00
  0.00000000E+00  0.00000000E+00  0.00000000E+00
  0.00000000E+00  0.00000000E+00  0.00000000E+00
  0.00000000E+00  0.00000000E+00  0.00000000E+00
  0.00000000E+00  0.00000000E+00  0.00000000E+00
  0.00000000E+00  0.00000000E+00  0.00000000E+00
  0.00000000E+00  0.00000000E+00  0.00000000E+00
  0.00000000E+00  0.00000000E+00  0.00000000E+00
  0.00000000E+00  0.00000000E+00  0.00000000E+00
  0.00000000E+00  0.00000000E+00  0.00000000E+00
  0.00000000E+00  0.00000000E+00  0.00000000E+00
  0.00000000E+00  0.00000000E+00  0.00000000E+00
  0.00000000E+00  0.00000000E+00  0.00000000E+00
  0.00000000E+00  0.00000000E+00  0.00000000E+00
  0.00000000E+00  0.00000000E+00  0.00000000E+00
  0.00000000E+00  0.00000000E+00  0.00000000E+00
  0.00000000E+00  0.00000000E+00  0.00000000E+00
  0.00000000E+00  0.00000000E+00  0.00000000E+00
  0.00000000E+00  0.00000000E+00  0.00000000E+00
  0.00000000E+00  0.00000000E+00  0.00000000E+00
  0.00000000E+00  0.00000000E+00  0.00000000E+00
  0.00000000E+00  0.00000000E+00  0.00000000E+00
  0.00000000E+00  0.00000000E+00  0.00000000E+00
  0.00000000E+00  0.00000000E+00  0.00000000E+00
  0.00000000E+00  0.00000000E+00  0.00000000E+00
  0.00000000E+00  0.00000000E+00  0.00000000E+00
  0.00000000E+00  0.00000000E+00  0.00000000E+00
  0.00000000E+00  0.00000000E+00  0.00000000E+00
  0.00000000E+00  0.00000000E+00  0.00000000E+00
  0.00000000E+00  0.00000000E+00  0.00000000E+00
  0.00000000E+00  0.00000000E+00  0.00000000E+00
  0.00000000E+00  0.00000000E+00  0.00000000E+00
  0.00000000E+00  0.00000000E+00  0.00000000E+00
  0.00000000E+00  0.00000000E+00  0.00000000E+00
  0.00000000E+00  0.00000000E+00  0.00000000E+00
  0.00000000E+00  0.00000000E+00  0.00000000E+00
  0.00000000E+00  0.00000000E+00  0.00000000E+00
  0.00000000E+00  0.00000000E+00  0.00000000E+00
  0.00000000E+00  0.00000000E+00  0.00000000E+00
  0.00000000E+00  0.00000000E+00  0.00000000E+00
  0.00000000E+00  0.00000000E+00  0.00000000E+00
  0.00000000E+00  0.00000000E+00  0.00000000E+00
  0.00000000E+00  0.00000000E+00  0.00000000E+00
  0.00000000E+00  0.00000000E+00  0.00000000E+00
  0.00000000E+00  0.00000000E+00  0.00000000E+00
  0.00000000E+00  0.00000000E+00  0.00000000E+00
  0.00000000E+00  0.00000000E+00  0.00000000E+00
  0.00000000E+00  0.00000000E+00  0.00000000E+00
  0.00000000E+00  0.00000000E+00  0.00000000E+00
  0.00000000E+00  0.00000000E+00  0.00000000E+00
  0.00000000E+00  0.00000000E+00  0.00000000E+00
  0.00000000E+00  0.00000000E+00  0.00000000E+00
  0.00000000E+00  0.00000000E+00  0.00000000E+00
  0.00000000E+00  0.00000000E+00  0.00000000E+00
  0.00000000E+00  0.00000000E+00  0.00000000E+00
  0.00000000E+00  0.00000000E+00  0.00000000E+00
  0.00000000E+00  0.00000000E+00  0.00000000E+00
  0.00000000E+00  0.00000000E+00  0.00000000E+00
  0.00000000E+00  0.00000000E+00  0.00000000E+00
  0.00000000E+00  0.00000000E+00  0.00000000E+00
  0.00000000E+00  0.00000000E+00  0.00000000E+00
  0.00000000E+00  0.00000000E+00  0.00000000E+00
  0.00000000E+00  0.00000000E+00  0.00000000E+00
  0.00000000E+00  0.00000000E+00  0.00000000E+00
  0.00000000E+00  0.00000000E+00  0.00000000E+00
  0.00000000E+00  0.00000000E+00  0.00000000E+00
  0.00000000E+00  0.00000000E+00  0.00000000E+00
  0.00000000E+00  0.00000000E+00  0.00000000E+00
  0.00000000E+00  0.00000000E+00  0.00000000E+00
  0.00000000E+00  0.00000000E+00  0.00000000E+00
  0.00000000E+00  0.00000000E+00  0.00000000E+00
  0.00000000E+00  0.00000000E+00  0.00000000E+00
  0.00000000E+00  0.00000000E+00  0.00000000E+00
  0.00000000E+00  0.00000000E+00  0.00000000E+00
  0.00000000E+00  0.00000000E+00  0.00000000E+00
  0.00000000E+00  0.00000000E+00  0.00000000E+00
  0.00000000E+00  0.00000000E+00  0.00000000E+00
  0.00000000E+00  0.00000000E+00  0.00000000E+00
  0.00000000E+00  0.00000000E+00  0.00000000E+00
  0.00000000E+00  0.00000000E+00  0.00000000E+00
  0.00000000E+00  0.00000000E+00  0.00000000E+00
