Ta  N  W Cu                             
   1.00000000000000     
    18.1096308199999996    0.0000000000000000    0.0000000000000000
     0.0000000000000000   23.3551997799999995    0.0000000000000000
     0.0000000000000000    0.0000000000000000   30.4818171199999988
   Ta   N    W    Cu
   192   240    48     2
Direct
  0.0000840283238261  0.0000562934270860  0.1967951659248897
  0.3338305326763589  0.0625321357100574  0.2026848244618691
  0.1663632051602875  0.0625176120114759  0.2026575026872308
  0.2501367963771415  0.1250705182535370  0.2780698607351297
  0.0823507889239536  0.0625118454731535  0.2836121144318753
  0.4176967878161975  0.0625288048941428  0.2837441015353974
  0.0000795837127257  0.1248190170265389  0.3693935017360630
  0.3326416055324088  0.0625127143079354  0.3679219815662051
  0.1676602575338109  0.0625257543624116  0.3677903898856272
  0.2504349685851608  0.1248335361139183  0.4539186766924104
  0.0839001533775630  0.0624820123816932  0.4538066884302054
  0.4166393624834512  0.0623369078915630  0.4544538194095011
  0.0001340503761753  0.1249793377818094  0.1968065579184213
  0.3338391982778077  0.1875560243994059  0.2027453234428975
  0.1664084658105907  0.1875442248814707  0.2026728704013010
  0.2501308488893983  0.2500020405633805  0.2781506584748712
  0.0823675141116382  0.1875038197080769  0.2836564687321896
  0.4176930214351557  0.1875104517590884  0.2838016575476772
  0.0000649234630572  0.2501867523380739  0.3694251437393348
  0.3325513962074709  0.1874939267558275  0.3680339631911096
  0.1676472499884483  0.1874927036251250  0.3677654474813536
  0.2503648128698330  0.2500008048434736  0.4539339108050413
  0.0837197416562603  0.1874560349300864  0.4542560757921734
  0.4163260674722693  0.1873940430410812  0.4541424559136118
  0.0001383605322829  0.2501057824484008  0.1968474954099690
  0.3338091414530879  0.3125418969300711  0.2027729284040944
  0.1663830771603187  0.3125321570806392  0.2027215046518620
  0.2501118855290656  0.3750109547859708  0.2781689559525660
  0.0823404319493193  0.3125054564787320  0.2836898592419104
  0.4176722905979773  0.3125090504419461  0.2838721525156842
  0.0000245226706781  0.3747975400723931  0.3694448821940242
  0.3325881177130867  0.3124990024489236  0.3680479947425965
  0.1676578375078392  0.3124706867829019  0.3678815738234675
  0.2499172851926588  0.3749661272237859  0.4538604593132050
  0.0838422519105890  0.3124730954301072  0.4538759047342751
  0.4166813921158479  0.3124999762125285  0.4545188912632696
  0.0001161600248025  0.3749946186656814  0.1968962703809325
  0.3338607628493975  0.4375069597342787  0.2028561421839328
  0.1663616388567988  0.4374984233931443  0.2027431518514433
  0.2500996924468453  0.0000457130716356  0.2779727610223830
  0.0823354466894699  0.4374972074555927  0.2837356565566438
  0.4176503318656017  0.4374960723528147  0.2839384893432566
  0.0000582228391508  0.0002087765096661  0.3693845959916828
  0.3324694704364859  0.4375000513826279  0.3681328340523251
  0.1675501717840220  0.4374977054949767  0.3678420971241039
  0.2499732761844768  0.9999563555943993  0.4536772863595715
  0.0835855297326731  0.4374624520625972  0.4542820109387122
  0.4165770225320244  0.4375536576420771  0.4542428546960693
  0.0000777151767650  0.5000334305571101  0.1969356094710832
  0.3338801760952421  0.5624918578764309  0.2028421673319301
  0.1663212968438188  0.5624905368625122  0.2027734695037395
  0.2500516137152076  0.6249858490012201  0.2782067141876610
  0.0822873840524068  0.5624972753813182  0.2837307522293955
  0.4176028392582722  0.5624956954757678  0.2839811670059831
  0.9999587328883095  0.6248180853450620  0.3694606509427842
  0.3324300558710362  0.5625201148798311  0.3681663438523799
  0.1675353143440361  0.5625026245715929  0.3679021776383777
  0.2500208046408900  0.6251174861139503  0.4539821548138647
  0.0837121690902904  0.5625177584320440  0.4539342982993233
  0.4163144658213511  0.5626207394254763  0.4546690354265621
  0.0000476043648590  0.6249459806374418  0.1969192974192850
  0.3338684068481825  0.6874642066056893  0.2028291924076058
  0.1663400569545104  0.6874622151399024  0.2027282836594964
  0.2500601580740920  0.7499522814786630  0.2780811699331593
  0.0822910503433008  0.6874945971211162  0.2836924094757975
  0.4176469438020121  0.6874862866456724  0.2839200998804401
  0.9999823923534024  0.7502069185836504  0.3694286291852436
  0.3324196011541645  0.6875271010996329  0.3680997210734489
  0.1674864239042506  0.6875151687419461  0.3677991746084501
  0.2499305558306020  0.7501528161290594  0.4538027022739328
  0.0835600927456284  0.6875871385995325  0.4542557199764019
  0.4164990280512058  0.6876516251116769  0.4542421157654815
  0.0000334565797999  0.7500055967439394  0.1968715707614876
  0.3338302714022063  0.8124738590769667  0.2027360887359464
  0.1663518489133722  0.8124856450112929  0.2026994892322946
  0.2500665923100271  0.8749970311282169  0.2779761526770343
  0.0822966330757495  0.8124979939426424  0.2836311411494634
  0.4176482406008972  0.8124921250807446  0.2838045786072456
  0.0000181938929416  0.8748235833542068  0.3694081721007976
  0.3325193661894801  0.8125150335631801  0.3678907367359301
  0.1675543968512940  0.8125272416035827  0.3677834047160289
  0.2499546190198814  0.8749867662155637  0.4536761879402320
  0.0837438012417167  0.8125507731637001  0.4538530249929948
  0.4163043705320106  0.8125686633270917  0.4543245076474562
  0.0000340927261675  0.8748857003695534  0.1968138724031618
  0.3338102150726385  0.9374896809933730  0.2027195882488613
  0.1664198289696230  0.9374924816267196  0.2026552097312404
  0.2500678434064341  0.4999863435801046  0.2782297678654402
  0.0823612057545660  0.9375058306658914  0.2836010734221546
  0.4176799256021582  0.9375265755846200  0.2837309843319318
  0.9999796994628269  0.5001654976743097  0.3694685836928429
  0.3325210616767791  0.9375271050953558  0.3678524649918558
  0.1675408203245539  0.9375214693561915  0.3676715687190253
  0.2500077904179960  0.5000259514989835  0.4540029750249204
  0.0836815956900665  0.9375244504409181  0.4542310171678636
  0.4164277694796326  0.9374319366825645  0.4539464409874867
  0.4998927662946855  0.9999496761114131  0.1968710594544945
  0.8336909158419488  0.0624901725530691  0.2025941832013629
  0.6661729597423331  0.0625048012687159  0.2025972643277640
  0.7499870676678810  0.1250219485828623  0.2778157836456145
  0.5822965958155280  0.0625040614123762  0.2836235232142741
  0.9177593259414962  0.0625061990289879  0.2835445665199003
  0.5000616216718541  0.1252189754633406  0.3695080868472616
  0.8325300782565037  0.0625029742559917  0.3676493363176192
  0.6675658579863324  0.0624949502405912  0.3676574891238999
  0.7501792002927985  0.1249278427262581  0.4535768863788761
  0.5839760610614206  0.0624956116697248  0.4542286014723800
  0.9162937587805615  0.0625048371877170  0.4537641342595862
  0.4998517479635112  0.1250770671840229  0.1968839559428659
  0.8336615408636732  0.1875190952990380  0.2025841423984431
  0.6661752822712259  0.1875467080942173  0.2026362167593589
  0.7499790271370514  0.2500250171774425  0.2778600767742674
  0.5822842762136133  0.1875115433615022  0.2836392824899008
  0.9177213809767224  0.1875004527503563  0.2835573793676716
  0.5000416445684408  0.2497923279897947  0.3695427674882410
  0.8325771445450485  0.1875013479166228  0.3675754479053523
  0.6676903655231072  0.1875006119767022  0.3676552894796430
  0.7501600239978927  0.2500203662527198  0.4536019250503998
  0.5841408297358228  0.1874531183114243  0.4537386048146175
  0.9164188318719084  0.1874750958628084  0.4541496310863948
  0.4998204095652952  0.2500251763176493  0.1969323609892584
  0.8336484560222388  0.3125385655457293  0.2026344505404367
  0.6661552863078199  0.3125527654065579  0.2026614059542240
  0.7499271892800863  0.3750477925974494  0.2779449267543654
  0.5822553650516369  0.3125161150228095  0.2837113985709934
  0.9177349363328915  0.3125040878085557  0.2835794831398530
  0.4999779940612328  0.3752095230490937  0.3696154530298372
  0.8324864395236347  0.3125057170671326  0.3676993132219906
  0.6675365714203849  0.3125207126862435  0.3677323649179058
  0.7500618391685734  0.3749254484589883  0.4536566547229057
  0.5839110802833929  0.3124560786144244  0.4542667517929999
  0.9162574313004583  0.3124731866071215  0.4538165995644547
  0.4998268190137196  0.3751081567959602  0.1969911560323041
  0.8336160954283542  0.4375335801095233  0.2026535530350415
  0.6660843041340954  0.4375356473376115  0.2027627474657905
  0.7499752698060860  0.9999680842114884  0.2778574144991026
  0.5822196666730051  0.4375047562015197  0.2838085599604767
  0.9176844550145944  0.4374982419755824  0.2836256821311380
  0.5000535229492726  0.9998160607983664  0.3694812773020644
  0.8324654229285429  0.4375025162544830  0.3676796867940837
  0.6675350911791043  0.4374964178109551  0.3678789887430369
  0.7501508867329889  0.0000562940818440  0.4535792757137145
  0.5836796796453640  0.4375404427428009  0.4540959424395012
  0.9163115032604665  0.4374910683889084  0.4542162625460477
  0.4998236985920030  0.4999766227052334  0.1970636172151430
  0.8336389578922692  0.5625128871580216  0.2026874326593173
  0.6660363337641257  0.5625077030742389  0.2027663912810809
  0.7498891253090108  0.6250043220659336  0.2780418698364286
  0.5822311375519504  0.5624996712956474  0.2838844253518005
  0.9176687858569466  0.5625061821200887  0.2836470252584746
  0.4999076566958323  0.6252246488596711  0.3696994435293206
  0.8323907307522873  0.5625078500473890  0.3677902470928558
  0.6674680164989155  0.5625179958395279  0.3679045337243849
  0.7499223350556505  0.6250278235303455  0.4537660171838525
  0.5838238565652460  0.5625487434737266  0.4543964237971068
  0.9161071537221446  0.5625049464785334  0.4538447890325230
  0.4998532319532814  0.6250158369802676  0.1970592780576723
  0.8336071078934495  0.6874767118062408  0.2026725456663456
  0.6660710866720123  0.6874665826912505  0.2027784748644237
  0.7499061376986091  0.7499797769585612  0.2779887301419421
  0.5822204093280163  0.6875000022470346  0.2838360726781985
  0.9176595037122866  0.6874992262941788  0.2836326785065282
  0.4999643140625238  0.7498028960539855  0.3696142650057155
  0.8324573145588516  0.6875098026441222  0.3677206407050377
  0.6674959877242230  0.6875201720336293  0.3679319613306617
  0.7499660612848018  0.7500924627021348  0.4537273120471497
  0.5836292616805565  0.6875686129994634  0.4541399571693461
  0.9162354876358663  0.6875308791743535  0.4542436270725005
  0.4998880769190563  0.7498822838788044  0.1969824142910994
  0.8336204994744065  0.8124744514526938  0.2026550454976714
  0.6661226026207245  0.8124570989288102  0.2026872087962559
  0.7499461057200563  0.8749774643389969  0.2779294561442214
  0.5822555392499282  0.8124946575163179  0.2837479651917576
  0.9177123083857950  0.8124922940021548  0.2835915788370471
  0.5000299147446725  0.8752068282021526  0.3694927671089019
  0.8324074594739201  0.8125071736127154  0.3677305652331739
  0.6674406751558379  0.8125088040024693  0.3677961482983392
  0.7500550607154182  0.8750172930193116  0.4536291312699348
  0.5838988298947427  0.8125633126415721  0.4542924140219426
  0.9161660285463071  0.8125402086168236  0.4538257655204276
  0.4999069210220881  0.8749747059033552  0.1969072502977696
  0.8336272973112244  0.9374661279087633  0.2026123488583877
  0.6661647890926830  0.9374535044198780  0.2026568122400860
  0.7498977353632839  0.5000055066349063  0.2780369335097959
  0.5822742303894017  0.9375069783908501  0.2836565366415584
  0.9177081514746988  0.9375036886931483  0.2835668345277469
  0.4999080355654542  0.4998165975551387  0.3696955652956078
  0.8325269841496237  0.9375064484889393  0.3675950332385014
  0.6675778474770908  0.9375163990883166  0.3677432986266282
  0.7499292395746124  0.4999975192240811  0.4537459920479776
  0.5838980012555268  0.9374992555177215  0.4539131089478374
  0.9163757700859279  0.9375328602645254  0.4541525808027629
  0.4060107358133536  0.0000247734835028  0.2320445897697212
  0.2501062801176488  0.0000278134710427  0.1991664570921330
  0.0940385973971587  0.0000184727011714  0.2319103122783019
  0.1544253726666938  0.1249849555383378  0.3155013479273521
  0.0000431863946773  0.1249704921192460  0.3028601666544404
  0.3457442525723451  0.1250382746012377  0.3156566168743424
  0.4013470730137811  0.1248273839241492  0.4025813891606447
  0.2501132479209929  0.1249989996519147  0.3865910381273352
  0.0988330776809789  0.1251407315862210  0.4023499774529142
  0.1534668749996584  0.1248591885568473  0.4869528266484267
  0.0000629166105597  0.1244558275235050  0.4748796159546487
  0.3471479173428520  0.1244811045993757  0.4876110757649528
  0.4004263374882200  0.1222532113083190  0.5695626305565469
  0.2496574651312997  0.1252788544398769  0.5573724705262606
  0.0998348263434039  0.1245775373848659  0.5675448844443238
  0.4059940707726568  0.1250349556313566  0.2320840001089124
  0.2501044888870680  0.1250324911372260  0.1992766244418007
  0.0940778861648113  0.1250092647383667  0.2319439412782458
  0.1543917986816368  0.2500378884681851  0.3155488061333855
  0.0000291984764189  0.2500263123518494  0.3028871594517213
  0.3457301295799553  0.2499845378841599  0.3157261306464747
  0.4013444128590677  0.2500837281746158  0.4026362390543525
  0.2500998301021724  0.2499700054012308  0.3866341015227093
  0.0988281281196493  0.2498295475569847  0.4023810386006019
  0.1534557156223855  0.2500218971677413  0.4870045717967315
  0.0000510715474675  0.2504610936976448  0.4749336787155727
  0.3471031616532088  0.2501741136838049  0.4875852290716836
  0.4001368817234123  0.2523022359553977  0.5696014106433225
  0.2496622164283622  0.2495776204282549  0.5574229921794895
  0.0998270994489729  0.2502932713270454  0.5675302443582311
  0.4059775739178662  0.2500366067963427  0.2321536451048516
  0.2501025517498405  0.2500441446172701  0.1992697022615033
  0.0940874184438130  0.2500355507836076  0.2319804017844831
  0.1543855462776946  0.3749613979489368  0.3155832500689186
  0.0000001706145056  0.3749651350608900  0.3029119253226398
  0.3457021987096951  0.3750270177566861  0.3157791579328233
  0.4012972307228750  0.3748972749811941  0.4026869461463463
  0.2499967679522825  0.3749965669441977  0.3865993805006056
  0.0987675507050341  0.3751133138848601  0.4024339603631972
  0.1532786609619450  0.3749613868695931  0.4871579845745586
  0.0000051331496991  0.3744292221563583  0.4749914966540842
  0.3466955330386696  0.3752588435081563  0.4871783816657995
  0.4002519626138650  0.3752320984956938  0.5679971889218223
  0.2502271206326157  0.3750809698707869  0.5575185709736701
  0.0999554636684863  0.3746870990363078  0.5676098953777284
  0.4059720638172877  0.3750315495107657  0.2322238922656865
  0.2501050801265023  0.3750365630953212  0.1993106697998215
  0.0940850867880343  0.3750130687435913  0.2320221240825049
  0.1544300024675422  0.0000605952474970  0.3154593425294721
  0.0000402023603527  0.0000433245602594  0.3028484046062161
  0.3456966843804494  0.0000228670537155  0.3155816533057774
  0.4013354307367152  0.0001157535277088  0.4024866030405292
  0.2500225149495847  0.9999855177266426  0.3864214959117405
  0.0988172431777059  0.9998922130196135  0.4023528199186543
  0.1534521262108868  0.0000508555753242  0.4870732390038555
  0.0000721267052342  0.0005305452215794  0.4749136375400198
  0.3467086121417253  0.9994002141770508  0.4870486097767923
  0.4002313851210957  0.9989436917265166  0.5678370584090189
  0.2503308718884867  0.0001607504459713  0.5573978360671745
  0.1000240260507681  0.0001764450840582  0.5674446168530309
  0.4059624012795666  0.5000076872188330  0.2322861777665608
  0.2500954942342659  0.5000246509987889  0.1994823959425602
  0.0940534835344735  0.5000030057785878  0.2320496600409996
  0.1543245506536692  0.6249644614266288  0.3155964656967214
  0.9999570956495489  0.6249648727606356  0.3029282063330356
  0.3456238450383893  0.6250154565633395  0.3158215052082767
  0.4011835937697299  0.6249173591750079  0.4027275692929209
  0.2499151168527050  0.6250249283414675  0.3866739091013542
  0.0986884532498493  0.6251419388178547  0.4024148758126955
  0.1531010681349869  0.6250686586359819  0.4870511881307280
  0.9998583061698554  0.6245289597465558  0.4749393527141592
  0.3466172946593389  0.6258945310962929  0.4876063622029250
  0.3984695129521469  0.6269518504519027  0.5689532623079856
  0.2489612136710235  0.6250063716441971  0.5575715963901615
  0.0991341772913046  0.6248745701548017  0.5675025611803264
  0.4059728985103135  0.6249806639540196  0.2322670744802195
  0.2500935106664599  0.6249595862295223  0.1994381069642870
  0.0940289397735867  0.6249780037714956  0.2320279510069128
  0.1543436243905489  0.7500260386538926  0.3155277242871364
  0.9999801668468606  0.7500336325429018  0.3028925570331467
  0.3456351106513793  0.7499486089087455  0.3156990889953946
  0.4011960727252202  0.7501321762995801  0.4025718559065155
  0.2499248261940181  0.7500336134222039  0.3865283579241634
  0.0987282214618830  0.7499031599248909  0.4023845189715303
  0.1532151146187601  0.7501148903465733  0.4870761364062304
  0.9999302377632304  0.7505794216692792  0.4749342051199790
  0.3465830453101333  0.7501124894988749  0.4871964694381248
  0.4006072314519002  0.7508233898769276  0.5677348479529201
  0.2499237124429285  0.7496542175378735  0.5573629585093940
  0.0997670012312142  0.7504836390991372  0.5675004805017494
  0.4060001249379326  0.7499507125384071  0.2321744191484925
  0.2500926175014158  0.7499489450220409  0.1993489743690162
  0.0940248090158633  0.7499764093078340  0.2319694486186208
  0.1543814288827789  0.8749720577817257  0.3154665200585711
  0.0000135935496743  0.8749777020863263  0.3028643221518621
  0.3456332989940023  0.8750430515506196  0.3155830302565903
  0.4012482406185569  0.8748967451186900  0.4024413424966511
  0.2499698137841406  0.8750592665361694  0.3864158996520999
  0.0987952641091709  0.8751655698314522  0.4023532881003291
  0.1533848442043961  0.8749186765502870  0.4870413779772278
  0.0000040598646152  0.8745539614418405  0.4749021891703151
  0.3465963060520068  0.8752939643160857  0.4870454975410041
  0.4005400429112029  0.8749242267711494  0.5675464385809690
  0.2500815394823874  0.8751060217735827  0.5573386640771574
  0.0998661408827033  0.8747501058336056  0.5673435241104556
  0.4060191670165878  0.8749822257257165  0.2320707960309818
  0.2501049810218703  0.8749601335463524  0.1991052228656471
  0.0940120565649352  0.8749777265609637  0.2319101995620585
  0.1543426024701091  0.5000306537932957  0.3156172710703871
  0.9999678555051119  0.5000327058435161  0.3029366519036287
  0.3456387188411227  0.4999848805815859  0.3158403519529926
  0.4012207162408359  0.5002023454014548  0.4027486839087970
  0.2499447108509543  0.4999991264399810  0.3867055226111802
  0.0987167352141682  0.4998623770882773  0.4024402999027359
  0.1530959224393769  0.5000432453592154  0.4870614047926836
  0.9998743704428961  0.5005004801914126  0.4749450317112363
  0.3466617137908443  0.4995048242851254  0.4875971035808746
  0.3986803831340069  0.4985691082878532  0.5688939065239467
  0.2490295334954666  0.5001547242918605  0.5575695327442531
  0.0991827945047490  0.5001892564879284  0.5675264647836542
  0.9060375668650522  0.0000047947217254  0.2318433472797210
  0.7499009024084486  0.9999886773312667  0.1991185129172024
  0.5939065381566593  0.9999898144167574  0.2319273577035332
  0.6543892386160124  0.1250230417069034  0.3153947802789787
  0.5000310928066156  0.1250506826143578  0.3029675795906854
  0.8456670248811804  0.1249683206691472  0.3153509210181156
  0.9012775049130681  0.1251406545462004  0.4022718998281292
  0.7501354910741043  0.1250068009609251  0.3862877085504977
  0.5989699185037765  0.1248251150695552  0.4022689260419980
  0.6536016690768420  0.1252026513059050  0.4869581561905676
  0.5002669769091312  0.1257171582686567  0.4749188739225545
  0.8467610786012969  0.1249157641622674  0.4869270345023722
  0.9002701992418594  0.1246615051250686  0.5672817877531955
  0.7501547155334904  0.1251743818570290  0.5571676859442647
  0.5999794248310337  0.1249000843457608  0.5673774655250554
  0.9060585315817207  0.1249961003303568  0.2318255865925067
  0.7499182323161051  0.1250082780429196  0.1990558175857871
  0.5938963137603750  0.1250240503513353  0.2319102510867594
  0.6543876080893654  0.2499953800403603  0.3154333774928304
  0.5000178023246278  0.2499579750901830  0.3030111043704764
  0.8456703921791444  0.2500489516191919  0.3153778203090170
  0.9012554387669169  0.2498480742413918  0.4022906603101220
  0.7501111817690997  0.2499890013590473  0.3863179029758967
  0.5989351455119376  0.2501464523006121  0.4023088246387658
  0.6535695624464068  0.2496502168966970  0.4869595395030970
  0.5002658239826658  0.2492346799299980  0.4749095219806065
  0.8467311617522597  0.2500031768770654  0.4869576434117135
  0.9001939467622293  0.2503268442851478  0.5672962576853919
  0.7500812391097966  0.2498143467973364  0.5571959859804139
  0.6001427393037346  0.2498774216413508  0.5673893826478746
  0.9060351608621318  0.2500326607524741  0.2318444047635424
  0.7499115858656253  0.2500457853688545  0.1990524722821760
  0.5938743472573833  0.2500393247563011  0.2319521712252524
  0.6543128884046965  0.3750492548971565  0.3155346051118073
  0.4999866502737049  0.3750324311684139  0.3030839490426018
  0.8456426960224590  0.3749774023764303  0.3154343418578520
  0.9012367552198555  0.3751249187800596  0.4023410303856707
  0.7500519730455864  0.3750003447081127  0.3863851070093745
  0.5988225989919513  0.3749167180321393  0.4024672210482834
  0.6534197556964187  0.3751769375725260  0.4870920854923355
  0.5001024080865122  0.3753746845214962  0.4751250371099331
  0.8466946937705515  0.3748956157804813  0.4869583560978654
  0.9001943250449429  0.3746520581611819  0.5672882871179468
  0.7501098557035846  0.3750550030923137  0.5573057047709327
  0.5998409391265227  0.3748073448534583  0.5677227126252262
  0.9059870746053136  0.3750176804399317  0.2318887610593450
  0.7498719916332348  0.3750593660462016  0.1991738457980787
  0.5938554168144421  0.3750447848056737  0.2320465578464095
  0.6543479438004951  0.9999810578368411  0.3154274658903589
  0.5000153840682202  0.9999883532705311  0.3029445779308233
  0.8456671576688350  0.0000451209095473  0.3153739640375122
  0.9012770013144049  0.9998869186010069  0.4022890494264288
  0.7501033112551667  0.9999890316006059  0.3862946982492943
  0.5988963915855763  0.0001316813860370  0.4023596611583073
  0.6535482047548768  0.9997597226219170  0.4869898040793643
  0.5001650988301449  0.9994622695819757  0.4749168128391048
  0.8467077775438767  0.0001180607981510  0.4869451790123449
  0.9002292965985106  0.0003020315798921  0.5672485456013519
  0.7501264205684919  0.9999685084429117  0.5572422027932902
  0.5999655659018330  0.9999448867919725  0.5675854305892614
  0.9059626189589096  0.5000225151259556  0.2319330817256287
  0.7498528361709305  0.5000468457032241  0.1992831876533998
  0.5938436216353935  0.5000192613968295  0.2321402075194783
  0.6543047829346165  0.6250341533858617  0.3156500162611948
  0.4999438167820642  0.6250202344299183  0.3031620817336815
  0.8456012628115275  0.6249774699405108  0.3154942508213310
  0.9011707414553030  0.6251515283652793  0.4023701303682259
  0.7499929604945166  0.6250161000590069  0.3864862815890717
  0.5987439453796952  0.6249431153830187  0.4025281778619458
  0.6533839445898550  0.6253863676444666  0.4871708856417598
  0.5000700639872377  0.6253493621789659  0.4751103645196864
  0.8465425888978118  0.6249432832280277  0.4870443160368652
  0.8997693236133983  0.6247310750945019  0.5674909926898764
  0.7501893926155034  0.6252623232352121  0.5573846067485633
  0.6011449407305207  0.6255844937140864  0.5677655931450403
  0.9059573029247829  0.6249869116824414  0.2319424465553084
  0.7498512532650707  0.6249705417764417  0.1992783376662999
  0.5938538976080920  0.6249845735236477  0.2321574804442719
  0.6543064649508636  0.7499556952382562  0.3155868527742740
  0.4999565818546046  0.7499735555842193  0.3030845923055097
  0.8456204983403595  0.7500178200896670  0.3154621298305500
  0.9012069921033259  0.7498840247552891  0.4023563056798665
  0.7500037044564394  0.7500131660824465  0.3864424419026093
  0.5987786288449826  0.7501050124247541  0.4024924298066423
  0.6533800957455114  0.7498841701825825  0.4871801842880217
  0.5000380860063203  0.7497741010339780  0.4751621399978845
  0.8466214371330523  0.7501105874309317  0.4869924877721701
  0.9001412115077443  0.7503628528587782  0.5673734752938131
  0.7500592967608597  0.7499150521025584  0.5573138265345179
  0.5996164375133830  0.7503211006953165  0.5677219533586779
  0.9059602249454741  0.7499833166579180  0.2319154780172283
  0.7498628418900140  0.7499530329803505  0.1992487695001728
  0.5938731628924643  0.7499558181530475  0.2320911426340189
  0.6543286237438224  0.8750250187221553  0.3154867765399416
  0.4999771426728898  0.8750663566966423  0.3029720633501825
  0.8456571119277925  0.8749494185188311  0.3154102609064466
  0.9012278677829428  0.8751553430583670  0.4023136543012811
  0.7500432964085775  0.8750417048437740  0.3863505857902965
  0.5988359412370485  0.8749135050690384  0.4023913536010468
  0.6535151666434942  0.8753419914976348  0.4870847744823195
  0.5001371854746353  0.8753400343585369  0.4749423621704523
  0.8466532639984550  0.8749522484039431  0.4869625965511588
  0.9001115754679816  0.8747107576826352  0.5673453121231518
  0.7500595351486226  0.8752070341005904  0.5572557572901502
  0.5998810180589800  0.8751291635207963  0.5676321300296578
  0.9060007597908353  0.8749695844645586  0.2318724852359964
  0.7498797486484960  0.8749465981453000  0.1990835489541851
  0.5938980195102630  0.8749671908638774  0.2319951117038030
  0.6542980694307090  0.4999790790012426  0.3156264091244054
  0.4999491981525992  0.4999697981775668  0.3031554569270867
  0.8456181879956759  0.5000449230042534  0.3154840948693121
  0.9011810657518851  0.4998501038638139  0.4023624027579658
  0.7500068963360320  0.4999920140873755  0.3864630738138715
  0.5987661474593224  0.5001232688473181  0.4025129487152057
  0.6534092195274326  0.4997221846940292  0.4871672043843844
  0.5001282729977419  0.4998091418696546  0.4751589703975796
  0.8465900841716163  0.5000899431635091  0.4870103584993259
  0.8997759487389345  0.5002917034824890  0.5674962080613710
  0.7501900961998160  0.4996742997676833  0.5573448816494491
  0.6010996695417745  0.4995840604883099  0.5677822667893793
  0.0000292130625965  0.1144531701662146  0.5414294646153621
  0.3356377229045151  0.0607743231769078  0.5395734635737242
  0.1663750856304205  0.0625303206807786  0.5387661218921309
  0.9999836667280562  0.2604369376697235  0.5414621728360700
  0.3301276434017666  0.1872770653639222  0.5379770945410129
  0.1632961040827396  0.1874195362650681  0.5393155045033993
  0.0000602133874352  0.3644243227488317  0.5415183675893829
  0.3355803903459744  0.3136739250701481  0.5395086998500034
  0.1662280751239464  0.3124751956321390  0.5388106188405501
  0.0001379479664507  0.0105222701902647  0.5414512044333222
  0.3327489266872092  0.4366608543530930  0.5391082384303090
  0.1635850076310916  0.4376281818788215  0.5394241762258147
  0.9994557507329915  0.6144826981973495  0.5414496087512077
  0.3321096869255413  0.5628453604818162  0.5383486982827321
  0.1651968220511080  0.5625717138711792  0.5388396623931939
  0.9999334267892479  0.7605845913869302  0.5414507327811293
  0.3326083163285176  0.6890428724139426  0.5391526864468119
  0.1635953210022123  0.6875153611291722  0.5393696031200932
  0.9999681677555330  0.8645914907936998  0.5414072503045730
  0.3362361044433726  0.8127838502005602  0.5392381287215144
  0.1665730893911785  0.8124682811645201  0.5388063606047453
  0.9994564759810984  0.5105174149048537  0.5414625191674247
  0.3336365056307287  0.9371587984286549  0.5388698412942574
  0.1641622995384822  0.9374513418151338  0.5393130811941163
  0.5011111864308546  0.1341213659698113  0.5414559622403630
  0.8334158314572022  0.0625144721616593  0.5386831492993949
  0.6641663352820188  0.0620543285634554  0.5390834290282811
  0.5010576185023936  0.2411413227646335  0.5414800934311472
  0.8358337435377052  0.1874617346087817  0.5391995290044420
  0.6669510125764049  0.1873820403936080  0.5387194525944707
  0.5000702085945079  0.3841960306471108  0.5416804692383366
  0.8333843536335905  0.3125164945140142  0.5386901766561891
  0.6641371953283226  0.3127133039231467  0.5390705838890923
  0.5000413524910670  0.9902084355847975  0.5414326085671277
  0.8357461449195398  0.4375449972103524  0.5392517236930701
  0.6668274428182812  0.4372940089697934  0.5388360121855911
  0.5009115544819025  0.6341571008489666  0.5416742655296289
  0.8332070101300317  0.5625100707090240  0.5388033492236559
  0.6636926194040171  0.5626387799858108  0.5393898829854180
  0.5002120128998442  0.7407568609968607  0.5417345531119935
  0.8357669878611986  0.6875494186527931  0.5393035417118597
  0.6668547074572544  0.6879051559236800  0.5388584376932641
  0.5002839745579664  0.8845085020347909  0.5415042191815544
  0.8333501309262914  0.8124742044669730  0.5387409416342877
  0.6639613166874980  0.8126530638579084  0.5392372924566970
  0.5010158412847971  0.4909734111744157  0.5417441661270601
  0.8358732503975688  0.9374522562986414  0.5391880482309830
  0.6665559187863650  0.9374885194924261  0.5388399427394006
  0.4407984896001054  0.5627338661302375  0.6018496458680573
  0.4185446739126846  0.1872448667620148  0.6078459795137405
 
  0.00000000E+00  0.00000000E+00  0.00000000E+00
  0.00000000E+00  0.00000000E+00  0.00000000E+00
  0.00000000E+00  0.00000000E+00  0.00000000E+00
  0.00000000E+00  0.00000000E+00  0.00000000E+00
  0.00000000E+00  0.00000000E+00  0.00000000E+00