Mo  S Co                                
   1.00000000000000     
    15.9214998300000001    0.0000000000000000    0.0000000000000000
    -7.9622501300000001   13.7910221699999997    0.0000000000000000
     0.0000000000000000    0.0000000000000000   13.5821998300000004
   Mo   S    Ru
    25    49     4
Direct
  0.1331300984836759  0.0677436152657265  0.6761806754025983
  0.1328394274996114  0.2659090785603198  0.6703751727767013
  0.1329998037659550  0.4642914289915936  0.6757330557850594
  0.1330959122576303  0.6656352284379992  0.6780784344052435
  0.1331532317054567  0.8664204601210415  0.6783094958550535
  0.3329129283307850  0.0671813524827982  0.6785295538267846
  0.3318588217312168  0.2691370438817628  0.6720383361293329
  0.3316398286679387  0.4617302364587061  0.6712690879846406
  0.3328439139458439  0.6646493843124830  0.6779091215316129
  0.3328568386588557  0.8658879609605066  0.6792972009242817
  0.5330079064041371  0.0660860466078788  0.6804541923411946
  0.5325578502915178  0.2658427162216412  0.6779109994452028
  0.5305674651307015  0.4647288609007418  0.6617514410049949
  0.5326807936840297  0.6658979007097301  0.6773982649025001
  0.5330377817902772  0.8659632434948321  0.6801496015818600
  0.7332962288065374  0.0661973949937149  0.6806382223647418
  0.7332220765784569  0.2658291859065969  0.6809312664392237
  0.7334564602977167  0.4655964517830071  0.6768403939754037
  0.7335530565010941  0.6669811054272827  0.6768299903416661
  0.7333704161365375  0.8666101662019230  0.6806050856917096
  0.9337338159281003  0.0666875451435232  0.6785237260055652
  0.9336470373890862  0.2660422761606185  0.6785269107519554
  0.9332158889695421  0.4657411568762058  0.6785823150895709
  0.9331840638062729  0.6660917933271335  0.6782635671735306
  0.9333396674466599  0.8665549531990138  0.6786204769549187
  0.0643791898019472  0.1313975501448539  0.5595397596758929
  0.0712508564877155  0.1380982665104327  0.7908728687722970
  0.0641666832533545  0.3316860038549905  0.5593771247879218
  0.0712682811023200  0.3322859941163046  0.7907214379809560
  0.0659365819152740  0.5323765004112033  0.5626713694189434
  0.0675360675816563  0.5317311999328496  0.7922975446971208
  0.0666212648424391  0.7328648904446027  0.5632318949740878
  0.0666305346384704  0.7327077054795552  0.7931428868950974
  0.0662291016276910  0.9327417753680578  0.5629260864580559
  0.0675186440992519  0.9346870700013099  0.7925611050928936
  0.2665048211046184  0.1329330030359230  0.5607317457234515
  0.2662229180078626  0.1388019057210030  0.7902185535557464
  0.2642389883153342  0.3313694542783168  0.5567772389233170
  0.2662266527339980  0.5325033516556914  0.5599694709790057
  0.2661253657033384  0.5263808034572079  0.7896038569119597
  0.2668225155579336  0.7327187764891150  0.5635594445830208
  0.2660196788562672  0.7312116789314587  0.7933902953886900
  0.2669105032211263  0.9332994534536851  0.5638755880893100
  0.2660320234437492  0.9335147837299687  0.7937106772906191
  0.4664954830930697  0.1320190201050551  0.5644881333423868
  0.4655446004394008  0.1336059522551523  0.7943983690830478
  0.4633886610565767  0.3264645448126657  0.5556869952589238
  0.4630893347779619  0.3387010478356132  0.7870176494321015
  0.4635589740640498  0.5358751538299984  0.5552118217967461
  0.4625277216181800  0.5234276677199787  0.7858417919891565
  0.4666157020826418  0.7335982493059134  0.5639831865174258
  0.4654338489647429  0.7308330381817569  0.7938576765616858
  0.4668315491382984  0.9330214459406960  0.5650819572495323
  0.4655605121055686  0.9321610058213707  0.7950988030903261
  0.6666057656283400  0.1328522209078216  0.5658686313986010
  0.6664183933032817  0.1324825919920016  0.7958341307194061
  0.6666632446291345  0.3312758993167009  0.5644621216211618
  0.6658428211757013  0.3340494297163445  0.7977046665411933
  0.6710726414759165  0.5350544249979734  0.5577247142159294
  0.6572250692029442  0.5281685449181523  0.7868459620716948
  0.6669649492854433  0.7345397328650023  0.5642235053221825
  0.6661193839172483  0.7313534519428089  0.7976838769965369
  0.6667225195396753  0.9330273664914230  0.5656353971399994
  0.6664015824735401  0.9329287177588270  0.7955928924322606
  0.8656344563126126  0.1323442643668926  0.5643649814174481
  0.8679276652358539  0.1334772990072892  0.7944619427536139
  0.8652707842117948  0.3317088750840824  0.5645961420553789
  0.8681776684597935  0.3331009662995257  0.7945634069344365
  0.8673100889145786  0.5326670682775756  0.5629702327085440
  0.8660494346791623  0.5326231920860849  0.7930976868872790
  0.8673648582203839  0.7337124355429552  0.5630062380351362
  0.8661137356656070  0.7324837198904817  0.7931130379605378
  0.8655692968059299  0.9327607800914635  0.5644649308807104
  0.8681985245556803  0.9341591119589268  0.7944466601631817
  0.4210791834991880  0.4112489407799842  0.9112925116036692
  0.5815673873898248  0.4100245559489863  0.9105435759166625
  0.5812361506835302  0.5732862042442761  0.9079070909639242
  0.5304617741587876  0.4674126377378300  0.0432100370001081
 
  0.00000000E+00  0.00000000E+00  0.00000000E+00
  0.00000000E+00  0.00000000E+00  0.00000000E+00
  0.00000000E+00  0.00000000E+00  0.00000000E+00
  0.00000000E+00  0.00000000E+00  0.00000000E+00
  0.00000000E+00  0.00000000E+00  0.00000000E+00
  0.00000000E+00  0.00000000E+00  0.00000000E+00
  0.00000000E+00  0.00000000E+00  0.00000000E+00
  0.00000000E+00  0.00000000E+00  0.00000000E+00
  0.00000000E+00  0.00000000E+00  0.00000000E+00
  0.00000000E+00  0.00000000E+00  0.00000000E+00
  0.00000000E+00  0.00000000E+00  0.00000000E+00
  0.00000000E+00  0.00000000E+00  0.00000000E+00
  0.00000000E+00  0.00000000E+00  0.00000000E+00
  0.00000000E+00  0.00000000E+00  0.00000000E+00
  0.00000000E+00  0.00000000E+00  0.00000000E+00
  0.00000000E+00  0.00000000E+00  0.00000000E+00
  0.00000000E+00  0.00000000E+00  0.00000000E+00
  0.00000000E+00  0.00000000E+00  0.00000000E+00
  0.00000000E+00  0.00000000E+00  0.00000000E+00
  0.00000000E+00  0.00000000E+00  0.00000000E+00
  0.00000000E+00  0.00000000E+00  0.00000000E+00
  0.00000000E+00  0.00000000E+00  0.00000000E+00
  0.00000000E+00  0.00000000E+00  0.00000000E+00
  0.00000000E+00  0.00000000E+00  0.00000000E+00
  0.00000000E+00  0.00000000E+00  0.00000000E+00
  0.00000000E+00  0.00000000E+00  0.00000000E+00
  0.00000000E+00  0.00000000E+00  0.00000000E+00
  0.00000000E+00  0.00000000E+00  0.00000000E+00
  0.00000000E+00  0.00000000E+00  0.00000000E+00
  0.00000000E+00  0.00000000E+00  0.00000000E+00
  0.00000000E+00  0.00000000E+00  0.00000000E+00
  0.00000000E+00  0.00000000E+00  0.00000000E+00
  0.00000000E+00  0.00000000E+00  0.00000000E+00
  0.00000000E+00  0.00000000E+00  0.00000000E+00
  0.00000000E+00  0.00000000E+00  0.00000000E+00
  0.00000000E+00  0.00000000E+00  0.00000000E+00
  0.00000000E+00  0.00000000E+00  0.00000000E+00
  0.00000000E+00  0.00000000E+00  0.00000000E+00
  0.00000000E+00  0.00000000E+00  0.00000000E+00
  0.00000000E+00  0.00000000E+00  0.00000000E+00
  0.00000000E+00  0.00000000E+00  0.00000000E+00
  0.00000000E+00  0.00000000E+00  0.00000000E+00
  0.00000000E+00  0.00000000E+00  0.00000000E+00
  0.00000000E+00  0.00000000E+00  0.00000000E+00
  0.00000000E+00  0.00000000E+00  0.00000000E+00
  0.00000000E+00  0.00000000E+00  0.00000000E+00
  0.00000000E+00  0.00000000E+00  0.00000000E+00
  0.00000000E+00  0.00000000E+00  0.00000000E+00
  0.00000000E+00  0.00000000E+00  0.00000000E+00
  0.00000000E+00  0.00000000E+00  0.00000000E+00
  0.00000000E+00  0.00000000E+00  0.00000000E+00
  0.00000000E+00  0.00000000E+00  0.00000000E+00
  0.00000000E+00  0.00000000E+00  0.00000000E+00
  0.00000000E+00  0.00000000E+00  0.00000000E+00
  0.00000000E+00  0.00000000E+00  0.00000000E+00
  0.00000000E+00  0.00000000E+00  0.00000000E+00
  0.00000000E+00  0.00000000E+00  0.00000000E+00
  0.00000000E+00  0.00000000E+00  0.00000000E+00
  0.00000000E+00  0.00000000E+00  0.00000000E+00
  0.00000000E+00  0.00000000E+00  0.00000000E+00
  0.00000000E+00  0.00000000E+00  0.00000000E+00
  0.00000000E+00  0.00000000E+00  0.00000000E+00
  0.00000000E+00  0.00000000E+00  0.00000000E+00
  0.00000000E+00  0.00000000E+00  0.00000000E+00
  0.00000000E+00  0.00000000E+00  0.00000000E+00
  0.00000000E+00  0.00000000E+00  0.00000000E+00
  0.00000000E+00  0.00000000E+00  0.00000000E+00
  0.00000000E+00  0.00000000E+00  0.00000000E+00
  0.00000000E+00  0.00000000E+00  0.00000000E+00
  0.00000000E+00  0.00000000E+00  0.00000000E+00
  0.00000000E+00  0.00000000E+00  0.00000000E+00
  0.00000000E+00  0.00000000E+00  0.00000000E+00
  0.00000000E+00  0.00000000E+00  0.00000000E+00
  0.00000000E+00  0.00000000E+00  0.00000000E+00
  0.00000000E+00  0.00000000E+00  0.00000000E+00
  0.00000000E+00  0.00000000E+00  0.00000000E+00
  0.00000000E+00  0.00000000E+00  0.00000000E+00
  0.00000000E+00  0.00000000E+00  0.00000000E+00
