Mo  S Cu                                
   1.00000000000000     
    15.9214998300000001    0.0000000000000000    0.0000000000000000
    -7.9622501300000001   13.7910221699999997    0.0000000000000000
     0.0000000000000000    0.0000000000000000   13.5821998300000004
   Mo   S    Cu
    25    50     3
Direct
  0.1324776006426944  0.0658701351136983  0.6788322240007005
  0.1320266923237625  0.2655912330560071  0.6782063473461193
  0.1324653302665766  0.4657586015028485  0.6786607320588658
  0.1327812026144954  0.6659136961335932  0.6791080074561364
  0.1327872290581169  0.8660243945606041  0.6792095384826098
  0.3329459623561988  0.0658928440617927  0.6789359806913922
  0.3327096331337316  0.2659483527510886  0.6780717031204944
  0.3327448500982371  0.4660065952062240  0.6777312326189033
  0.3329823203766367  0.6662182327275019  0.6788879619968142
  0.3328089482461323  0.8659893273289612  0.6792320990513900
  0.5329817440626101  0.0659947476286149  0.6790631358659951
  0.5331022025956358  0.2656146798742753  0.6784001852745760
  0.5328131742414755  0.4660578947344121  0.6779427771194833
  0.5331181291441567  0.6666776869017141  0.6784765479494368
  0.5329796772947191  0.8661182969948840  0.6791536990450950
  0.7327561398928282  0.0659600349247143  0.6790758490388953
  0.7327108081525040  0.2657446841855915  0.6789525390129896
  0.7328071652408852  0.4657531692630741  0.6789117115646874
  0.7327787781372379  0.6662231627006889  0.6790509687823771
  0.7326818246054856  0.8660982469496403  0.6791487408886496
  0.9325384170694520  0.0659665201241708  0.6789184711577789
  0.9325430143526603  0.2657372043523338  0.6788065511999051
  0.9327155766008275  0.4658968563009580  0.6790123788475952
  0.9326748318061959  0.6659111397352362  0.6791929630352840
  0.9327238772059161  0.8659810233111926  0.6792232189797360
  0.0656368038654662  0.1321910037230722  0.5634802638942347
  0.0661065655771225  0.1327602991214860  0.7943338998147667
  0.0656605510764550  0.3325528609343991  0.5633684003103028
  0.0660995965466284  0.3325824458568363  0.7942430968396366
  0.0659823163522191  0.5326705116963097  0.5638155843241819
  0.0660433171527899  0.5324888433807473  0.7940608060555832
  0.0660719719967844  0.7326508254339430  0.5641560438483566
  0.0660987611317339  0.7325921602081209  0.7941954009001790
  0.0659679406746179  0.9324926160042111  0.5639886410418455
  0.0660799786094159  0.9327034700105656  0.7942512851901995
  0.2660602754591537  0.1325022113639776  0.5636193920282224
  0.2659670159910448  0.1324898796492846  0.7939363314053338
  0.2656144773491391  0.3323185321826259  0.5628685976636731
  0.2648120330163266  0.3321980929513302  0.7936084882619951
  0.2660323728396818  0.5328162137531720  0.5634205506564243
  0.2659599549660925  0.5325804376605063  0.7936980221364038
  0.2661643367049678  0.7327770157855085  0.5639972057357667
  0.2661320562122285  0.7326052780392089  0.7942067525656924
  0.2661177325920576  0.9325526000863746  0.5640343724153354
  0.2661530636727463  0.9326681652773132  0.7942913470885529
  0.4661418251275506  0.1322521671225019  0.5636501332363935
  0.4661746397488926  0.1327814201105966  0.7945475158210797
  0.4663091052399437  0.3323611768099326  0.5630410976063374
  0.4668413523037884  0.3321944361697433  0.7938309394992444
  0.4664780487912807  0.5333112855769002  0.5628976384562421
  0.4666264627347303  0.5337441562787149  0.7939081531737813
  0.4662040543271431  0.7330780769396981  0.5636707420290321
  0.4661330415201235  0.7324717976875448  0.7946663128437876
  0.4662234932188554  0.9326605267610475  0.5641227078940716
  0.4662009256128741  0.9327021129326170  0.7942579215642596
  0.6661321067508226  0.1324972540882285  0.5639221679917625
  0.6662427283993821  0.1325636211654526  0.7943127754060626
  0.6664115029276871  0.3325918531355612  0.5635880507375077
  0.6659596099072758  0.3325596159696076  0.7945432723046650
  0.6663400773622072  0.5327972268458581  0.5636392295747470
  0.6661305509683544  0.5326283677792389  0.7939508338296051
  0.6664466754073715  0.7330286380249049  0.5637195558525789
  0.6658105960792895  0.7324469189497194  0.7947807716532793
  0.6661445079212100  0.9327321246539952  0.5640328748466530
  0.6662372800447969  0.9329075474466109  0.7944213728516445
  0.8658372434406871  0.1324560625352973  0.5638099266304266
  0.8659452896674935  0.1325939576621877  0.7941974247336532
  0.8659612419762297  0.3325059537938344  0.5638562739811093
  0.8660760095150550  0.3325232872120125  0.7940201351455514
  0.8661233384051670  0.5326444293663926  0.5639439358506593
  0.8660811032687334  0.5325057617880233  0.7941818818641408
  0.8661090901402986  0.7327085658487675  0.5640817609383220
  0.8660870749934872  0.7326689000917312  0.7942975994995649
  0.8659395614598466  0.9325738166355109  0.5640608404745180
  0.8660815951071754  0.9327478888992857  0.7942085328481099
  0.2234124170433347  0.3116416149142935  0.9476952309854667
  0.4907520582680789  0.3103840106574225  0.9467549070174002
  0.4932897025164351  0.5829690410772486  0.9456838316303973
 
  0.00000000E+00  0.00000000E+00  0.00000000E+00
  0.00000000E+00  0.00000000E+00  0.00000000E+00
  0.00000000E+00  0.00000000E+00  0.00000000E+00
  0.00000000E+00  0.00000000E+00  0.00000000E+00
  0.00000000E+00  0.00000000E+00  0.00000000E+00
  0.00000000E+00  0.00000000E+00  0.00000000E+00
  0.00000000E+00  0.00000000E+00  0.00000000E+00
  0.00000000E+00  0.00000000E+00  0.00000000E+00
  0.00000000E+00  0.00000000E+00  0.00000000E+00
  0.00000000E+00  0.00000000E+00  0.00000000E+00
  0.00000000E+00  0.00000000E+00  0.00000000E+00
  0.00000000E+00  0.00000000E+00  0.00000000E+00
  0.00000000E+00  0.00000000E+00  0.00000000E+00
  0.00000000E+00  0.00000000E+00  0.00000000E+00
  0.00000000E+00  0.00000000E+00  0.00000000E+00
  0.00000000E+00  0.00000000E+00  0.00000000E+00
  0.00000000E+00  0.00000000E+00  0.00000000E+00
  0.00000000E+00  0.00000000E+00  0.00000000E+00
  0.00000000E+00  0.00000000E+00  0.00000000E+00
  0.00000000E+00  0.00000000E+00  0.00000000E+00
  0.00000000E+00  0.00000000E+00  0.00000000E+00
  0.00000000E+00  0.00000000E+00  0.00000000E+00
  0.00000000E+00  0.00000000E+00  0.00000000E+00
  0.00000000E+00  0.00000000E+00  0.00000000E+00
  0.00000000E+00  0.00000000E+00  0.00000000E+00
  0.00000000E+00  0.00000000E+00  0.00000000E+00
  0.00000000E+00  0.00000000E+00  0.00000000E+00
  0.00000000E+00  0.00000000E+00  0.00000000E+00
  0.00000000E+00  0.00000000E+00  0.00000000E+00
  0.00000000E+00  0.00000000E+00  0.00000000E+00
  0.00000000E+00  0.00000000E+00  0.00000000E+00
  0.00000000E+00  0.00000000E+00  0.00000000E+00
  0.00000000E+00  0.00000000E+00  0.00000000E+00
  0.00000000E+00  0.00000000E+00  0.00000000E+00
  0.00000000E+00  0.00000000E+00  0.00000000E+00
  0.00000000E+00  0.00000000E+00  0.00000000E+00
  0.00000000E+00  0.00000000E+00  0.00000000E+00
  0.00000000E+00  0.00000000E+00  0.00000000E+00
  0.00000000E+00  0.00000000E+00  0.00000000E+00
  0.00000000E+00  0.00000000E+00  0.00000000E+00
  0.00000000E+00  0.00000000E+00  0.00000000E+00
  0.00000000E+00  0.00000000E+00  0.00000000E+00
  0.00000000E+00  0.00000000E+00  0.00000000E+00
  0.00000000E+00  0.00000000E+00  0.00000000E+00
  0.00000000E+00  0.00000000E+00  0.00000000E+00
  0.00000000E+00  0.00000000E+00  0.00000000E+00
  0.00000000E+00  0.00000000E+00  0.00000000E+00
  0.00000000E+00  0.00000000E+00  0.00000000E+00
  0.00000000E+00  0.00000000E+00  0.00000000E+00
  0.00000000E+00  0.00000000E+00  0.00000000E+00
  0.00000000E+00  0.00000000E+00  0.00000000E+00
  0.00000000E+00  0.00000000E+00  0.00000000E+00
  0.00000000E+00  0.00000000E+00  0.00000000E+00
  0.00000000E+00  0.00000000E+00  0.00000000E+00
  0.00000000E+00  0.00000000E+00  0.00000000E+00
  0.00000000E+00  0.00000000E+00  0.00000000E+00
  0.00000000E+00  0.00000000E+00  0.00000000E+00
  0.00000000E+00  0.00000000E+00  0.00000000E+00
  0.00000000E+00  0.00000000E+00  0.00000000E+00
  0.00000000E+00  0.00000000E+00  0.00000000E+00
  0.00000000E+00  0.00000000E+00  0.00000000E+00
  0.00000000E+00  0.00000000E+00  0.00000000E+00
  0.00000000E+00  0.00000000E+00  0.00000000E+00
  0.00000000E+00  0.00000000E+00  0.00000000E+00
  0.00000000E+00  0.00000000E+00  0.00000000E+00
  0.00000000E+00  0.00000000E+00  0.00000000E+00
  0.00000000E+00  0.00000000E+00  0.00000000E+00
  0.00000000E+00  0.00000000E+00  0.00000000E+00
  0.00000000E+00  0.00000000E+00  0.00000000E+00
  0.00000000E+00  0.00000000E+00  0.00000000E+00
  0.00000000E+00  0.00000000E+00  0.00000000E+00
  0.00000000E+00  0.00000000E+00  0.00000000E+00
  0.00000000E+00  0.00000000E+00  0.00000000E+00
  0.00000000E+00  0.00000000E+00  0.00000000E+00
  0.00000000E+00  0.00000000E+00  0.00000000E+00
  0.00000000E+00  0.00000000E+00  0.00000000E+00
  0.00000000E+00  0.00000000E+00  0.00000000E+00
  0.00000000E+00  0.00000000E+00  0.00000000E+00
