Ta  N Cu                                
   1.00000000000000     
     9.0548154099999998    0.0000000000000000    0.0000000000000000
     0.0000000000000000   11.6775998899999998    0.0000000000000000
     0.0000000000000000    0.0000000000000000   23.4818170799999990
   Ta   N    Cu
    60    60     2
Selective dynamics
Direct
  0.0000000000000000  0.0000000000000000  0.2546926809530987   F   F   F
  0.6670845899906297  0.1250000003211298  0.2638822399803757   F   F   F
  0.3329153514769843  0.1250000003211298  0.2638822399803757   F   F   F
  0.4999999994478088  0.2499999997859135  0.3618861993156202   F   F   F
  0.1650707596845180  0.1250000003211298  0.3684425577811794   F   F   F
  0.8349292403154820  0.1250000003211298  0.3684425577811794   F   F   F
 -0.0000449782686455  0.2499874503494647  0.4799311843278461   T   T   T
  0.6652431053308507  0.1249084361494659  0.4781534043717996   T   T   T
  0.3344321362022359  0.1248808782142288  0.4782436156669441   T   T   T
  0.4996070269212130  0.2498275378966435  0.5908034174592386   T   T   T
  0.1677888331244506  0.1246611802243395  0.5906564489694397   T   T   T
  0.8314426427943001  0.1248827271238123  0.5905013734339188   T   T   T
 -0.0001394339380891  0.2483499272021588  0.7028910797271228   T   T   T
  0.6742532228672982  0.1232393486514014  0.7040135749829358   T   T   T
  0.3359618330242958  0.1208075606471454  0.7014037304104054   T   T   T
  0.0000000000000000  0.2499999997859135  0.2546926809530987   F   F   F
  0.6670845899906297  0.3750000001070433  0.2638822399803757   F   F   F
  0.3329153514769843  0.3750000001070433  0.2638822399803757   F   F   F
  0.4999999994478088  0.5000000004281731  0.3618861993156202   F   F   F
  0.1650707596845180  0.3750000001070433  0.3684425577811794   F   F   F
  0.8349292403154820  0.3750000001070433  0.3684425577811794   F   F   F
 -0.0000524185539760  0.4996864860214318  0.4798186020007279   T   T   T
  0.6651505589728035  0.3748280673777341  0.4781696338092228   T   T   T
  0.3345016163324420  0.3748091343292853  0.4782909197046736   T   T   T
  0.5004277556258634  0.4995786819124188  0.5907065989689623   T   T   T
  0.1678637284318553  0.3745939504858620  0.5905674870027402   T   T   T
  0.8314406885750755  0.3746524189631052  0.5903841133762205   T   T   T
  0.0020760934827170  0.4992113812254766  0.7019032711205284   T   T   T
  0.6747423502444873  0.3761625904772256  0.7043404406284545   T   T   T
  0.3310720282230402  0.3795946437162699  0.7033122895957122   T   T   T
  0.0000000000000000  0.5000000004281731  0.2546926809530987   F   F   F
  0.6670845899906297  0.6249999998929567  0.2638822399803757   F   F   F
  0.3329153514769843  0.6249999998929567  0.2638822399803757   F   F   F
  0.4999999994478088  0.7500000002140865  0.3618861993156202   F   F   F
  0.1650707596845180  0.6249999998929567  0.3684425577811794   F   F   F
  0.8349292403154820  0.6249999998929567  0.3684425577811794   F   F   F
 -0.0000313738303305  0.7498410619414609  0.4797525176356442   T   T   T
  0.6649318337907477  0.6248096762992059  0.4780760102538824   T   T   T
  0.3349483602253380  0.6248067132832946  0.4781025666086272   T   T   T
  0.5003349561093433  0.7495500599401490  0.5906894785348765   T   T   T
  0.1677216931417222  0.6247095807241920  0.5899731926316161   T   T   T
  0.8322080614823726  0.6246310552369011  0.5899622291780324   T   T   T
  0.0016252731445585  0.7493970503702996  0.7018799483432823   T   T   T
  0.6722730687431213  0.6250759604080126  0.7039577442952600   T   T   T
  0.3295358478308971  0.6252205906943571  0.7039510912120489   T   T   T
  0.0000000000000000  0.7500000002140865  0.2546926809530987   F   F   F
  0.6670845899906297  0.8750000005352163  0.2638822399803757   F   F   F
  0.3329153514769843  0.8750000005352163  0.2638822399803757   F   F   F
  0.4999999994478088  0.0000000000000000  0.3618861993156202   F   F   F
  0.1650707596845180  0.8750000005352163  0.3684425577811794   F   F   F
  0.8349292403154820  0.8750000005352163  0.3684425577811794   F   F   F
 -0.0000355031858343 -0.0001250849211464  0.4798512996953718   T   T   T
  0.6650545478057556  0.8749603791684454  0.4781133342422718   T   T   T
  0.3348166320865159  0.8749369049801244  0.4781978936098208   T   T   T
  0.5000051913757362 -0.0005481196949369  0.5909035256030605   T   T   T
  0.1677526902622773  0.8743718368360797  0.5900535339871389   T   T   T
  0.8318807681845943  0.8746992958247859  0.5898726538283348   T   T   T
 -0.0002611948641019  0.0007240473958711  0.7015147408858755   T   T   T
  0.6728270312655054  0.8741894310353946  0.7038190489282475   T   T   T
  0.3312111945021513  0.8715779745152828  0.7044466329539693   T   T   T
  0.8141011533980276  0.0000000000000000  0.3013105672926031   F   F   F
  0.4999999994478088  0.0000000000000000  0.2564174481620327   F   F   F
  0.1858988466019724  0.0000000000000000  0.3013105672926031   F   F   F
  0.3088456122590841  0.2499999997859135  0.4099867722441957   F   F   F
  0.0000000000000000  0.2499999997859135  0.3930971035158137   F   F   F
  0.6911543877409159  0.2499999997859135  0.4099867722441957   F   F   F
  0.8021643766758524  0.2498573360608439  0.5223637467975337   T   T   T
  0.4997938560495987  0.2497165893211899  0.5028529805580417   T   T   T
  0.1975743606974489  0.2497891952685365  0.5225040405717998   T   T   T
  0.3040392161696835  0.2501657059212244  0.6349208430412503   T   T   T
 -0.0004346470727630  0.2497856370373790  0.6144624667824651   T   T   T
  0.6945323467073864  0.2500406155819314  0.6341341574042053   T   T   T
  0.8083865333783581  0.2493397168754670  0.7411099764641039   T   T   T
  0.5024961715830836  0.2497836005315814  0.7289828773675538   T   T   T
  0.1960635208207207  0.2538805735867815  0.7469060817002918   T   T   T
  0.8141011533980276  0.2499999997859135  0.3013105672926031   F   F   F
  0.4999999994478088  0.2499999997859135  0.2564174481620327   F   F   F
  0.1858988466019724  0.2499999997859135  0.3013105672926031   F   F   F
  0.3088456122590841  0.5000000004281731  0.4099867722441957   F   F   F
  0.0000000000000000  0.5000000004281731  0.3930971035158137   F   F   F
  0.6911543877409159  0.5000000004281731  0.4099867722441957   F   F   F
  0.8023064821331325  0.4995589500287203  0.5222279708082550   T   T   T
  0.4999508746159845  0.4997472491212094  0.5027416539980293   T   T   T
  0.1974874443233384  0.4994939559812545  0.5222401712169553   T   T   T
  0.3042608430499181  0.5005022389469963  0.6329866822834986   T   T   T
 -0.0000445142261288  0.4994514460767556  0.6136972065465455   T   T   T
  0.6960482645030253  0.5000634393332014  0.6333882124871043   T   T   T
  0.8079828321678095  0.4999242154780258  0.7405361288669770   T   T   T
  0.5007091635021559  0.4989046147154028  0.7240018386737601   T   T   T
  0.1959128461943657  0.5001613606228755  0.7409074444628329   T   T   T
  0.8141011533980276  0.5000000004281731  0.3013105672926031   F   F   F
  0.4999999994478088  0.5000000004281731  0.2564174481620327   F   F   F
  0.1858988466019724  0.5000000004281731  0.3013105672926031   F   F   F
  0.3088456122590841  0.7500000002140865  0.4099867722441957   F   F   F
  0.0000000000000000  0.7500000002140865  0.3930971035158137   F   F   F
  0.6911543877409159  0.7500000002140865  0.4099867722441957   F   F   F
  0.8022856335876490  0.7497776570130077  0.5220720939674762   T   T   T
  0.5000057084277151  0.7498538533192690  0.5027297687644833   T   T   T
  0.1976949580878637  0.7498344284553026  0.5221259253649156   T   T   T
  0.3042221401112531  0.7495222833369619  0.6331566640354893   T   T   T
 -0.0000471745410751  0.7495736310685513  0.6135238525229231   T   T   T
  0.6961764177899779  0.7495537494621158  0.6331504769642344   T   T   T
  0.8077584710897948  0.7494557155487503  0.7403858367601583   T   T   T
  0.5008359867443917  0.7501533728102981  0.7238218347397605   T   T   T
  0.1951741810578265  0.7492151780203270  0.7409475165534140   T   T   T
  0.8141011533980276  0.7500000002140865  0.3013105672926031   F   F   F
  0.4999999994478088  0.7500000002140865  0.2564174481620327   F   F   F
  0.1858988466019724  0.7500000002140865  0.3013105672926031   F   F   F
  0.3088456122590841  0.0000000000000000  0.4099867722441957   F   F   F
  0.0000000000000000  0.0000000000000000  0.3930971035158137   F   F   F
  0.6911543877409159  0.0000000000000000  0.4099867722441957   F   F   F
  0.8022641352556218  0.0000553057171340  0.5221796463502695   T   T   T
  0.4998607759013911  0.0000358042132443  0.5029285907397528   T   T   T
  0.1975257665681849 -0.0001075124117219  0.5222935948695770   T   T   T
  0.3033309797477574 -0.0021942921046484  0.6336656213848533   T   T   T
 -0.0003439727974528 -0.0003269366879850  0.6134823045224790   T   T   T
  0.6961687348661463 -0.0009217641289857  0.6333518257108695   T   T   T
  0.8076042058703969 -0.0001539567361988  0.7406965963937412   T   T   T
  0.5017940619538168 -0.0000431165883483  0.7242153408052475   T   T   T
  0.1955414889373445 -0.0043714995435925  0.7431699527187688   T   T   T
  0.1509014569279748  0.1205670023530490  0.7933620290055718   T   T   T
  0.3804477180089216  0.2444717756375527  0.7991542067213698   T   T   T
 
  0.00000000E+00  0.00000000E+00  0.00000000E+00
  0.00000000E+00  0.00000000E+00  0.00000000E+00
  0.00000000E+00  0.00000000E+00  0.00000000E+00
  0.00000000E+00  0.00000000E+00  0.00000000E+00
  0.00000000E+00  0.00000000E+00  0.00000000E+00
  0.00000000E+00  0.00000000E+00  0.00000000E+00
  0.00000000E+00  0.00000000E+00  0.00000000E+00
  0.00000000E+00  0.00000000E+00  0.00000000E+00
  0.00000000E+00  0.00000000E+00  0.00000000E+00
  0.00000000E+00  0.00000000E+00  0.00000000E+00
  0.00000000E+00  0.00000000E+00  0.00000000E+00
  0.00000000E+00  0.00000000E+00  0.00000000E+00
  0.00000000E+00  0.00000000E+00  0.00000000E+00
  0.00000000E+00  0.00000000E+00  0.00000000E+00
  0.00000000E+00  0.00000000E+00  0.00000000E+00
  0.00000000E+00  0.00000000E+00  0.00000000E+00
  0.00000000E+00  0.00000000E+00  0.00000000E+00
  0.00000000E+00  0.00000000E+00  0.00000000E+00
  0.00000000E+00  0.00000000E+00  0.00000000E+00
  0.00000000E+00  0.00000000E+00  0.00000000E+00
  0.00000000E+00  0.00000000E+00  0.00000000E+00
  0.00000000E+00  0.00000000E+00  0.00000000E+00
  0.00000000E+00  0.00000000E+00  0.00000000E+00
  0.00000000E+00  0.00000000E+00  0.00000000E+00
  0.00000000E+00  0.00000000E+00  0.00000000E+00
  0.00000000E+00  0.00000000E+00  0.00000000E+00
  0.00000000E+00  0.00000000E+00  0.00000000E+00
  0.00000000E+00  0.00000000E+00  0.00000000E+00
  0.00000000E+00  0.00000000E+00  0.00000000E+00
  0.00000000E+00  0.00000000E+00  0.00000000E+00
  0.00000000E+00  0.00000000E+00  0.00000000E+00
  0.00000000E+00  0.00000000E+00  0.00000000E+00
  0.00000000E+00  0.00000000E+00  0.00000000E+00
  0.00000000E+00  0.00000000E+00  0.00000000E+00
  0.00000000E+00  0.00000000E+00  0.00000000E+00
  0.00000000E+00  0.00000000E+00  0.00000000E+00
  0.00000000E+00  0.00000000E+00  0.00000000E+00
  0.00000000E+00  0.00000000E+00  0.00000000E+00
  0.00000000E+00  0.00000000E+00  0.00000000E+00
  0.00000000E+00  0.00000000E+00  0.00000000E+00
  0.00000000E+00  0.00000000E+00  0.00000000E+00
  0.00000000E+00  0.00000000E+00  0.00000000E+00
  0.00000000E+00  0.00000000E+00  0.00000000E+00
  0.00000000E+00  0.00000000E+00  0.00000000E+00
  0.00000000E+00  0.00000000E+00  0.00000000E+00
  0.00000000E+00  0.00000000E+00  0.00000000E+00
  0.00000000E+00  0.00000000E+00  0.00000000E+00
  0.00000000E+00  0.00000000E+00  0.00000000E+00
  0.00000000E+00  0.00000000E+00  0.00000000E+00
  0.00000000E+00  0.00000000E+00  0.00000000E+00
  0.00000000E+00  0.00000000E+00  0.00000000E+00
  0.00000000E+00  0.00000000E+00  0.00000000E+00
  0.00000000E+00  0.00000000E+00  0.00000000E+00
  0.00000000E+00  0.00000000E+00  0.00000000E+00
  0.00000000E+00  0.00000000E+00  0.00000000E+00
  0.00000000E+00  0.00000000E+00  0.00000000E+00
  0.00000000E+00  0.00000000E+00  0.00000000E+00
  0.00000000E+00  0.00000000E+00  0.00000000E+00
  0.00000000E+00  0.00000000E+00  0.00000000E+00
  0.00000000E+00  0.00000000E+00  0.00000000E+00
  0.00000000E+00  0.00000000E+00  0.00000000E+00
  0.00000000E+00  0.00000000E+00  0.00000000E+00
  0.00000000E+00  0.00000000E+00  0.00000000E+00
  0.00000000E+00  0.00000000E+00  0.00000000E+00
  0.00000000E+00  0.00000000E+00  0.00000000E+00
  0.00000000E+00  0.00000000E+00  0.00000000E+00
  0.00000000E+00  0.00000000E+00  0.00000000E+00
  0.00000000E+00  0.00000000E+00  0.00000000E+00
  0.00000000E+00  0.00000000E+00  0.00000000E+00
  0.00000000E+00  0.00000000E+00  0.00000000E+00
  0.00000000E+00  0.00000000E+00  0.00000000E+00
  0.00000000E+00  0.00000000E+00  0.00000000E+00
  0.00000000E+00  0.00000000E+00  0.00000000E+00
  0.00000000E+00  0.00000000E+00  0.00000000E+00
  0.00000000E+00  0.00000000E+00  0.00000000E+00
  0.00000000E+00  0.00000000E+00  0.00000000E+00
  0.00000000E+00  0.00000000E+00  0.00000000E+00
  0.00000000E+00  0.00000000E+00  0.00000000E+00
  0.00000000E+00  0.00000000E+00  0.00000000E+00
  0.00000000E+00  0.00000000E+00  0.00000000E+00
  0.00000000E+00  0.00000000E+00  0.00000000E+00
  0.00000000E+00  0.00000000E+00  0.00000000E+00
  0.00000000E+00  0.00000000E+00  0.00000000E+00
  0.00000000E+00  0.00000000E+00  0.00000000E+00
  0.00000000E+00  0.00000000E+00  0.00000000E+00
  0.00000000E+00  0.00000000E+00  0.00000000E+00
  0.00000000E+00  0.00000000E+00  0.00000000E+00
  0.00000000E+00  0.00000000E+00  0.00000000E+00
  0.00000000E+00  0.00000000E+00  0.00000000E+00
  0.00000000E+00  0.00000000E+00  0.00000000E+00
  0.00000000E+00  0.00000000E+00  0.00000000E+00
  0.00000000E+00  0.00000000E+00  0.00000000E+00
  0.00000000E+00  0.00000000E+00  0.00000000E+00
  0.00000000E+00  0.00000000E+00  0.00000000E+00
  0.00000000E+00  0.00000000E+00  0.00000000E+00
  0.00000000E+00  0.00000000E+00  0.00000000E+00
  0.00000000E+00  0.00000000E+00  0.00000000E+00
  0.00000000E+00  0.00000000E+00  0.00000000E+00
  0.00000000E+00  0.00000000E+00  0.00000000E+00
  0.00000000E+00  0.00000000E+00  0.00000000E+00
  0.00000000E+00  0.00000000E+00  0.00000000E+00
  0.00000000E+00  0.00000000E+00  0.00000000E+00
  0.00000000E+00  0.00000000E+00  0.00000000E+00
  0.00000000E+00  0.00000000E+00  0.00000000E+00
  0.00000000E+00  0.00000000E+00  0.00000000E+00
  0.00000000E+00  0.00000000E+00  0.00000000E+00
  0.00000000E+00  0.00000000E+00  0.00000000E+00
  0.00000000E+00  0.00000000E+00  0.00000000E+00
  0.00000000E+00  0.00000000E+00  0.00000000E+00
  0.00000000E+00  0.00000000E+00  0.00000000E+00
  0.00000000E+00  0.00000000E+00  0.00000000E+00
  0.00000000E+00  0.00000000E+00  0.00000000E+00
  0.00000000E+00  0.00000000E+00  0.00000000E+00
  0.00000000E+00  0.00000000E+00  0.00000000E+00
  0.00000000E+00  0.00000000E+00  0.00000000E+00
  0.00000000E+00  0.00000000E+00  0.00000000E+00
  0.00000000E+00  0.00000000E+00  0.00000000E+00
  0.00000000E+00  0.00000000E+00  0.00000000E+00
  0.00000000E+00  0.00000000E+00  0.00000000E+00
  0.00000000E+00  0.00000000E+00  0.00000000E+00
  0.00000000E+00  0.00000000E+00  0.00000000E+00
  0.00000000E+00  0.00000000E+00  0.00000000E+00
