Mo  S Ru                                
   1.00000000000000     
    15.9215000000000000    0.0000000000000000    0.0000000000000000
    -7.9622500000000000   13.7910219999999999    0.0000000000000000
     0.0000000000000000    0.0000000000000000   13.5822000000000003
   Mo   S    Ru
    25    50     3
Direct
  0.1330836493656236  0.0662090588553710  0.6814411268995926
  0.1331253460492263  0.2661956132555616  0.6809984956959028
  0.1327808584917918  0.4659464699451377  0.6784432512614913
  0.1330180395489293  0.6661296324499233  0.6787661444555937
  0.1330499877952960  0.8661671901066583  0.6801210901071002
  0.3331424512637042  0.0660646860229761  0.6795164704801948
  0.3333747784208541  0.2660255274477734  0.6793356923945240
  0.3321711559759422  0.4662121559314869  0.6749341546613579
  0.3330067644337120  0.6662113484035146  0.6770998352339390
  0.3330876699857299  0.8661892242887674  0.6787533661333569
  0.5331670728990190  0.0660241220720579  0.6789262572237433
  0.5334091356865116  0.2656395335794812  0.6775032969753312
  0.5343044978403952  0.4649174398346005  0.6735357069089645
  0.5329583335022150  0.6669733181620217  0.6749732131283537
  0.5332849706155685  0.8664367072604904  0.6784538907403217
  0.7332022116384280  0.0662330752645275  0.6804529637436403
  0.7332756936286060  0.2659616270232661  0.6788274336297135
  0.7335768292228124  0.4658241266140735  0.6775331671032276
  0.7331486883283276  0.6658630827520682  0.6794893943832818
  0.7330211317512578  0.8660811415330585  0.6810035917932424
  0.9331521496958928  0.0660990502459740  0.6821028913001967
  0.9330193883025117  0.2660479197956249  0.6804706278172574
  0.9331943142219856  0.4660641710176137  0.6789522211977754
  0.9331463275377416  0.6660841880116664  0.6795736885574968
  0.9330182868198946  0.8661578570813049  0.6814566272642750
  0.0659294945260172  0.1325299866404990  0.5666879632173192
  0.0670280927215501  0.1333196672121701  0.7970202393987762
  0.0658939618418728  0.3315850005251875  0.5651229050400275
  0.0667096656458028  0.3336292690600260  0.7953522834589748
  0.0661523167541347  0.5327202276655356  0.5636165024683564
  0.0666359897990176  0.5328828159143200  0.7938611269865703
  0.0663093014536074  0.7333198272233972  0.5644134807170929
  0.0665328122803999  0.7323980090738047  0.7946021671719663
  0.0660177128192529  0.9332094738984225  0.5660678361666314
  0.0666999433700468  0.9325584034786445  0.7961937298888060
  0.2653396911229748  0.1320005498988195  0.5650821980838003
  0.2673737929152651  0.1332147200274463  0.7952088987855959
  0.2645724435129893  0.3306109720393380  0.5644186474445476
  0.2707683772071761  0.3360998872950063  0.7993934837697267
  0.2648318572743804  0.5328262116270182  0.5613151743117797
  0.2669369698821242  0.5327050037921524  0.7921660110423829
  0.2659731254264202  0.7332364483995164  0.5630995463444037
  0.2667457665509048  0.7324815552285102  0.7932176623751488
  0.2658889003276244  0.9328788970998119  0.5643888392907002
  0.2668451289807336  0.9327104729140885  0.7945740989410908
  0.4659341601118356  0.1317805499370408  0.5634974781021143
  0.4670329590715738  0.1332503669912271  0.7938151186275348
  0.4652176438175317  0.3301307625101870  0.5613251066533849
  0.4680166456293051  0.3338320718069099  0.7918836126828808
  0.4664720529149022  0.5326960085438444  0.5592636317829118
  0.4669635702196260  0.5321043766383156  0.7826586431783866
  0.4664053704197286  0.7343775492705547  0.5613351892896432
  0.4665600255650730  0.7322946306318272  0.7922163885007123
  0.4665138713737420  0.9330565283278531  0.5636113011646344
  0.4663450525928070  0.9325968536118197  0.7938482478498443
  0.6668993267206105  0.1323292937219236  0.5642931855161066
  0.6661167244241284  0.1330949855903967  0.7945670368877984
  0.6670127599242548  0.3322597273218406  0.5626804689962697
  0.6664514332610025  0.3327711570505656  0.7931223665516924
  0.6691285124656687  0.5340663691245950  0.5613693661501173
  0.6653814408023067  0.5311587406623701  0.7919367721009465
  0.6685888402446167  0.7346095423898831  0.5644693306800761
  0.6630114017508717  0.7285587916099701  0.7994851016060238
  0.6676562205391647  0.9333552494664943  0.5651104465401318
  0.6656313990367693  0.9325606823222614  0.7953326909259246
  0.8668874494130705  0.1323839377310208  0.5660794521265160
  0.8660971163201197  0.1331579295710483  0.7962230839398714
  0.8669225435239198  0.3323530826499450  0.5643073784370145
  0.8661423342014132  0.3331194648587541  0.7945828431179294
  0.8674474063762503  0.5333195096657732  0.5635434802684927
  0.8659659855046442  0.5321878582106834  0.7938590886842931
  0.8671866198598224  0.7338705101988410  0.5651623240957377
  0.8660324945765296  0.7318997213366885  0.7952753394208827
  0.8667306836306778  0.9333346675651200  0.5666868291844835
  0.8659268325354859  0.9322385427947566  0.7970178189238126
  0.3300645234528830  0.4028103175308217  0.9541598684320647
  0.4627928794587959  0.5360744012088574  0.9468570309753019
  0.5942927037638910  0.6706344355955878  0.9540475126266159
 
  0.00000000E+00  0.00000000E+00  0.00000000E+00
  0.00000000E+00  0.00000000E+00  0.00000000E+00
  0.00000000E+00  0.00000000E+00  0.00000000E+00
  0.00000000E+00  0.00000000E+00  0.00000000E+00
  0.00000000E+00  0.00000000E+00  0.00000000E+00
  0.00000000E+00  0.00000000E+00  0.00000000E+00
  0.00000000E+00  0.00000000E+00  0.00000000E+00
  0.00000000E+00  0.00000000E+00  0.00000000E+00
  0.00000000E+00  0.00000000E+00  0.00000000E+00
  0.00000000E+00  0.00000000E+00  0.00000000E+00
  0.00000000E+00  0.00000000E+00  0.00000000E+00
  0.00000000E+00  0.00000000E+00  0.00000000E+00
  0.00000000E+00  0.00000000E+00  0.00000000E+00
  0.00000000E+00  0.00000000E+00  0.00000000E+00
  0.00000000E+00  0.00000000E+00  0.00000000E+00
  0.00000000E+00  0.00000000E+00  0.00000000E+00
  0.00000000E+00  0.00000000E+00  0.00000000E+00
  0.00000000E+00  0.00000000E+00  0.00000000E+00
  0.00000000E+00  0.00000000E+00  0.00000000E+00
  0.00000000E+00  0.00000000E+00  0.00000000E+00
  0.00000000E+00  0.00000000E+00  0.00000000E+00
  0.00000000E+00  0.00000000E+00  0.00000000E+00
  0.00000000E+00  0.00000000E+00  0.00000000E+00
  0.00000000E+00  0.00000000E+00  0.00000000E+00
  0.00000000E+00  0.00000000E+00  0.00000000E+00
  0.00000000E+00  0.00000000E+00  0.00000000E+00
  0.00000000E+00  0.00000000E+00  0.00000000E+00
  0.00000000E+00  0.00000000E+00  0.00000000E+00
  0.00000000E+00  0.00000000E+00  0.00000000E+00
  0.00000000E+00  0.00000000E+00  0.00000000E+00
  0.00000000E+00  0.00000000E+00  0.00000000E+00
  0.00000000E+00  0.00000000E+00  0.00000000E+00
  0.00000000E+00  0.00000000E+00  0.00000000E+00
  0.00000000E+00  0.00000000E+00  0.00000000E+00
  0.00000000E+00  0.00000000E+00  0.00000000E+00
  0.00000000E+00  0.00000000E+00  0.00000000E+00
  0.00000000E+00  0.00000000E+00  0.00000000E+00
  0.00000000E+00  0.00000000E+00  0.00000000E+00
  0.00000000E+00  0.00000000E+00  0.00000000E+00
  0.00000000E+00  0.00000000E+00  0.00000000E+00
  0.00000000E+00  0.00000000E+00  0.00000000E+00
  0.00000000E+00  0.00000000E+00  0.00000000E+00
  0.00000000E+00  0.00000000E+00  0.00000000E+00
  0.00000000E+00  0.00000000E+00  0.00000000E+00
  0.00000000E+00  0.00000000E+00  0.00000000E+00
  0.00000000E+00  0.00000000E+00  0.00000000E+00
  0.00000000E+00  0.00000000E+00  0.00000000E+00
  0.00000000E+00  0.00000000E+00  0.00000000E+00
  0.00000000E+00  0.00000000E+00  0.00000000E+00
  0.00000000E+00  0.00000000E+00  0.00000000E+00
  0.00000000E+00  0.00000000E+00  0.00000000E+00
  0.00000000E+00  0.00000000E+00  0.00000000E+00
  0.00000000E+00  0.00000000E+00  0.00000000E+00
  0.00000000E+00  0.00000000E+00  0.00000000E+00
  0.00000000E+00  0.00000000E+00  0.00000000E+00
  0.00000000E+00  0.00000000E+00  0.00000000E+00
  0.00000000E+00  0.00000000E+00  0.00000000E+00
  0.00000000E+00  0.00000000E+00  0.00000000E+00
  0.00000000E+00  0.00000000E+00  0.00000000E+00
  0.00000000E+00  0.00000000E+00  0.00000000E+00
  0.00000000E+00  0.00000000E+00  0.00000000E+00
  0.00000000E+00  0.00000000E+00  0.00000000E+00
  0.00000000E+00  0.00000000E+00  0.00000000E+00
  0.00000000E+00  0.00000000E+00  0.00000000E+00
  0.00000000E+00  0.00000000E+00  0.00000000E+00
  0.00000000E+00  0.00000000E+00  0.00000000E+00
  0.00000000E+00  0.00000000E+00  0.00000000E+00
  0.00000000E+00  0.00000000E+00  0.00000000E+00
  0.00000000E+00  0.00000000E+00  0.00000000E+00
  0.00000000E+00  0.00000000E+00  0.00000000E+00
  0.00000000E+00  0.00000000E+00  0.00000000E+00
  0.00000000E+00  0.00000000E+00  0.00000000E+00
  0.00000000E+00  0.00000000E+00  0.00000000E+00
  0.00000000E+00  0.00000000E+00  0.00000000E+00
  0.00000000E+00  0.00000000E+00  0.00000000E+00
  0.00000000E+00  0.00000000E+00  0.00000000E+00
  0.00000000E+00  0.00000000E+00  0.00000000E+00
  0.00000000E+00  0.00000000E+00  0.00000000E+00
