Ta  N Co Cu                             
   1.00000000000000     
    18.1096308199999996    0.0000000000000000    0.0000000000000000
     0.0000000000000000   23.3551997799999995    0.0000000000000000
     0.0000000000000000    0.0000000000000000   30.4818171199999988
   Ta   N    Co   Cu
   192   240    48     4
Direct
  0.9995762162988839  0.9997681390936464  0.1969524721860338
  0.3336600825243252  0.0622014432344500  0.2032345364175967
  0.1649061180260105  0.0621678288615968  0.2027105835672671
  0.2488108617623297  0.1247545725667862  0.2785212235471519
  0.0815992906553760  0.0622660458181912  0.2839255429074257
  0.4154768509232838  0.0622553905208179  0.2853946433678516
  0.9984967690598552  0.1247960986973240  0.3694530182792874
  0.3306208251833240  0.0623045200262027  0.3702658036608000
  0.1658784353659613  0.0624319764121068  0.3689508680785138
  0.2458167823513406  0.1270378497308258  0.4573026417831016
  0.0816917716907497  0.0629678779055496  0.4543706219110817
  0.4109977120886441  0.0626590828866540  0.4584568704790613
  0.9994531499862518  0.1246606317425716  0.1969537520867419
  0.3335812536708431  0.1870013019600094  0.2030535051950082
  0.1648810152564550  0.1870588173991621  0.2024835126508506
  0.2487750092907106  0.2496335136226477  0.2780143538915425
  0.0815758595744853  0.1872479733438297  0.2837583791968399
  0.4155685155131081  0.1871350862450285  0.2850482381344221
  0.9987237236271866  0.2498336950583280  0.3691633691361460
  0.3305273787716274  0.1873058124697806  0.3690818972307994
  0.1660682531495752  0.1874364745221868  0.3685001217598796
  0.2460980712653367  0.2498718436331373  0.4562178154933605
  0.0813696956143772  0.1881291671340151  0.4543226734088037
  0.4131692616008920  0.1880221648703682  0.4544429822593941
  0.9992932145530133  0.2494752222388783  0.1968185109237126
  0.3335115024793751  0.3119203627128115  0.2027944040951724
  0.1649731783642636  0.3120785956084049  0.2022247233596985
  0.2490591378927860  0.3746688777216818  0.2777041149538135
  0.0816209249987523  0.3122433827948683  0.2834362552557863
  0.4158585802750849  0.3120975671195794  0.2845931551262950
  0.9987732415931276  0.3748223483621942  0.3689549177262990
  0.3306627562454096  0.3123608552709953  0.3687234725668489
  0.1663209266591394  0.3124528257851154  0.3680754899958174
  0.2485593056929432  0.3767849282267690  0.4562975222436805
  0.0823231363706967  0.3130966141450955  0.4537182648041878
  0.4125822995513673  0.3121783300045493  0.4558314127743728
  0.9992284258720545  0.3745478301106360  0.1965566358651500
  0.3336674918148432  0.4369301769714724  0.2024375994739813
  0.1650480854457328  0.4371021263050778  0.2019290951129662
  0.2487662473218890  0.9998538913407771  0.2786147730280959
  0.0816202799251471  0.4371663986076584  0.2831314269151903
  0.4160584907605411  0.4370803142029374  0.2842585080881008
  0.9985634899028568  0.9996841320593433  0.3694203552201643
  0.3313727876109027  0.4371222580890830  0.3687361286776607
  0.1667545032009770  0.4373242993252688  0.3677058807541371
  0.2453850663093675  0.9994767686846231  0.4572080618632413
  0.0822790827281423  0.4378851661314513  0.4532680107003557
  0.4160478201557822  0.4360660625727917  0.4552746732401616
  0.9992568204937626  0.4995558032737435  0.1964097331047014
  0.3337070981099970  0.5620294121245237  0.2022415743058588
  0.1651847777394977  0.5621692708234036  0.2018458911759140
  0.2491152743771750  0.6246007691295219  0.2774048173494208
  0.0816159391587234  0.5621795185287510  0.2829520898390712
  0.4159841403497566  0.5620821776382030  0.2839499052232384
  0.9988651058723832  0.6247043637413441  0.3685215447080807
  0.3312757943734255  0.5617923934177327  0.3683713231473007
  0.1662781323570286  0.5621787390894966  0.3672111468728971
  0.2488244333419161  0.6232590173277828  0.4550046177462619
  0.0825424029199908  0.5625605578433621  0.4530305762592377
  0.4187597855785086  0.5614789564340654  0.4541502120753123
  0.9995033663340607  0.6246517182783435  0.1963517892997046
  0.3336440551356077  0.6872656073119074  0.2023343048112167
  0.1651666564088572  0.6873630066572716  0.2019326078151948
  0.2488122575959864  0.7498052070003638  0.2777251646766459
  0.0817215209879905  0.6872368823169310  0.2830317068160682
  0.4153995154948902  0.6871626635157071  0.2841885409365403
  0.9991978161555295  0.7496012545024868  0.3686968085786404
  0.3306153780414078  0.6869827919387390  0.3686885592362827
  0.1664750396794830  0.6872210783447912  0.3676960388009860
  0.2516199055894006  0.7471465735126586  0.4576540198817938
  0.0826263963646809  0.6871251153094065  0.4532560146042925
  0.4150271146312363  0.6860900916280386  0.4529944126034167
  0.9995945528807297  0.7498350435472716  0.1965319919968351
  0.3335146992095588  0.8124087951756209  0.2026578870621236
  0.1652054945115111  0.8123567977052630  0.2023359148152011
  0.2486689879016026  0.8749170661449526  0.2782694933256451
  0.0817859748399599  0.8123020165180108  0.2834728815223428
  0.4151391651636871  0.8122643036481563  0.2846203393180815
  0.9988089886187268  0.8746197736384858  0.3692867961198800
  0.3299184966014010  0.8123284724602655  0.3694432603921882
  0.1657858122660940  0.8121419208268605  0.3686028654503417
  0.2444551354453353  0.8752943319441613  0.4561795381954852
  0.0819932262427727  0.8119433048990246  0.4548325144894747
  0.4119219684383424  0.8120818925430697  0.4566151749858847
  0.9996730168950094  0.8748929794866527  0.1968068950765627
  0.3335558395036102  0.9374758417414455  0.2031236247368042
  0.1649858020518806  0.9373758951414288  0.2026247415574858
  0.2492835672057510  0.4996216564976876  0.2774612159680814
  0.0815128191766306  0.9372865886177024  0.2838644931135903
  0.4151279849501464  0.9373473755737223  0.2850462692139359
  0.9985672475971370  0.4997524071822070  0.3686539675511682
  0.3306179180186462  0.9375016884016958  0.3696742641226081
  0.1658350638716684  0.9373732809389921  0.3688570452008975
  0.2483104259743030  0.4992501650260124  0.4554212932692678
  0.0807779767489052  0.9374288260889188  0.4552330945689391
  0.4128777995964867  0.9376711527855477  0.4561228614806581
  0.4973768170860211  0.9997524331609142  0.1978275895972601
  0.8322170607087784  0.0621130139589994  0.2018676725874542
  0.6630420653930429  0.0621176634092322  0.2025039910441251
  0.7475196948487692  0.1245113066903585  0.2771989598186337
  0.5805607746238550  0.0620921338204141  0.2842932165155219
  0.9160379814625728  0.0621738154619678  0.2827517875788459
  0.4986482445210925  0.1243908284880817  0.3714041772117653
  0.8306760066129755  0.0619446863414481  0.3663880382467681
  0.6641446778334696  0.0618852603864823  0.3688478130654929
  0.7487505099936271  0.1230274340806758  0.4526852466690414
  0.5836679249451606  0.0615084906366903  0.4596919773141437
  0.9122462878498112  0.0614657759375277  0.4536304063846970
  0.4975826409232553  0.1245095259256104  0.1978995937651078
  0.8322601559042582  0.1870434223317261  0.2018320106921010
  0.6632729106937063  0.1869758845726253  0.2024073670197737
  0.7479422946902474  0.2496229158784899  0.2770976743294682
  0.5807607537842543  0.1870029701599591  0.2842239403430398
  0.9159325679567161  0.1871575326933055  0.2828373188097117
  0.4987812651690149  0.2497840696472196  0.3708923593352864
  0.8306950655067666  0.1871750805690482  0.3669676230512238
  0.6654745656391299  0.1870459069002663  0.3686133760938048
  0.7468220120945688  0.2485660071736433  0.4548573047288684
  0.5815298061551673  0.1880344638230511  0.4558626156057812
  0.9129735233458547  0.1867082562167468  0.4531994412176346
  0.4979775857086395  0.2494360014684815  0.1976928702477849
  0.8324239489468965  0.3118779323636076  0.2016622367075627
  0.6635288043860115  0.3118342956668769  0.2022393107189515
  0.7481644424173481  0.3745727455086296  0.2769493951614308
  0.5811872345323010  0.3120314316952317  0.2839473030830817
  0.9159570264728956  0.3121532721648848  0.2827164055592775
  0.4993692034394286  0.3749678197592132  0.3704138779513073
  0.8310658255114092  0.3120372668024274  0.3667784195635804
  0.6658965521594311  0.3120758518633977  0.3679605780043076
  0.7508464560290307  0.3734335677324125  0.4524279237326425
  0.5819354702688386  0.3118830296106978  0.4548381554041825
  0.9133356356812499  0.3119503036617317  0.4533546859267332
  0.4982625121748683  0.3745098233271804  0.1973436223932055
  0.8324209298875900  0.4369630483547908  0.2015496945667223
  0.6637322685833311  0.4369143663413695  0.2019867068260055
  0.7474057990386100  0.9996338742428961  0.2771490853367879
  0.5813190005259443  0.4370821055002523  0.2836895135773858
  0.9159919376529047  0.4371472965153131  0.2825477670214127
  0.4985126162700695  0.9998027749788179  0.3715966035589133
  0.8313319896686693  0.4373368053638558  0.3669383951027143
  0.6657501228600609  0.4373079048851878  0.3683306361498069
  0.7490219699451259  0.9976922062118305  0.4519396964774671
  0.5873401756926739  0.4383343418879164  0.4579912393158239
  0.9137379895014561  0.4374557183006331  0.4535796332082924
  0.4983861887473040  0.4994733058885359  0.1970749000806507
  0.8323504249844973  0.5621290367173373  0.2014698930517795
  0.6638016727206946  0.5620595705390130  0.2018109194007209
  0.7483794374520514  0.6246367546034435  0.2767347924805250
  0.5815629885012683  0.5621537139578408  0.2834545897270786
  0.9160071749044789  0.5621403442085580  0.2824613843480321
  0.4998503462430648  0.6244326859228124  0.3694223919404891
  0.8313680522421620  0.5622080130480356  0.3669223767074214
  0.6663789231202131  0.5622272614654378  0.3678405032555645
  0.7515208848300361  0.6252793306605611  0.4535490761253556
  0.5867241030817070  0.5631033305029547  0.4543623463119957
  0.9126667812652300  0.5622671373258541  0.4538710401321211
  0.4981124985403227  0.6247198564443934  0.1969916926215589
  0.8322770390123111  0.6871824182736006  0.2014215447852337
  0.6635866674246031  0.6872281120327273  0.2017396636856645
  0.7480782801666592  0.7497505032300893  0.2767529522085113
  0.5809909107493780  0.6871969455324134  0.2834138089976932
  0.9162276006183774  0.6871651705194850  0.2822861391556728
  0.4973801532745128  0.7496164808352646  0.3698441495169646
  0.8315736239003826  0.6871141635825566  0.3664427379473167
  0.6662079046823735  0.6872331690653084  0.3675642422915715
  0.7479006122392278  0.7489156400832897  0.4541641073916409
  0.5842157527278502  0.6875772836698886  0.4548977390081888
  0.9129003224369185  0.6873905060936494  0.4534121494069225
  0.4976367551981795  0.7498726557028945  0.1972654033343986
  0.8322455460463303  0.8123492091750748  0.2015482155900870
  0.6632318406380548  0.8123406720682667  0.2019647525399151
  0.7476192739676435  0.8745694681794234  0.2769311038959685
  0.5806398376918551  0.8122153023892551  0.2836543059368068
  0.9162602806234972  0.8121776856947420  0.2823931447621959
  0.4971357633322171  0.8748584643316164  0.3703502523859328
  0.8309952546050070  0.8118878169458696  0.3661696602623863
  0.6654853276868238  0.8119770742785803  0.3675594034633747
  0.7455658066952608  0.8716707210240457  0.4530998487702007
  0.5804499811942563  0.8132590032812104  0.4531347685487788
  0.9124395652943349  0.8104750015138507  0.4531886304541928
  0.4973015618367853  0.8748738942990926  0.1975247651791321
  0.8321114979328286  0.9372595571357607  0.2017422974937659
  0.6630866456906190  0.9372970183905167  0.2022333824141285
  0.7482534872612376  0.4996397426038186  0.2768738232759134
  0.5802099652173425  0.9372027616168097  0.2840730616409175
  0.9161710923886091  0.9371464994700105  0.2826427248890084
  0.5000344520464495  0.4992903735679377  0.3699399615430750
  0.8306431681053823  0.9368403898438302  0.3662659102586474
  0.6647930592181339  0.9370184134856245  0.3683421263787565
  0.7491285051012042  0.5004707487761877  0.4544745172954237
  0.5848962519111538  0.9362373677035265  0.4569181661635398
  0.9129532135182359  0.9363802306338727  0.4526759108828600
  0.4039925382295664  0.9999463548028444  0.2336178509008420
  0.2492287081943019  0.9998884401511958  0.2001287801623874
  0.0935843530538847  0.9997787078184501  0.2322773480016949
  0.1534749257827528  0.1247974167940740  0.3159786789072498
  0.9985236957897641  0.1247055979105340  0.3026394462074862
  0.3432507848734829  0.1245261878478701  0.3169439526589457
  0.3994986202417792  0.1241933976773595  0.4034964469884699
  0.2479246153548402  0.1252241957304818  0.3890669207847068
  0.0978441246937010  0.1253346046328829  0.4021246641747638
  0.1466643194658417  0.1262425363129580  0.4894167650861192
  0.9960287231370373  0.1252984626179625  0.4713347742451290
  0.3440484439074609  0.1287312176430859  0.4863210332640122
  0.4528091878265812  0.1364733949208343  0.5728812844275737
  0.2967280290527796  0.1428824605172210  0.5697514552909766
  0.0698067140285303  0.1299191349778113  0.5619547232779354
  0.4041044783927745  0.1245866858578424  0.2335466396819612
  0.2491960015601151  0.1246088548391597  0.2002150335612356
  0.0935160036523257  0.1246988878202728  0.2321892879323144
  0.1534759634649632  0.2498049926600530  0.3155843968793306
  0.9985947689624055  0.2497208985843713  0.3023878642378435
  0.3432320984917254  0.2497642484375504  0.3162327966309135
  0.3987686752784612  0.2503529190385905  0.4016173623326509
  0.2479755797577070  0.2499178820061090  0.3881708231592853
  0.0981396795927694  0.2500883139193704  0.4016955523139956
  0.1475864699668463  0.2513109591549494  0.4886512628234954
  0.9968632902707881  0.2509741997085229  0.4713166623325336
  0.3457824043738427  0.2486876367155233  0.4838599600172486
  0.4813697720614130  0.2564694120031135  0.5718139822353763
  0.3170466956172930  0.2554293159910586  0.5639516239287303
  0.0737573225576398  0.2551863865671464  0.5616994481018054
  0.4042617714003711  0.2494718863811016  0.2330736011446319
  0.2492003783829517  0.2494724701798532  0.1995690081719985
  0.0935505070768201  0.2495872914888650  0.2318812520601412
  0.1537042950789314  0.3747849506405316  0.3151592330513182
  0.9986497838426374  0.3747266147205366  0.3021706943934603
  0.3436482578366338  0.3747325300714976  0.3160685336435307
  0.4000818827863384  0.3745322330242757  0.4023707721707552
  0.2485821571505085  0.3749749302080616  0.3880091448468690
  0.0983681565138710  0.3752458445748985  0.4012373070234858
  0.1497377318372415  0.3759442862553115  0.4879681635312849
  0.9974186642598113  0.3758111405049718  0.4710768171184654
  0.3471424655439108  0.3773183559871569  0.4856089428988284
  0.4571093243513928  0.3041516101263255  0.5666861181978291
  0.3309235336337863  0.3858378907633195  0.5729662916873011
  0.0759691005810694  0.3784453061795929  0.5607358293433862
  0.4044464669314394  0.3744822610252356  0.2326840039644367
  0.2492824818194563  0.3744980763944739  0.1992492610645513
  0.0934817988928955  0.3746226054540926  0.2315332442364522
  0.1534180175656275  0.9998216394144634  0.3161126264991267
  0.9985523168496329  0.9997343093572795  0.3025956587343543
  0.3432169891989076  0.9999837685180992  0.3171778385405659
  0.3997090869719457  0.0003316091252117  0.4040028719999356
  0.2478217637305562  0.9998733924580279  0.3889944780158103
  0.0977391407282440  0.9995886197706199  0.4023839331721888
  0.1467147685116146  0.0009074877028681  0.4895491266501182
  0.9961039622373491  0.0004687667992869  0.4713544410013881
  0.3445188788406952  0.9995172435331412  0.4877128918125422
  0.4409406029571272  0.0022406040411838  0.5766913248801657
  0.3965729611434199  0.0343992442283323  0.5898715934810070
  0.0690109438122022  0.0054777212087558  0.5620121361607673
  0.4045716852078414  0.4995055838178857  0.2323676795093945
  0.2494123528303547  0.4995334045423192  0.1991070838420725
  0.0935671221323844  0.4996024562317487  0.2313184687282899
  0.1538244202181431  0.6248164615817586  0.3148063352570460
  0.9987998328928285  0.6246463583849007  0.3017498761094259
  0.3436804035391177  0.6244937122439396  0.3156847755027030
  0.4008663528221561  0.6232831305823865  0.4009379031729097
  0.2484623164359476  0.6242352361875234  0.3871782498639291
  0.0981671179389423  0.6247629022503816  0.4006640127266579
  0.1497489936077869  0.6250778068779681  0.4858502820625077
  0.9987062397983308  0.6243234815132510  0.4715217355878565
  0.3496589582405605  0.6208027633530762  0.4825274156413784
  0.4502210774254181  0.6216299599182804  0.5901975307119045
  0.2790358276100946  0.6211148481515067  0.5543569288095185
  0.0922118084046275  0.6276368185808110  0.5606866153090522
  0.4043171707295414  0.6246179727237973  0.2323381723154654
  0.2494203794742162  0.6246906936464853  0.1991722442734414
  0.0937390942565628  0.6246901121714146  0.2312861091904139
  0.1538462095584663  0.7497977108593474  0.3154167994525068
  0.9989125339319713  0.7497197996533629  0.3019116096129721
  0.3429304993995288  0.7497815943086010  0.3162873531459027
  0.3978213683770591  0.7499749309760091  0.4021960712505930
  0.2482707242336275  0.7493560744366334  0.3891177539102770
  0.0980025452295550  0.7496066791999425  0.4014459981681497
  0.1517881504542729  0.7489786482579319  0.4865245353106715
  0.9975756163007148  0.7489587630359651  0.4725441723106840
  0.3512396272105605  0.7461837260301252  0.4905686292844393
  0.3594011482822665  0.7569022950232664  0.6111741050007282
  0.3432589032639086  0.8047992105069710  0.6117357042050244
  0.0777137239340675  0.7538439475551897  0.5580452087228949
  0.4039121607588214  0.7498489840651175  0.2327385659024372
  0.2494285191996326  0.7498615690754065  0.1990526505944530
  0.0937711864272472  0.7498618666791756  0.2315961815120957
  0.1534077502928639  0.8748557945859545  0.3159047566963906
  0.9986810215318940  0.8746813803873579  0.3023865686728229
  0.3430321254261770  0.8748039549880318  0.3167016374249911
  0.3988056416692771  0.8750411888319576  0.4028602036598485
  0.2474511727012469  0.8749269807157987  0.3882701996234843
  0.0977398263687377  0.8748005802237131  0.4024657843911754
  0.1459917789541336  0.8743650748903775  0.4895474748684734
  0.9958293791670556  0.8746316828176148  0.4723496678638810
  0.3431979538913126  0.8753160467728165  0.4847276356883725
  0.4253782134397071  0.8795786101689345  0.5674130863646027
  0.2710801468768267  0.9134185698120518  0.5673627296293091
  0.0632191906583870  0.8812164446935355  0.5599718071234321
  0.4038464587076547  0.8748758853768805  0.2332036333448215
  0.2493446379468551  0.8749751381965467  0.1998557866821216
  0.0937120404599767  0.8749011196996008  0.2320418777297135
  0.1538372718453260  0.4995661330698482  0.3148132240934700
  0.9986543095187344  0.4996609858477541  0.3019032080978761
  0.3439652447925923  0.4995345753838549  0.3157828899500643
  0.4010916169681877  0.4992633871297656  0.4021937384749066
  0.2486606611374071  0.4997197420542463  0.3873792399101674
  0.0980236364732789  0.4998923689867638  0.4007102670023386
  0.1489190497764383  0.5001603445531373  0.4862293249634249
  0.9977450317579795  0.5006872728546199  0.4714566646855403
  0.3486059319099226  0.5006465767810653  0.4844681973008349
  0.4244110127346659  0.4712504712529153  0.5596510974940045
  0.2702941240758037  0.4967843482200109  0.5553464787544229
  0.0888378585779463  0.5034166487832223  0.5613829916605653
  0.9044804423163129  0.9996935369455713  0.2309457145890192
  0.7477036484694821  0.9997089458410997  0.1991197749291160
  0.5919584689631137  0.9996492566210051  0.2324539576331972
  0.6527018921277374  0.1245169524484311  0.3158850471747812
  0.4983215592084846  0.1246494843190860  0.3043733830591293
  0.8432494997370057  0.1247077876923797  0.3142040425702035
  0.8984674669247923  0.1242363791960202  0.4004538746506654
  0.7482843774642092  0.1241418114245718  0.3856113894865203
  0.5976798411987545  0.1242393620016173  0.4036604158882255
  0.6543288460689496  0.1276637057959249  0.4845419368702579
  0.4975102607747388  0.1255885952109352  0.4757634723992652
  0.8448915396087955  0.1230276749469965  0.4839706593806028
  0.9026993012058142  0.1521561549023147  0.5636686563301794
  0.7498805947419456  0.0868512745378851  0.5531659102419368
  0.5751947818535754  0.0648961567088548  0.5336844852955522
  0.9043659096361623  0.1246286549445514  0.2310491821188805
  0.7477994536080459  0.1244998314166352  0.1991275409977078
  0.5921495081549111  0.1245586821977867  0.2325458617783838
  0.6532934006428803  0.2494063712588641  0.3156186876804412
  0.4985633683463035  0.2496125182290427  0.3039677485378292
  0.8434095426039079  0.2495758476830616  0.3143598576294551
  0.8990608706371361  0.2495772285954843  0.4004070823137056
  0.7484124993386700  0.2496934291324067  0.3867751814041469
  0.5987651735474060  0.2497198756321168  0.4023800098679047
  0.6475780190129470  0.2502699889409357  0.4879512015445826
  0.4970821084820543  0.2498598106669121  0.4704257445552571
  0.8467212262196142  0.2476247098450770  0.4832754998726685
  0.9072670013723112  0.2813974716913847  0.5645644131248417
  0.7708412416440638  0.2255786112284781  0.5548495200655026
  0.6034328820083985  0.1760963796425372  0.5607472320889286
  0.9043753803277070  0.2495333155349826  0.2310439686742214
  0.7479253649380695  0.2494015999532948  0.1988327535918941
  0.5924311218418197  0.2493972230820063  0.2323911795076370
  0.6533746592224787  0.3747214632173126  0.3153721213890961
  0.4988136008160566  0.3746285373835363  0.3034872363596790
  0.8436942087348740  0.3747132910478328  0.3142340881225181
  0.8990731677284600  0.3746548705145543  0.4005552043184082
  0.7489911946737990  0.3745310971934188  0.3854431585286804
  0.5985700764025736  0.3754736558019047  0.4026073055904291
  0.6555012144245325  0.3732934093597606  0.4830601973269282
  0.4992443112935945  0.3721405383498890  0.4739299886767299
  0.8468598838292252  0.3737587651019396  0.4839424741955440
  0.9055957898311178  0.4038807564671103  0.5620246483248366
  0.7550668546301793  0.3410478496684561  0.5517778988249802
  0.6059734679555220  0.3132960960255815  0.5639060978275694
  0.9043630714096054  0.3744990724378212  0.2308650455104129
  0.7480836671100803  0.3743787520812845  0.1987651893432698
  0.5927172265297997  0.3744767852230666  0.2320748075958576
  0.6523552284960985  0.9995860243610721  0.3157243190805801
  0.4981118205148860  0.9997565846709549  0.3044833990660720
  0.8433807459758924  0.9995375499906061  0.3138999034005820
  0.8984989915621853  0.9995231699844425  0.4002007946015524
  0.7482063211246199  0.9994427567513071  0.3845888535871680
  0.5975564917117850  0.9994726827522626  0.4040574036594862
  0.6558403196716540  0.9962143155424954  0.4861811493262493
  0.4975423263848242  0.9984215004597417  0.4773627594320686
  0.8456730840205182  0.9961033524543055  0.4836234978392469
  0.9026542658718313  0.0300594482025929  0.5635866446048468
  0.7612856883579795  0.9671069613251433  0.5688911573791415
  0.5852449038003655  0.9469213722591121  0.5697635256392317
  0.9043398452185443  0.4995721025114932  0.2307203684481465
  0.7481152126179609  0.4995009261303451  0.1986142500113885
  0.5928142654471458  0.4995204547272181  0.2318521257644761
  0.6535268099451983  0.6247695426013209  0.3149521080996465
  0.4987408453702145  0.6246099493330703  0.3027750221500227
  0.8438963703155480  0.6246049034480450  0.3139894562962482
  0.8997810187136039  0.6242390066589394  0.4003447406104428
  0.7493599221951825  0.6248717702579469  0.3857210516628129
  0.5990601005434470  0.6252481044876461  0.4017558758622357
  0.6556101818551738  0.6265332427597130  0.4853734053761372
  0.5010853046377193  0.6250330862692124  0.4737453319964473
  0.8491108184593941  0.6245923350290212  0.4841284509262067
  0.9308196623189104  0.6193893166703361  0.5703471178094617
  0.7868386276628172  0.6309274061886256  0.5624736008680316
  0.6002909328125270  0.6488271652989539  0.5638226850746904
  0.9044649138232757  0.6246405185684694  0.2305532459111035
  0.7480160243820606  0.6246839863922418  0.1982926960399141
  0.5926471914734748  0.6246820030953444  0.2316441443783859
  0.6531437998682108  0.7495807324217338  0.3148818422620323
  0.4980997981757582  0.7497007658799077  0.3031832206693537
  0.8438473860831337  0.7495777581568461  0.3138321094463379
  0.8997770814288657  0.7495083098741517  0.3996497163153592
  0.7487889423298171  0.7496150577058600  0.3861009787267449
  0.5971200394011689  0.7496020723323156  0.4010503766204110
  0.6464869746483828  0.7533715251275552  0.4839997078265910
  0.4961668269759087  0.7490491798829240  0.4692031334730729
  0.8458719360276561  0.7497313508379406  0.4819967878233271
  0.9124301391347558  0.7314536645133742  0.5643409353035764
  0.6982641205626905  0.7374985508135410  0.5558871617894425
  0.5304463366680920  0.7794160883953225  0.5500446249354098
  0.9044091994735979  0.7497742259632290  0.2305462946542747
  0.7479341359969354  0.7498391123536337  0.1988112605218149
  0.5923390672593314  0.7497763869703320  0.2317519519506916
  0.6525737484807692  0.8747449993058254  0.3152071745652023
  0.4979284724668815  0.8746877278735852  0.3035610975871208
  0.8434491151403165  0.8744837364723921  0.3138242561609275
  0.8989489441039353  0.8741614764988483  0.3998458617561127
  0.7481386542906776  0.8739219164129679  0.3856341733496862
  0.5966184872299394  0.8751500906036043  0.4019302399340958
  0.6491986279147000  0.8709266891563701  0.4854899211946773
  0.4975386413096246  0.8738571380580993  0.4755727393071467
  0.8452079389806997  0.8727158184705957  0.4812329340281210
  0.8938871641131172  0.9007088289731442  0.5654892893884238
  0.7401904475322851  0.8570031878224782  0.5617572033147837
  0.5786712878724742  0.8953647129011131  0.5695204067587696
  0.9044424655694385  0.8748087600201657  0.2307481614535121
  0.7477231549111210  0.8748216426647986  0.1988067532250071
  0.5920477641724773  0.8748490526599397  0.2320404516404722
  0.6535095887239564  0.4995732504018022  0.3153378399543385
  0.4989655014242160  0.4996720317769672  0.3031200283136997
  0.8436875219918178  0.4996530403600019  0.3142597609169897
  0.8993549041003277  0.4998244666542746  0.4008241348985138
  0.7489834057575422  0.4997647630674393  0.3865357628303272
  0.5989089742954192  0.4991504824713502  0.4027871062216661
  0.6540648447188815  0.5044174009574007  0.4873331970570831
  0.5011674451148735  0.4991698807494629  0.4742825096038317
  0.8464460500425091  0.4981747182611898  0.4855159939128484
  0.9319639474756087  0.5193052625475900  0.5725951792091308
  0.8018388788313757  0.5092922698329403  0.5758570765149784
  0.5793744139883898  0.4230531533851973  0.5413620360688896
  0.9838959056629619  0.1347017851782937  0.5349446687807671
  0.3732938467589832  0.1109062522532298  0.5892734889812346
  0.1074804877333833  0.0674712295200948  0.5369453995198157
  0.9883159275304507  0.2641260529354597  0.5350453386289544
  0.3153572191712470  0.1944906529764907  0.5317941139299265
  0.1086449943337584  0.1918211606466613  0.5366585903832828
  0.9890302655338843  0.3861522124118011  0.5344571473140931
  0.3535132796524962  0.3176192403732045  0.5784202939070440
  0.1132044836837309  0.3160800630967486  0.5357386093316876
  0.9835492866356716  0.0104786106049346  0.5345514828222875
  0.3338898606647547  0.4437396374114329  0.5372213624736091
  0.1167185573518239  0.4391562558879798  0.5349837215219395
  0.0054023100184111  0.6274105733466584  0.5362291229045297
  0.3055000622721522  0.5562467624198959  0.5301977469434007
  0.1263462401680187  0.5645773684928841  0.5344869486885031
  0.9916339956534372  0.7342640094946518  0.5359875220166401
  0.3227572671843433  0.6729846052254800  0.5262623289469417
  0.1225954185908265  0.6918050868910228  0.5334897540885493
  0.9768376884437231  0.8903566448062747  0.5346510586384170
  0.3431337942636361  0.8761177838181098  0.5916814878303995
  0.1097787427676948  0.8207950923308474  0.5380041454775650
  0.0024607913624735  0.5066914326006611  0.5359258716032826
  0.3088275812363293  0.9339919970911836  0.5211814717974832
  0.1077446001146214  0.9428610083820104  0.5379201880377522
  0.5270666799050332  0.1339633036115657  0.5399411090257544
  0.8524430541092158  0.0916752350406895  0.5432346003724646
  0.7193890745516995  0.0192015657234990  0.5370408976770449
  0.5748035303559149  0.2450900000805731  0.5432374981312407
  0.8636363085448977  0.2180719399593443  0.5432306029728267
  0.6567687238443582  0.1141056339172124  0.5462103680845658
  0.5324219194662945  0.3525131226269309  0.5384786426500696
  0.8576970339308900  0.3429146674044432  0.5424071939309840
  0.7115468130366409  0.2757104865676752  0.5393345835599703
  0.5227489927315361  0.0017123361836866  0.5412420724425004
  0.8696966355113886  0.4721696381193539  0.5466820788953726
  0.6616823381091095  0.3724533366387419  0.5446271714793909
  0.5032497753868128  0.6399794393989637  0.5380846378876356
  0.8495604178194114  0.5731773952574386  0.5766868100766587
  0.7069404523560721  0.6624858895960202  0.5427253153350193
  0.4527825213846199  0.7468585614253911  0.5272744337388033
  0.8734840203344021  0.6696407160751860  0.5431830104731432
  0.6018453648211306  0.7252618019237929  0.5444108194943311
  0.4974162900161758  0.8499604285653746  0.5416709712535805
  0.8293879013123444  0.8571254550061269  0.5401342977229220
  0.6947991876493944  0.8054701349612330  0.5283919455134054
  0.5061548505417477  0.4697839136663617  0.5332372712884279
  0.8544302277375593  0.9674201671231586  0.5462016147922739
  0.6889952410115967  0.9201836118413595  0.5728091914617224
  0.4350031597144195  0.5477543009191734  0.5721850859160469
  0.6225834827991292  0.5692154323113954  0.5383147310947649
  0.4008120065210861  0.6889605895703141  0.5957583593453037
  0.5468250696697226  0.6241297973457520  0.6126019143822532
 
  0.00000000E+00  0.00000000E+00  0.00000000E+00
  0.00000000E+00  0.00000000E+00  0.00000000E+00
  0.00000000E+00  0.00000000E+00  0.00000000E+00