Mo  S Cu                                
   1.00000000000000     
    15.9214998300000001    0.0000000000000000    0.0000000000000000
    -7.9622501300000001   13.7910221699999997    0.0000000000000000
     0.0000000000000000    0.0000000000000000   13.5821998300000004
   Mo   S    Ru
    25    50     2
Direct
  0.1326437383075216  0.0657786892729249  0.6790023584600817
  0.1315174413410105  0.2652523374388878  0.6778468361982632
  0.1327004779777852  0.4658304151817845  0.6790912617382077
  0.1327239826643449  0.6659010264609009  0.6790214878890168
  0.1326455732323453  0.8657185641628473  0.6789322697649212
  0.3324869330879210  0.0654298712488099  0.6789516342469710
  0.3332961516290567  0.2654828435735439  0.6782109277142965
  0.3332759192895480  0.4671145574728044  0.6773922279204001
  0.3324637304986950  0.6657557336334037  0.6790116377695128
  0.3326130290942402  0.8657047034247825  0.6789526898829479
  0.5326279809333911  0.0657349091440906  0.6789700382638131
  0.5317463505255304  0.2654331105659580  0.6781390258241942
  0.5327236694654474  0.4658293501058495  0.6792569045181480
  0.5328119154689475  0.6658219065271211  0.6790141287689693
  0.5326317403765941  0.8657228511142208  0.6789106897619988
  0.7324601888228841  0.0656454155355704  0.6788885687524768
  0.7332426244939683  0.2652046016896250  0.6777741584661712
  0.7333886147440296  0.4670701331918323  0.6777382729067725
  0.7325238768886280  0.6658443266853098  0.6789926360292853
  0.7326628661713954  0.8658136576746855  0.6789328526887388
  0.9326918451807273  0.0656286207936034  0.6788687060071652
  0.9328515933589827  0.2662502089327390  0.6790507824241487
  0.9326564624724085  0.4659081679995651  0.6791360158403990
  0.9328923267132225  0.6658011085212223  0.6789422478832279
  0.9326197979330004  0.8657405479806712  0.6788705401970816
  0.0655946316891090  0.1316593711444582  0.5633533508596216
  0.0661709658351057  0.1327799126816913  0.7939211331344325
  0.0656281290071163  0.3329155626956677  0.5634551413327316
  0.0663967603886491  0.3324102496517014  0.7941126061946449
  0.0660065643651819  0.5325150872313102  0.5640534301615716
  0.0660432716053450  0.5325304133018207  0.7940915431221924
  0.0660887409616961  0.7325001559145150  0.5638252641388206
  0.0660798328072545  0.7325189573033555  0.7941176550412834
  0.0660070824770713  0.9324499211179642  0.5638663273502189
  0.0659644855414143  0.9324264463745351  0.7939511069603213
  0.2657842112405433  0.1318378620315812  0.5635809434405132
  0.2661108996441754  0.1326926729656748  0.7939384572690358
  0.2659699147255878  0.3323718277402321  0.5641827435577937
  0.2661213266598779  0.3331922065223623  0.7938848929439075
  0.2655089745109080  0.5330089200078660  0.5632689056659572
  0.2661993288038573  0.5320844746606852  0.7940271693732512
  0.2659761634822431  0.7324755696577228  0.5638668813364518
  0.2659819741451059  0.7324941405217515  0.7941220437247480
  0.2659235515348755  0.9322887880122224  0.5638250097923745
  0.2658929460828645  0.9322394971037724  0.7940595710351630
  0.4655668445038756  0.1317894796264767  0.5635352186178721
  0.4661097610158151  0.1326847204314561  0.7939282492929820
  0.4663819105710445  0.3331944009097967  0.5632081306284817
  0.4659595155159124  0.3322716401870665  0.7942197770632689
  0.4670425631090822  0.5329992310561948  0.5633763460609416
  0.4654341613708368  0.5321374947200184  0.7939908074598492
  0.4659052136087922  0.7323214864740919  0.5639383630940671
  0.4659608995795068  0.7324519245939953  0.7939860685364266
  0.4659680548529010  0.9324111933363284  0.5638744310377746
  0.4659931492794982  0.9324294518474971  0.7939785825674193
  0.6655776552444195  0.1316250165541746  0.5633288285948410
  0.6661307310679518  0.1328247575233092  0.7939298448515899
  0.6660243124592427  0.3324938959063601  0.5642511099952046
  0.6664551993800600  0.3327743475013563  0.7940044543676947
  0.6656059391403915  0.5329535466605648  0.5634929606894232
  0.6662229777756679  0.5322734186161782  0.7940616328392665
  0.6660417212632055  0.7325781155446691  0.5638795706776492
  0.6660509650969075  0.7325914903783257  0.7941149570997510
  0.6659617461276639  0.9323934771456379  0.5638104562496693
  0.6659416748116485  0.9324051246829441  0.7939928636093896
  0.8660853359855523  0.1326669104810492  0.5640042560244396
  0.8660017886778988  0.1324607904061565  0.7937966441772488
  0.8668239635069668  0.3329796906649634  0.5634558966499839
  0.8654832062681663  0.3324347483252623  0.7941343359464099
  0.8669331982460733  0.5329722781387147  0.5633616452359078
  0.8656261468233524  0.5323043976016208  0.7940945438195968
  0.8659408339570192  0.7323330055455912  0.5638967546790923
  0.8660398354150587  0.7324652189071301  0.7939310605646455
  0.8659357816702311  0.9323874140878488  0.5637851293585001
  0.8659857552710548  0.9323899498642376  0.7939767970295861
  0.2670216672535517  0.3420333770709760  0.9500355876933355
  0.6723702537034200  0.3381385269674126  0.9503653512183377
 
  0.00000000E+00  0.00000000E+00  0.00000000E+00
  0.00000000E+00  0.00000000E+00  0.00000000E+00
  0.00000000E+00  0.00000000E+00  0.00000000E+00
  0.00000000E+00  0.00000000E+00  0.00000000E+00
  0.00000000E+00  0.00000000E+00  0.00000000E+00
  0.00000000E+00  0.00000000E+00  0.00000000E+00
  0.00000000E+00  0.00000000E+00  0.00000000E+00
  0.00000000E+00  0.00000000E+00  0.00000000E+00
  0.00000000E+00  0.00000000E+00  0.00000000E+00
  0.00000000E+00  0.00000000E+00  0.00000000E+00
  0.00000000E+00  0.00000000E+00  0.00000000E+00
  0.00000000E+00  0.00000000E+00  0.00000000E+00
  0.00000000E+00  0.00000000E+00  0.00000000E+00
  0.00000000E+00  0.00000000E+00  0.00000000E+00
  0.00000000E+00  0.00000000E+00  0.00000000E+00
  0.00000000E+00  0.00000000E+00  0.00000000E+00
  0.00000000E+00  0.00000000E+00  0.00000000E+00
  0.00000000E+00  0.00000000E+00  0.00000000E+00
  0.00000000E+00  0.00000000E+00  0.00000000E+00
  0.00000000E+00  0.00000000E+00  0.00000000E+00
  0.00000000E+00  0.00000000E+00  0.00000000E+00
  0.00000000E+00  0.00000000E+00  0.00000000E+00
  0.00000000E+00  0.00000000E+00  0.00000000E+00
  0.00000000E+00  0.00000000E+00  0.00000000E+00
  0.00000000E+00  0.00000000E+00  0.00000000E+00
  0.00000000E+00  0.00000000E+00  0.00000000E+00
  0.00000000E+00  0.00000000E+00  0.00000000E+00
  0.00000000E+00  0.00000000E+00  0.00000000E+00
  0.00000000E+00  0.00000000E+00  0.00000000E+00
  0.00000000E+00  0.00000000E+00  0.00000000E+00
  0.00000000E+00  0.00000000E+00  0.00000000E+00
  0.00000000E+00  0.00000000E+00  0.00000000E+00
  0.00000000E+00  0.00000000E+00  0.00000000E+00
  0.00000000E+00  0.00000000E+00  0.00000000E+00
  0.00000000E+00  0.00000000E+00  0.00000000E+00
  0.00000000E+00  0.00000000E+00  0.00000000E+00
  0.00000000E+00  0.00000000E+00  0.00000000E+00
  0.00000000E+00  0.00000000E+00  0.00000000E+00
  0.00000000E+00  0.00000000E+00  0.00000000E+00
  0.00000000E+00  0.00000000E+00  0.00000000E+00
  0.00000000E+00  0.00000000E+00  0.00000000E+00
  0.00000000E+00  0.00000000E+00  0.00000000E+00
  0.00000000E+00  0.00000000E+00  0.00000000E+00
  0.00000000E+00  0.00000000E+00  0.00000000E+00
  0.00000000E+00  0.00000000E+00  0.00000000E+00
  0.00000000E+00  0.00000000E+00  0.00000000E+00
  0.00000000E+00  0.00000000E+00  0.00000000E+00
  0.00000000E+00  0.00000000E+00  0.00000000E+00
  0.00000000E+00  0.00000000E+00  0.00000000E+00
  0.00000000E+00  0.00000000E+00  0.00000000E+00
  0.00000000E+00  0.00000000E+00  0.00000000E+00
  0.00000000E+00  0.00000000E+00  0.00000000E+00
  0.00000000E+00  0.00000000E+00  0.00000000E+00
  0.00000000E+00  0.00000000E+00  0.00000000E+00
  0.00000000E+00  0.00000000E+00  0.00000000E+00
  0.00000000E+00  0.00000000E+00  0.00000000E+00
  0.00000000E+00  0.00000000E+00  0.00000000E+00
  0.00000000E+00  0.00000000E+00  0.00000000E+00
  0.00000000E+00  0.00000000E+00  0.00000000E+00
  0.00000000E+00  0.00000000E+00  0.00000000E+00
  0.00000000E+00  0.00000000E+00  0.00000000E+00
  0.00000000E+00  0.00000000E+00  0.00000000E+00
  0.00000000E+00  0.00000000E+00  0.00000000E+00
  0.00000000E+00  0.00000000E+00  0.00000000E+00
  0.00000000E+00  0.00000000E+00  0.00000000E+00
  0.00000000E+00  0.00000000E+00  0.00000000E+00
  0.00000000E+00  0.00000000E+00  0.00000000E+00
  0.00000000E+00  0.00000000E+00  0.00000000E+00
  0.00000000E+00  0.00000000E+00  0.00000000E+00
  0.00000000E+00  0.00000000E+00  0.00000000E+00
  0.00000000E+00  0.00000000E+00  0.00000000E+00
  0.00000000E+00  0.00000000E+00  0.00000000E+00
  0.00000000E+00  0.00000000E+00  0.00000000E+00
  0.00000000E+00  0.00000000E+00  0.00000000E+00
  0.00000000E+00  0.00000000E+00  0.00000000E+00
  0.00000000E+00  0.00000000E+00  0.00000000E+00
  0.00000000E+00  0.00000000E+00  0.00000000E+00
