Ta  N Ru                                
   1.00000000000000     
     9.0548154099999998    0.0000000000000000    0.0000000000000000
     0.0000000000000000   11.6775998899999998    0.0000000000000000
     0.0000000000000000    0.0000000000000000   23.4818170799999990
   Ta   N    Ru
    60    60     2
Selective dynamics
Direct
  0.0000000000000000  0.0000000000000000  0.2546926809530987   F   F   F
  0.6670845899906297  0.1250000003211298  0.2638822399803757   F   F   F
  0.3329153514769843  0.1250000003211298  0.2638822399803757   F   F   F
  0.4999999994478088  0.2499999997859135  0.3618861993156202   F   F   F
  0.1650707596845180  0.1250000003211298  0.3684425577811794   F   F   F
  0.8349292403154820  0.1250000003211298  0.3684425577811794   F   F   F
  0.0000135747883387  0.2495743707311341  0.4797097655531791   T   T   T
  0.6643453385945419  0.1245145131353426  0.4780510446524094   T   T   T
  0.3352241006119185  0.1245518074593382  0.4779746968543762   T   T   T
  0.5008764077663966  0.2491320828046275  0.5908055504525974   T   T   T
  0.1679131065419027  0.1240756191113303  0.5896665293813924   T   T   T
  0.8324523387005921  0.1239946366038670  0.5898511332860162   T   T   T
  0.0031223018123100  0.2484270581244266  0.6978135843437171   T   T   T
  0.6693487437409091  0.1212136133026047  0.7038610287313687   T   T   T
  0.3372278231263855  0.1230974219228348  0.7014485163140278   T   T   T
  0.0000000000000000  0.2499999997859135  0.2546926809530987   F   F   F
  0.6670845899906297  0.3750000001070433  0.2638822399803757   F   F   F
  0.3329153514769843  0.3750000001070433  0.2638822399803757   F   F   F
  0.4999999994478088  0.5000000004281731  0.3618861993156202   F   F   F
  0.1650707596845180  0.3750000001070433  0.3684425577811794   F   F   F
  0.8349292403154820  0.3750000001070433  0.3684425577811794   F   F   F
  0.0001206754427612  0.4998414701405498  0.4797841235483946   T   T   T
  0.6642796858305686  0.3747812250553379  0.4779511705962816   T   T   T
  0.3352676186579565  0.3747525616474526  0.4781652112795978   T   T   T
  0.4996264146220838  0.4995772598562429  0.5909705554761384   T   T   T
  0.1680738883024898  0.3745227437135016  0.5899362490369245   T   T   T
  0.8321372743524716  0.3745355558907699  0.5894275447298730   T   T   T
  0.0003940550596107  0.4937866689136503  0.7038030748589715   T   T   T
  0.6672594925795533  0.3765370841728957  0.7025330561348672   T   T   T
  0.3321961111554956  0.3755696367187070  0.7044269304096475   T   T   T
  0.0000000000000000  0.5000000004281731  0.2546926809530987   F   F   F
  0.6670845899906297  0.6249999998929567  0.2638822399803757   F   F   F
  0.3329153514769843  0.6249999998929567  0.2638822399803757   F   F   F
  0.4999999994478088  0.7500000002140865  0.3618861993156202   F   F   F
  0.1650707596845180  0.6249999998929567  0.3684425577811794   F   F   F
  0.8349292403154820  0.6249999998929567  0.3684425577811794   F   F   F
 -0.0000102038807196  0.7495962320435391  0.4798651205990310   T   T   T
  0.6647488410325590  0.6247611346468741  0.4781297547631406   T   T   T
  0.3347751203939993  0.6248007199260401  0.4782251353523638   T   T   T
  0.4994521098910933  0.7490171369985750  0.5912459085717099   T   T   T
  0.1670217280821126  0.6243194080945648  0.5904972282902384   T   T   T
  0.8324944879479080  0.6242271938818443  0.5901412953359442   T   T   T
  0.0002765578032916  0.7487831261944042  0.7025744966418388   T   T   T
  0.6711053363221555  0.6244978560435493  0.7041468972036165   T   T   T
  0.3272656312425480  0.6244460002272774  0.7045029615565157   T   T   T
  0.0000000000000000  0.7500000002140865  0.2546926809530987   F   F   F
  0.6670845899906297  0.8750000005352163  0.2638822399803757   F   F   F
  0.3329153514769843  0.8750000005352163  0.2638822399803757   F   F   F
  0.4999999994478088  0.0000000000000000  0.3618861993156202   F   F   F
  0.1650707596845180  0.8750000005352163  0.3684425577811794   F   F   F
  0.8349292403154820  0.8750000005352163  0.3684425577811794   F   F   F
  0.0000438399517028 -0.0005083230540356  0.4797961151369286   T   T   T
  0.6646133626446649  0.8745549630855297  0.4780701061713963   T   T   T
  0.3349120323414730  0.8745165299311333  0.4783096183130698   T   T   T
  0.5000387586948870 -0.0006665964352082  0.5911250045894443   T   T   T
  0.1672201307334628  0.8742291684942686  0.5905140100132952   T   T   T
  0.8323753184188165  0.8739908371794189  0.5899148595863755   T   T   T
 -0.0005346413605925  0.0036537004536922  0.7028144936720768   T   T   T
  0.6722419353446483  0.8730303201110046  0.7038891899521843   T   T   T
  0.3298479265696772  0.8733603679541154  0.7052895987812295   T   T   T
  0.8141011533980276  0.0000000000000000  0.3013105672926031   F   F   F
  0.4999999994478088  0.0000000000000000  0.2564174481620327   F   F   F
  0.1858988466019724  0.0000000000000000  0.3013105672926031   F   F   F
  0.3088456122590841  0.2499999997859135  0.4099867722441957   F   F   F
  0.0000000000000000  0.2499999997859135  0.3930971035158137   F   F   F
  0.6911543877409159  0.2499999997859135  0.4099867722441957   F   F   F
  0.8016004799987613  0.2493978417701264  0.5216712074647482   T   T   T
  0.4999733802234796  0.2494808166069739  0.5028388752088083   T   T   T
  0.1983583255110159  0.2495200306334280  0.5217175944690238   T   T   T
  0.3040264334734190  0.2496434361885072  0.6330143645529082   T   T   T
  0.0000563515323679  0.2494848905839299  0.6101788224024125   T   T   T
  0.6978123801861771  0.2490140006321137  0.6336452268366852   T   T   T
  0.8025282898762124  0.2495547239069229  0.7416265148047415   T   T   T
  0.5019714589058965  0.2485142643008974  0.7241671204290948   T   T   T
  0.2029193420480188  0.2491642435900987  0.7408587552234471   T   T   T
  0.8141011533980276  0.2499999997859135  0.3013105672926031   F   F   F
  0.4999999994478088  0.2499999997859135  0.2564174481620327   F   F   F
  0.1858988466019724  0.2499999997859135  0.3013105672926031   F   F   F
  0.3088456122590841  0.5000000004281731  0.4099867722441957   F   F   F
  0.0000000000000000  0.5000000004281731  0.3930971035158137   F   F   F
  0.6911543877409159  0.5000000004281731  0.4099867722441957   F   F   F
  0.8023839156387264  0.4996120674314418  0.5220352862508384   T   T   T
  0.4998275036468332  0.4999146687563377  0.5029427295043440   T   T   T
  0.1976368490810974  0.4996871994425884  0.5222930206597907   T   T   T
  0.3032081657557391  0.4994228971904578  0.6336114070123163   T   T   T
 -0.0003327441544022  0.4993219922069267  0.6146707208848979   T   T   T
  0.6960498519482324  0.4995539257313510  0.6332743919049172   T   T   T
  0.8030505264769154  0.4969901167756103  0.7416674371081801   T   T   T
  0.4991925178441327  0.4981460772513109  0.7237625259795113   T   T   T
  0.1962129157273825  0.4977444187025352  0.7417326150157803   T   T   T
  0.8141011533980276  0.5000000004281731  0.3013105672926031   F   F   F
  0.4999999994478088  0.5000000004281731  0.2564174481620327   F   F   F
  0.1858988466019724  0.5000000004281731  0.3013105672926031   F   F   F
  0.3088456122590841  0.7500000002140865  0.4099867722441957   F   F   F
  0.0000000000000000  0.7500000002140865  0.3930971035158137   F   F   F
  0.6911543877409159  0.7500000002140865  0.4099867722441957   F   F   F
  0.8023071477434609  0.7493630066903224  0.5221352165344754   T   T   T
  0.4997732397222061  0.7495170039234840  0.5031887965312671   T   T   T
  0.1974589943177034  0.7495087789363510  0.5224745861767346   T   T   T
  0.3030791015353752  0.7495040984074790  0.6338816573649757   T   T   T
 -0.0003162409098580  0.7489523310415618  0.6142124082298722   T   T   T
  0.6960378607797191  0.7489109945333032  0.6332910554227447   T   T   T
  0.8064217515211217  0.7481207558935329  0.7407932379755340   T   T   T
  0.4993569743983932  0.7495104913079306  0.7240441045396004   T   T   T
  0.1936629864699646  0.7496904065779489  0.7415608417771753   T   T   T
  0.8141011533980276  0.7500000002140865  0.3013105672926031   F   F   F
  0.4999999994478088  0.7500000002140865  0.2564174481620327   F   F   F
  0.1858988466019724  0.7500000002140865  0.3013105672926031   F   F   F
  0.3088456122590841  0.0000000000000000  0.4099867722441957   F   F   F
  0.0000000000000000  0.0000000000000000  0.3930971035158137   F   F   F
  0.6911543877409159  0.0000000000000000  0.4099867722441957   F   F   F
  0.8021293142994802 -0.0005912169937711  0.5220581366636603   T   T   T
  0.4997744363240958 -0.0006249943770430  0.5030091321525755   T   T   T
  0.1977629439272767 -0.0007749683926993  0.5221424603872193   T   T   T
  0.3033185567329584 -0.0016215932320380  0.6338363500379898   T   T   T
 -0.0001743192216446 -0.0011751852173920  0.6137997915610598   T   T   T
  0.6967479440481607 -0.0013045880440598  0.6332242873257601   T   T   T
  0.8045549120500506 -0.0007383538678361  0.7407466155412660   T   T   T
  0.5025447812784952 -0.0011060484389892  0.7242664066612008   T   T   T
  0.1994548026070933  0.0018778067648757  0.7447696554687341   T   T   T
  0.0959175314642483  0.1431221515403918  0.7902385677736541   T   T   T
  0.9242785248532509  0.2887341906142767  0.8060237636719443   T   T   T
 
  0.00000000E+00  0.00000000E+00  0.00000000E+00
  0.00000000E+00  0.00000000E+00  0.00000000E+00
  0.00000000E+00  0.00000000E+00  0.00000000E+00
  0.00000000E+00  0.00000000E+00  0.00000000E+00
  0.00000000E+00  0.00000000E+00  0.00000000E+00
  0.00000000E+00  0.00000000E+00  0.00000000E+00
  0.00000000E+00  0.00000000E+00  0.00000000E+00
  0.00000000E+00  0.00000000E+00  0.00000000E+00
  0.00000000E+00  0.00000000E+00  0.00000000E+00
  0.00000000E+00  0.00000000E+00  0.00000000E+00
  0.00000000E+00  0.00000000E+00  0.00000000E+00
  0.00000000E+00  0.00000000E+00  0.00000000E+00
  0.00000000E+00  0.00000000E+00  0.00000000E+00
  0.00000000E+00  0.00000000E+00  0.00000000E+00
  0.00000000E+00  0.00000000E+00  0.00000000E+00
  0.00000000E+00  0.00000000E+00  0.00000000E+00
  0.00000000E+00  0.00000000E+00  0.00000000E+00
  0.00000000E+00  0.00000000E+00  0.00000000E+00
  0.00000000E+00  0.00000000E+00  0.00000000E+00
  0.00000000E+00  0.00000000E+00  0.00000000E+00
  0.00000000E+00  0.00000000E+00  0.00000000E+00
  0.00000000E+00  0.00000000E+00  0.00000000E+00
  0.00000000E+00  0.00000000E+00  0.00000000E+00
  0.00000000E+00  0.00000000E+00  0.00000000E+00
  0.00000000E+00  0.00000000E+00  0.00000000E+00
  0.00000000E+00  0.00000000E+00  0.00000000E+00
  0.00000000E+00  0.00000000E+00  0.00000000E+00
  0.00000000E+00  0.00000000E+00  0.00000000E+00
  0.00000000E+00  0.00000000E+00  0.00000000E+00
  0.00000000E+00  0.00000000E+00  0.00000000E+00
  0.00000000E+00  0.00000000E+00  0.00000000E+00
  0.00000000E+00  0.00000000E+00  0.00000000E+00
  0.00000000E+00  0.00000000E+00  0.00000000E+00
  0.00000000E+00  0.00000000E+00  0.00000000E+00
  0.00000000E+00  0.00000000E+00  0.00000000E+00
  0.00000000E+00  0.00000000E+00  0.00000000E+00
  0.00000000E+00  0.00000000E+00  0.00000000E+00
  0.00000000E+00  0.00000000E+00  0.00000000E+00
  0.00000000E+00  0.00000000E+00  0.00000000E+00
  0.00000000E+00  0.00000000E+00  0.00000000E+00
  0.00000000E+00  0.00000000E+00  0.00000000E+00
  0.00000000E+00  0.00000000E+00  0.00000000E+00
  0.00000000E+00  0.00000000E+00  0.00000000E+00
  0.00000000E+00  0.00000000E+00  0.00000000E+00
  0.00000000E+00  0.00000000E+00  0.00000000E+00
  0.00000000E+00  0.00000000E+00  0.00000000E+00
  0.00000000E+00  0.00000000E+00  0.00000000E+00
  0.00000000E+00  0.00000000E+00  0.00000000E+00
  0.00000000E+00  0.00000000E+00  0.00000000E+00
  0.00000000E+00  0.00000000E+00  0.00000000E+00
  0.00000000E+00  0.00000000E+00  0.00000000E+00
  0.00000000E+00  0.00000000E+00  0.00000000E+00
  0.00000000E+00  0.00000000E+00  0.00000000E+00
  0.00000000E+00  0.00000000E+00  0.00000000E+00
  0.00000000E+00  0.00000000E+00  0.00000000E+00
  0.00000000E+00  0.00000000E+00  0.00000000E+00
  0.00000000E+00  0.00000000E+00  0.00000000E+00
  0.00000000E+00  0.00000000E+00  0.00000000E+00
  0.00000000E+00  0.00000000E+00  0.00000000E+00
  0.00000000E+00  0.00000000E+00  0.00000000E+00
  0.00000000E+00  0.00000000E+00  0.00000000E+00
  0.00000000E+00  0.00000000E+00  0.00000000E+00
  0.00000000E+00  0.00000000E+00  0.00000000E+00
  0.00000000E+00  0.00000000E+00  0.00000000E+00
  0.00000000E+00  0.00000000E+00  0.00000000E+00
  0.00000000E+00  0.00000000E+00  0.00000000E+00
  0.00000000E+00  0.00000000E+00  0.00000000E+00
  0.00000000E+00  0.00000000E+00  0.00000000E+00
  0.00000000E+00  0.00000000E+00  0.00000000E+00
  0.00000000E+00  0.00000000E+00  0.00000000E+00
  0.00000000E+00  0.00000000E+00  0.00000000E+00
  0.00000000E+00  0.00000000E+00  0.00000000E+00
  0.00000000E+00  0.00000000E+00  0.00000000E+00
  0.00000000E+00  0.00000000E+00  0.00000000E+00
  0.00000000E+00  0.00000000E+00  0.00000000E+00
  0.00000000E+00  0.00000000E+00  0.00000000E+00
  0.00000000E+00  0.00000000E+00  0.00000000E+00
  0.00000000E+00  0.00000000E+00  0.00000000E+00
  0.00000000E+00  0.00000000E+00  0.00000000E+00
  0.00000000E+00  0.00000000E+00  0.00000000E+00
  0.00000000E+00  0.00000000E+00  0.00000000E+00
  0.00000000E+00  0.00000000E+00  0.00000000E+00
  0.00000000E+00  0.00000000E+00  0.00000000E+00
  0.00000000E+00  0.00000000E+00  0.00000000E+00
  0.00000000E+00  0.00000000E+00  0.00000000E+00
  0.00000000E+00  0.00000000E+00  0.00000000E+00
  0.00000000E+00  0.00000000E+00  0.00000000E+00
  0.00000000E+00  0.00000000E+00  0.00000000E+00
  0.00000000E+00  0.00000000E+00  0.00000000E+00
  0.00000000E+00  0.00000000E+00  0.00000000E+00
  0.00000000E+00  0.00000000E+00  0.00000000E+00
  0.00000000E+00  0.00000000E+00  0.00000000E+00
  0.00000000E+00  0.00000000E+00  0.00000000E+00
  0.00000000E+00  0.00000000E+00  0.00000000E+00
  0.00000000E+00  0.00000000E+00  0.00000000E+00
  0.00000000E+00  0.00000000E+00  0.00000000E+00
  0.00000000E+00  0.00000000E+00  0.00000000E+00
  0.00000000E+00  0.00000000E+00  0.00000000E+00
  0.00000000E+00  0.00000000E+00  0.00000000E+00
  0.00000000E+00  0.00000000E+00  0.00000000E+00
  0.00000000E+00  0.00000000E+00  0.00000000E+00
  0.00000000E+00  0.00000000E+00  0.00000000E+00
  0.00000000E+00  0.00000000E+00  0.00000000E+00
  0.00000000E+00  0.00000000E+00  0.00000000E+00
  0.00000000E+00  0.00000000E+00  0.00000000E+00
  0.00000000E+00  0.00000000E+00  0.00000000E+00
  0.00000000E+00  0.00000000E+00  0.00000000E+00
  0.00000000E+00  0.00000000E+00  0.00000000E+00
  0.00000000E+00  0.00000000E+00  0.00000000E+00
  0.00000000E+00  0.00000000E+00  0.00000000E+00
  0.00000000E+00  0.00000000E+00  0.00000000E+00
  0.00000000E+00  0.00000000E+00  0.00000000E+00
  0.00000000E+00  0.00000000E+00  0.00000000E+00
  0.00000000E+00  0.00000000E+00  0.00000000E+00
  0.00000000E+00  0.00000000E+00  0.00000000E+00
  0.00000000E+00  0.00000000E+00  0.00000000E+00
  0.00000000E+00  0.00000000E+00  0.00000000E+00
  0.00000000E+00  0.00000000E+00  0.00000000E+00
  0.00000000E+00  0.00000000E+00  0.00000000E+00
  0.00000000E+00  0.00000000E+00  0.00000000E+00
  0.00000000E+00  0.00000000E+00  0.00000000E+00
  0.00000000E+00  0.00000000E+00  0.00000000E+00
