Ta  N Cu                                
   1.00000000000000     
    10.4555999800000006    0.0000000000000000    0.0000000000000000
     0.0000000000000000   11.6775998899999998    0.0000000000000000
     0.0000000000000000    0.0000000000000000   24.0732377500000005
   Ta   N    Cu
    64    64     1
Selective dynamics
Direct
  0.4991785186325330  0.1250000003211298  0.3753726828051569   F   F   F
  0.2600588226580172  0.1250000003211298  0.3190980514078845   F   F   F
  0.2470962603561304  0.0000000000000000  0.4358978840493251   F   F   F
  0.2478401498008884  0.1249480459313648  0.5616773119409585   T   T   T
  0.9982704352298519  0.1249864765531666  0.5004503681151252   T   T   T
  0.9970517655220245  0.9998503159746269  0.6264536657742086   T   T   T
  0.5049996068752465  0.1269349809350286  0.7434493366591340   T   T   T
  0.2507538595606311  0.1242350682615327  0.6867704363267717   T   T   T
  0.4991785186325330  0.3750000001070433  0.3753726828051569   F   F   F
  0.2600588226580172  0.3750000001070433  0.3190980514078845   F   F   F
  0.2470962603561304  0.2499999997859135  0.4358978840493251   F   F   F
  0.2478407649567057  0.3750569467442518  0.5616781533146452   T   T   T
  0.9982715793926106  0.3750149534745196  0.5004500293343493   T   T   T
  0.9968011223805137  0.2500046676497774  0.6267927462749182   T   T   T
  0.5050221464575319  0.3731020589392781  0.7434400124258053   T   T   T
  0.2507641024027604  0.3757861859717732  0.6867708282224098   T   T   T
  0.4991785186325330  0.6249999998929567  0.3753726828051569   F   F   F
  0.2600588226580172  0.6249999998929567  0.3190980514078845   F   F   F
  0.2470962603561304  0.5000000004281731  0.4358978840493251   F   F   F
  0.2484369667633536  0.6250453175718802  0.5614998145945764   T   T   T
  0.9983261833051481  0.6250465504346199  0.5005114316224153   T   T   T
  0.9970502350827504  0.5001593783400837  0.6264492923512238   T   T   T
  0.5106371198399126  0.6239117943271527  0.7425237672526188   T   T   T
  0.2493274942277263  0.6252423405415475  0.6864356467969546   T   T   T
  0.4991785186325330  0.8750000005352163  0.3753726828051569   F   F   F
  0.2600588226580172  0.8750000005352163  0.3190980514078845   F   F   F
  0.2470962603561304  0.7500000002140865  0.4358978840493251   F   F   F
  0.2484370407636249  0.8749598597605600  0.5615002041930885   T   T   T
  0.9983255277239520  0.8749553397495661  0.5005116705433827   T   T   T
  0.9970162450452594  0.7500052716771131  0.6264820687171100   T   T   T
  0.5106473807753571  0.8761034658398170  0.7425279260735386   T   T   T
  0.2493272419835572  0.8747690552937845  0.6864385266629115   T   T   T
  0.9991784928090510  0.1250000003211298  0.3753726828051569   F   F   F
  0.7600587968345351  0.1250000003211298  0.3190980514078845   F   F   F
  0.7470962345326484  0.0000000000000000  0.4358978840493251   F   F   F
  0.7490032131520272  0.1251084789962421  0.5618967003589665   T   T   T
  0.4986540645059979  0.1249122911753022  0.5003196690772613   T   T   T
  0.4980343115866714  0.9992732730805749  0.6253903101219250   T   T   T
  0.0115534448447717  0.1242392840256801  0.7436200630992150   T   T   T
  0.7488487546345837  0.1249482069094603  0.6876116680635568   T   T   T
  0.9991784928090510  0.3750000001070433  0.3753726828051569   F   F   F
  0.7600587968345351  0.3750000001070433  0.3190980514078845   F   F   F
  0.7470962345326484  0.2499999997859135  0.4358978840493251   F   F   F
  0.7490046167941867  0.3748959311411186  0.5618957496883821   T   T   T
  0.4986553360525020  0.3750891942872511  0.5003196180519613   T   T   T
  0.4995238796037890  0.2500051544337441  0.6238840878765682   T   T   T
  0.0115531465689733  0.3757761478428177  0.7436197698630359   T   T   T
  0.7488593234217095  0.3750591670881542  0.6876092205816315   T   T   T
  0.9991784928090510  0.6249999998929567  0.3753726828051569   F   F   F
  0.7600587968345351  0.6249999998929567  0.3190980514078845   F   F   F
  0.7470962345326484  0.5000000004281731  0.4358978840493251   F   F   F
  0.7486353138279530  0.6249533874089012  0.5618317215814516   T   T   T
  0.4986969606919313  0.6250280640039306  0.5004591941707880   T   T   T
  0.4980398173290874  0.5007399239506638  0.6253863225025728   T   T   T
  0.0106617786736768  0.6245461626236193  0.7431445687560246   T   T   T
  0.7493885135550277  0.6246432869497943  0.6870216588563075   T   T   T
  0.9991784928090439  0.8750000005352163  0.3753726828051569   F   F   F
  0.7600587968345351  0.8750000005352163  0.3190980514078845   F   F   F
  0.7470962345326484  0.7500000002140865  0.4358978840493251   F   F   F
  0.7486337537682132  0.8750514325530517  0.5618321827153303   T   T   T
  0.4986971794939690  0.8749745675700998  0.5004575771566214   T   T   T
  0.4976000000425262  0.7500068427310811  0.6260444096385552   T   T   T
  0.0106630343998258  0.8754602932173585  0.7431456570520958   T   T   T
  0.7493825408576870  0.8753720879220190  0.6870235503885098   T   T   T
  0.1472195596423447  0.0000000000000000  0.3601606351366584   F   F   F
  0.4003222342624682  0.0000000000000000  0.3237632067519129   F   F   F
  0.4439214822817661  0.0000000000000000  0.4377276028165085   F   F   F
  0.4003081072642891 -0.0000030976075378  0.5514661232553841   T   T   T
  0.1504504628289577  0.9998969872409394  0.5102084869763059   T   T   T
  0.1939244082927568  0.9998190011147746  0.6243951568216326   T   T   T
  0.1515391597592869  0.9993165459053703  0.7383650374160138   T   T   T
  0.3983757568883127 -0.0001523697978160  0.7004731411355409   T   T   T
  0.1472195596423447  0.2499999997859135  0.3601606351366584   F   F   F
  0.4003222342624682  0.2499999997859135  0.3237632067519129   F   F   F
  0.4439214822817661  0.2499999997859135  0.4377276028165085   F   F   F
  0.3994167916102976  0.2500013362582376  0.5508600800479021   T   T   T
  0.1503581896152196  0.2500011063250472  0.5101840298604483   T   T   T
  0.1931345954991975  0.2500046235486799  0.6246908953633225   T   T   T
  0.1567433248323647  0.2500115349709207  0.7419995662619026   T   T   T
  0.3999086777776062  0.2500083976593759  0.6956385905473422   T   T   T
  0.1472195596423447  0.5000000004281731  0.3601606351366584   F   F   F
  0.4003222342624682  0.5000000004281731  0.3237632067519129   F   F   F
  0.4439214822817661  0.5000000004281731  0.4377276028165085   F   F   F
  0.4003052305179622  0.5000077315679966  0.5514618178564112   T   T   T
  0.1504515686515651  0.5001055830711753  0.5102084652797896   T   T   T
  0.1939280641869299  0.5001895053238806  0.6243946555485442   T   T   T
  0.1515378259385810  0.5006962183318916  0.7383642925931025   T   T   T
  0.3983864683274653  0.5001768237870206  0.7004661878459781   T   T   T
  0.1472195596423447  0.7500000002140865  0.3601606351366584   F   F   F
  0.4003222342624682  0.7500000002140865  0.3237632067519129   F   F   F
  0.4439214822817661  0.7500000002140865  0.4377276028165085   F   F   F
  0.4006845371648520  0.7500025192757518  0.5517211763795533   T   T   T
  0.1505111472961018  0.7500018480121499  0.5102083036457538   T   T   T
  0.1939090878595462  0.7500049415840292  0.6242206548666654   T   T   T
  0.1501440188594244  0.7500075975449096  0.7379277717715804   T   T   T
  0.3977654332896236  0.7500083167547552  0.7017811431954853   T   T   T
  0.6472195338188556  0.0000000000000000  0.3601606351366584   F   F   F
  0.9003222591295312  0.0000000000000000  0.3237632067519129   F   F   F
  0.9439215071488221  0.0000000000000000  0.4377276028165085   F   F   F
  0.9008646754029035  0.0000024374348118  0.5519394004162183   T   T   T
  0.6508977414743419  0.0000080845033074  0.5103968553542273   T   T   T
  0.6948917219830684  0.0002641308698288  0.6245862510664054   T   T   T
  0.6496630028234240  0.0008332062298749  0.7389754556203327   T   T   T
  0.8974477196228680  0.0004493833808342  0.7021373162006979   T   T   T
  0.6472195338188556  0.2499999997859135  0.3601606351366584   F   F   F
  0.9003222591295312  0.2499999997859135  0.3237632067519129   F   F   F
  0.9439215071488221  0.2499999997859135  0.4377276028165085   F   F   F
  0.9010941141711504  0.2500015373322859  0.5519551257675192   T   T   T
  0.6507878217940359  0.2500005654899446  0.5103622738573427   T   T   T
  0.6963084864847419  0.2500032946199170  0.6247386470684407   T   T   T
  0.6485595261228048  0.2500055938270425  0.7386360402932539   T   T   T
  0.8978081539126930  0.2500034760047740  0.7027382590627004   T   T   T
  0.6472195338188556  0.5000000004281731  0.3601606351366584   F   F   F
  0.9003222591295312  0.5000000004281731  0.3237632067519129   F   F   F
  0.9439215071488221  0.5000000004281731  0.4377276028165085   F   F   F
  0.9008654404031631  0.5000002863677466  0.5519377556771962   T   T   T
  0.6508979536113377  0.4999942274255702  0.5103965602647466   T   T   T
  0.6948970882909334  0.4997439965455610  0.6245838070869922   T   T   T
  0.6496816298669067  0.4991971614635756  0.7389732890149604   T   T   T
  0.8974556337531221  0.4995640303823824  0.7021335326284501   T   T   T
  0.6472195338188556  0.7500000002140865  0.3601606351366584   F   F   F
  0.9003222591295312  0.7500000002140865  0.3237632067519129   F   F   F
  0.9439215071488221  0.7500000002140865  0.4377276028165085   F   F   F
  0.9007174292850205  0.7500019683312222  0.5519887758682903   T   T   T
  0.6509130841661930  0.7500014274569514  0.5104009271761637   T   T   T
  0.6945438269235269  0.7500050403819113  0.6246261519196799   T   T   T
  0.6503072278793056  0.7500118085650035  0.7385791293789008   T   T   T
  0.8971782777776730  0.7500060993280855  0.7023996689266055   T   T   T
  0.3177175334037441  0.2501801769660844  0.7931959441851395   T   T   T
 
  0.00000000E+00  0.00000000E+00  0.00000000E+00
  0.00000000E+00  0.00000000E+00  0.00000000E+00
  0.00000000E+00  0.00000000E+00  0.00000000E+00
  0.00000000E+00  0.00000000E+00  0.00000000E+00
  0.00000000E+00  0.00000000E+00  0.00000000E+00
  0.00000000E+00  0.00000000E+00  0.00000000E+00
  0.00000000E+00  0.00000000E+00  0.00000000E+00
  0.00000000E+00  0.00000000E+00  0.00000000E+00
  0.00000000E+00  0.00000000E+00  0.00000000E+00
  0.00000000E+00  0.00000000E+00  0.00000000E+00
  0.00000000E+00  0.00000000E+00  0.00000000E+00
  0.00000000E+00  0.00000000E+00  0.00000000E+00
  0.00000000E+00  0.00000000E+00  0.00000000E+00
  0.00000000E+00  0.00000000E+00  0.00000000E+00
  0.00000000E+00  0.00000000E+00  0.00000000E+00
  0.00000000E+00  0.00000000E+00  0.00000000E+00
  0.00000000E+00  0.00000000E+00  0.00000000E+00
  0.00000000E+00  0.00000000E+00  0.00000000E+00
  0.00000000E+00  0.00000000E+00  0.00000000E+00
  0.00000000E+00  0.00000000E+00  0.00000000E+00
  0.00000000E+00  0.00000000E+00  0.00000000E+00
  0.00000000E+00  0.00000000E+00  0.00000000E+00
  0.00000000E+00  0.00000000E+00  0.00000000E+00
  0.00000000E+00  0.00000000E+00  0.00000000E+00
  0.00000000E+00  0.00000000E+00  0.00000000E+00
  0.00000000E+00  0.00000000E+00  0.00000000E+00
  0.00000000E+00  0.00000000E+00  0.00000000E+00
  0.00000000E+00  0.00000000E+00  0.00000000E+00
  0.00000000E+00  0.00000000E+00  0.00000000E+00
  0.00000000E+00  0.00000000E+00  0.00000000E+00
  0.00000000E+00  0.00000000E+00  0.00000000E+00
  0.00000000E+00  0.00000000E+00  0.00000000E+00
  0.00000000E+00  0.00000000E+00  0.00000000E+00
  0.00000000E+00  0.00000000E+00  0.00000000E+00
  0.00000000E+00  0.00000000E+00  0.00000000E+00
  0.00000000E+00  0.00000000E+00  0.00000000E+00
  0.00000000E+00  0.00000000E+00  0.00000000E+00
  0.00000000E+00  0.00000000E+00  0.00000000E+00
  0.00000000E+00  0.00000000E+00  0.00000000E+00
  0.00000000E+00  0.00000000E+00  0.00000000E+00
  0.00000000E+00  0.00000000E+00  0.00000000E+00
  0.00000000E+00  0.00000000E+00  0.00000000E+00
  0.00000000E+00  0.00000000E+00  0.00000000E+00
  0.00000000E+00  0.00000000E+00  0.00000000E+00
  0.00000000E+00  0.00000000E+00  0.00000000E+00
  0.00000000E+00  0.00000000E+00  0.00000000E+00
  0.00000000E+00  0.00000000E+00  0.00000000E+00
  0.00000000E+00  0.00000000E+00  0.00000000E+00
  0.00000000E+00  0.00000000E+00  0.00000000E+00
  0.00000000E+00  0.00000000E+00  0.00000000E+00
  0.00000000E+00  0.00000000E+00  0.00000000E+00
  0.00000000E+00  0.00000000E+00  0.00000000E+00
  0.00000000E+00  0.00000000E+00  0.00000000E+00
  0.00000000E+00  0.00000000E+00  0.00000000E+00
  0.00000000E+00  0.00000000E+00  0.00000000E+00
  0.00000000E+00  0.00000000E+00  0.00000000E+00
  0.00000000E+00  0.00000000E+00  0.00000000E+00
  0.00000000E+00  0.00000000E+00  0.00000000E+00
  0.00000000E+00  0.00000000E+00  0.00000000E+00
  0.00000000E+00  0.00000000E+00  0.00000000E+00
  0.00000000E+00  0.00000000E+00  0.00000000E+00
  0.00000000E+00  0.00000000E+00  0.00000000E+00
  0.00000000E+00  0.00000000E+00  0.00000000E+00
  0.00000000E+00  0.00000000E+00  0.00000000E+00
  0.00000000E+00  0.00000000E+00  0.00000000E+00
  0.00000000E+00  0.00000000E+00  0.00000000E+00
  0.00000000E+00  0.00000000E+00  0.00000000E+00
  0.00000000E+00  0.00000000E+00  0.00000000E+00
  0.00000000E+00  0.00000000E+00  0.00000000E+00
  0.00000000E+00  0.00000000E+00  0.00000000E+00
  0.00000000E+00  0.00000000E+00  0.00000000E+00
  0.00000000E+00  0.00000000E+00  0.00000000E+00
  0.00000000E+00  0.00000000E+00  0.00000000E+00
  0.00000000E+00  0.00000000E+00  0.00000000E+00
  0.00000000E+00  0.00000000E+00  0.00000000E+00
  0.00000000E+00  0.00000000E+00  0.00000000E+00
  0.00000000E+00  0.00000000E+00  0.00000000E+00
  0.00000000E+00  0.00000000E+00  0.00000000E+00
  0.00000000E+00  0.00000000E+00  0.00000000E+00
  0.00000000E+00  0.00000000E+00  0.00000000E+00
  0.00000000E+00  0.00000000E+00  0.00000000E+00
  0.00000000E+00  0.00000000E+00  0.00000000E+00
  0.00000000E+00  0.00000000E+00  0.00000000E+00
  0.00000000E+00  0.00000000E+00  0.00000000E+00
  0.00000000E+00  0.00000000E+00  0.00000000E+00
  0.00000000E+00  0.00000000E+00  0.00000000E+00
  0.00000000E+00  0.00000000E+00  0.00000000E+00
  0.00000000E+00  0.00000000E+00  0.00000000E+00
  0.00000000E+00  0.00000000E+00  0.00000000E+00
  0.00000000E+00  0.00000000E+00  0.00000000E+00
  0.00000000E+00  0.00000000E+00  0.00000000E+00
  0.00000000E+00  0.00000000E+00  0.00000000E+00
  0.00000000E+00  0.00000000E+00  0.00000000E+00
  0.00000000E+00  0.00000000E+00  0.00000000E+00
  0.00000000E+00  0.00000000E+00  0.00000000E+00
  0.00000000E+00  0.00000000E+00  0.00000000E+00
  0.00000000E+00  0.00000000E+00  0.00000000E+00
  0.00000000E+00  0.00000000E+00  0.00000000E+00
  0.00000000E+00  0.00000000E+00  0.00000000E+00
  0.00000000E+00  0.00000000E+00  0.00000000E+00
  0.00000000E+00  0.00000000E+00  0.00000000E+00
  0.00000000E+00  0.00000000E+00  0.00000000E+00
  0.00000000E+00  0.00000000E+00  0.00000000E+00
  0.00000000E+00  0.00000000E+00  0.00000000E+00
  0.00000000E+00  0.00000000E+00  0.00000000E+00
  0.00000000E+00  0.00000000E+00  0.00000000E+00
  0.00000000E+00  0.00000000E+00  0.00000000E+00
  0.00000000E+00  0.00000000E+00  0.00000000E+00
  0.00000000E+00  0.00000000E+00  0.00000000E+00
  0.00000000E+00  0.00000000E+00  0.00000000E+00
  0.00000000E+00  0.00000000E+00  0.00000000E+00
  0.00000000E+00  0.00000000E+00  0.00000000E+00
  0.00000000E+00  0.00000000E+00  0.00000000E+00
  0.00000000E+00  0.00000000E+00  0.00000000E+00
  0.00000000E+00  0.00000000E+00  0.00000000E+00
  0.00000000E+00  0.00000000E+00  0.00000000E+00
  0.00000000E+00  0.00000000E+00  0.00000000E+00
  0.00000000E+00  0.00000000E+00  0.00000000E+00
  0.00000000E+00  0.00000000E+00  0.00000000E+00
  0.00000000E+00  0.00000000E+00  0.00000000E+00
  0.00000000E+00  0.00000000E+00  0.00000000E+00
  0.00000000E+00  0.00000000E+00  0.00000000E+00
  0.00000000E+00  0.00000000E+00  0.00000000E+00
  0.00000000E+00  0.00000000E+00  0.00000000E+00
  0.00000000E+00  0.00000000E+00  0.00000000E+00
  0.00000000E+00  0.00000000E+00  0.00000000E+00
  0.00000000E+00  0.00000000E+00  0.00000000E+00
  0.00000000E+00  0.00000000E+00  0.00000000E+00
  0.00000000E+00  0.00000000E+00  0.00000000E+00
