Ta  N Cu                                
   1.00000000000000     
    18.1096308199999996    0.0000000000000000    0.0000000000000000
     0.0000000000000000   11.6775998899999998    0.0000000000000000
     0.0000000000000000    0.0000000000000000   23.4818170799999990
   Ta   N    Cu
   120   120     2
Direct
 -0.0001043220143502  0.0008784164064192  0.2549074886967876
  0.3333332492247570  0.1261937483473066  0.2638052621886023
  0.1659951277932551  0.1260612983763524  0.2638583014400573
  0.2497932093012699  0.2509025844876458  0.3614430327109144
  0.0822217493603350  0.1259337385818547  0.3684898199288758
  0.4170906491605261  0.1259160476255847  0.3686392196611357
 -0.0002269138777873  0.2508468546153398  0.4800021317159759
  0.3324725163278135  0.1261507465328510  0.4785460998215793
  0.1674652840444113  0.1261332582361578  0.4781125636880619
  0.2498213254978447  0.2511841669666863  0.5910670702369623
  0.0837069292228212  0.1260733025368335  0.5901998132776073
  0.4162404523049490  0.1262572913508669  0.5907767765972477
  0.9986007141289081  0.2511700125565977  0.7020882412363783
  0.3317066985711385  0.1297796530464246  0.7014677315637009
  0.1617596439793261  0.1274711832227979  0.7047238546555413
 -0.0004604657945315  0.2507285081813955  0.2548877132695754
  0.3330783271867421  0.3755308853613098  0.2638949156008229
  0.1662524440948163  0.3754579840774436  0.2639086178768442
  0.2497227687229472  0.5008724007804486  0.3615192551585677
  0.0822464997443385  0.3759113543430655  0.3684515294256313
  0.4170830863856636  0.3759137338099589  0.3684681846185813
 -0.0002863135568519  0.5010413367758355  0.4798606248332514
  0.3321882939516837  0.3760629200279944  0.4783449405825129
  0.1674498084183996  0.3760840628420641  0.4781830884145176
  0.2497276351724568  0.5012546521687332  0.5907374356918292
  0.0835142942026469  0.3760833129799163  0.5897360828241551
  0.4162533544998206  0.3764495094821499  0.5898934852587400
  0.9991251836162144  0.5013464748111767  0.7021864780103787
  0.3342209968072632  0.3785932707684732  0.7045646266392542
  0.1637861744386172  0.3766684072388163  0.7038467530843634
 -0.0001218634352490  0.5009099721904816  0.2548589946383094
  0.3330616923448483  0.6262225485708732  0.2638478454557774
  0.1662592897688919  0.6261202468087170  0.2638314055540735
  0.2497367768818270  0.7509638016039757  0.3613948780053587
  0.0822534158538717  0.6259565390503625  0.3684497945738209
  0.4170944094236140  0.6259795057198978  0.3684359324998485
 -0.0002244117941998  0.7511522458238403  0.4799356961454069
  0.3322137090909294  0.6261928815062402  0.4781777485130646
  0.1673852713214670  0.6261591613099804  0.4781221262431564
  0.2496350758896391  0.7511733627450395  0.5908045578973276
  0.0833190288614118  0.6261578516591946  0.5898181625008735
  0.4162569197950237  0.6260428932113163  0.5897805962361202
  0.9988042526502773  0.7510083979388903  0.7021782479929664
  0.3350931558016333  0.6255020682458092  0.7040313031915006
  0.1640215105640271  0.6256594705725242  0.7037903391916973
 -0.0004674640960865  0.7508273872819528  0.2548684254209110
  0.3332532194542965  0.8755209354134500  0.2638467773872628
  0.1660909048126931  0.8756642807887189  0.2639193776858300
  0.2498179936787047  0.0009041413500129  0.3615871562564889
  0.0822140832692750  0.8759538961986306  0.3685126179722769
  0.4170982092323998  0.8759650968845071  0.3685301196723885
 -0.0001114467264757  0.0011308984748499  0.4800927017977968
  0.3322945669870753  0.8762219725898613  0.4784773659262725
  0.1674437999106347  0.8761958592508322  0.4782164833149389
  0.2500832479487534  0.0012206044559226  0.5909816335165006
  0.0838895541623983  0.8762076509058179  0.5901300105074418
  0.4161683319886641  0.8761446711582745  0.5903256601767761
  0.9986671567203963  0.0013432441756126  0.7023017685659571
  0.3342516675443223  0.8712648287219603  0.7034875220124231
  0.1622642200895539  0.8748895211453994  0.7046452974520289
  0.4992322813015604  0.0009831854376857  0.2548879293839303
  0.8332431970808913  0.1254907020374227  0.2638251248993183
  0.6661250990757664  0.1255284307487021  0.2637546747300477
  0.7496620307459481  0.2508517497960038  0.3615321851639891
  0.5821725280830378  0.1259391889756755  0.3684443070486066
  0.9172095490329726  0.1258602039873291  0.3684584687239443
  0.4997144364969622  0.2511183832220529  0.4799551558753326
  0.8320984952122390  0.1260016884286927  0.4780682226823332
  0.6671120558915564  0.1260734295700403  0.4781463347343132
  0.7498020360722850  0.2513701934506899  0.5907520131231835
  0.5834227094398005  0.1260686910189452  0.5901512734453949
  0.9162333524136942  0.1261226896183288  0.5899826780785585
  0.5008918572325745  0.2493960315449788  0.7019146022962622
  0.8347783410438945  0.1263501306153915  0.7041574769817054
  0.6650645650093208  0.1263850115385328  0.7033600252972783
  0.4996051388489948  0.2506757073671234  0.2548782339954795
  0.8330109412730400  0.3760200054774485  0.2638891762178046
  0.6663065113437930  0.3760642187703117  0.2638180691703576
  0.7497246070736118  0.5007942651306181  0.3614000293406285
  0.5821429001054985  0.3759481571603241  0.3683111249345616
  0.9171939132148775  0.3758816553026374  0.3684314926757922
  0.4997294510376716  0.5010416232885450  0.4797486088774998
  0.8321600241741798  0.3760473200077806  0.4781231662447187
  0.6673562869258172  0.3760497253357271  0.4780522842328037
  0.7498076710640751  0.5011336734919695  0.5907238925316614
  0.5836801560737241  0.3762610125602933  0.5896198045642629
  0.9160783720362480  0.3761669580361344  0.5899254145787287
  0.4996603004063155  0.5011786468854680  0.7020090888139111
  0.8348242375541403  0.3765101673039196  0.7041393486514378
  0.6644965438635311  0.3758093399222358  0.7039518210978973
  0.4992660130537347  0.5008242762796267  0.2547889616304002
  0.8330963146669004  0.6255588383539069  0.2638087296474059
  0.6662812694749902  0.6255693149074093  0.2638129295092603
  0.7497138549900441  0.7509301825484072  0.3615166891925228
  0.5821054187316190  0.6259675141038995  0.3683044274006759
  0.9172245417992303  0.6258930075438937  0.3684448423645674
  0.4996843261832450  0.7511908449229248  0.4798229534578227
  0.8321982845227679  0.6260672758644548  0.4781246073599609
  0.6673291961274546  0.6261028436040355  0.4779852981448662
  0.7498234381844744  0.7512187170016619  0.5907114938579893
  0.5834595421572397  0.6261347155466854  0.5896111563518828
  0.9161576460587457  0.6261718420868663  0.5899486119314027
  0.4996545507848940  0.7517190630343243  0.7020085238223781
  0.8347107138044301  0.6262491078960859  0.7040866922107119
  0.6646271067375463  0.6264320120391512  0.7042184325916780
  0.4996190276025388  0.7510305274589331  0.2547780910758211
  0.8331476750980451  0.8761375682838584  0.2638711958833675
  0.6662142271882825  0.8761495296870578  0.2637940250014065
  0.7496578438538980  0.0008098782804190  0.3614141673776124
  0.5821697706289822  0.8760175714074955  0.3683474042788885
  0.9171994021024434  0.8759256296954818  0.3684668198754789
  0.4996184190353979  0.0010009860470018  0.4800312426763058
  0.8321554547594899  0.8760772747457405  0.4781262038574958
  0.6673078183723513  0.8761414215399200  0.4781012409254267
  0.7498428736112609  0.0009103034219152  0.5907862302059583
  0.5835610515085159  0.8760580432687751  0.5898196490881247
  0.9161730516846408  0.8761469163558342  0.5899803367231702
  0.5005970430062950  0.0030330893463639  0.7030962584719921
  0.8347858724331781  0.8761057557309736  0.7041777388437089
  0.6646267966685186  0.8767588629994261  0.7037476745045874
  0.4062413137391298  0.0009421158798743  0.3014209639488687
  0.2497260713784262  0.0009228764917251  0.2590874949352585
  0.0929483681969979  0.0008978190712987  0.3013784164720826
  0.1542197829450761  0.2509929635561963  0.4100234250825010
 -0.0003034490071196  0.2509050969195479  0.3932660209482709
  0.3452742066876650  0.2510055590142929  0.4101755568598288
  0.4008239190111791  0.2510680385207726  0.5223661048001926
  0.2498585777812631  0.2509529889517256  0.5030098217256419
  0.0988726560787221  0.2508954507490909  0.5221006495599175
  0.1515175203614189  0.2515427083130199  0.6333803776520271
 -0.0001981587617223  0.2511009714297651  0.6133602482446272
  0.3483405384883961  0.2532046756188997  0.6338241024518707
  0.4024358183329171  0.2538887442488685  0.7429259301945600
  0.2488802080091935  0.2507212107438372  0.7244296076834623
  0.0956740611308679  0.2519332162710078  0.7404617984790063
  0.4065211780098779  0.2507800457899962  0.3013449813549564
  0.2496514159190553  0.2506458733831848  0.2573778630854753
  0.0927130290510102  0.2507958617147046  0.3012713786222065
  0.1541416336214228  0.5010083811085583  0.4099720707029141
 -0.0002421580140823  0.5009041133551690  0.3931589525905579
  0.3452645598983955  0.5009532145893759  0.4100585288047182
  0.4007863201963600  0.5011268240427883  0.5220716879668602
  0.2497822406170910  0.5012551807294521  0.5027563424439661
  0.0988135595720860  0.5010521479116548  0.5219997118378655
  0.1515012023658250  0.5012233279990154  0.6331634873947893
 -0.0001974153792803  0.5010480624899553  0.6133680829149817
  0.3480236939957677  0.5012840270172492  0.6331514963324357
  0.4025929576277334  0.5011953228021307  0.7406375207734278
  0.2497543796405638  0.5005853151414686  0.7237862898481559
  0.0962928178463375  0.5013974831383227  0.7402808284264439
  0.4062595020947413  0.5009036264872011  0.3012920719595486
  0.2496402952789658  0.5008466841448342  0.2582831005650181
  0.0929822771611619  0.5008706689484991  0.3012673913025202
  0.1541666255826973  0.7510377146901960  0.4099880005907995
 -0.0002881931320339  0.7509471214269052  0.3932143131018508
  0.3452620504177624  0.7511399788715482  0.4100762760682908
  0.4008277788404934  0.7513196184570186  0.5221753652340360
  0.2497844092098173  0.7511194491570665  0.5028043335550397
  0.0988407651769689  0.7513881280430992  0.5221123762887095
  0.1515439661693421  0.7508376952841064  0.6333873032643073
 -0.0001663758197953  0.7513822553974895  0.6134116911016494
  0.3480064573536555  0.7501343770156673  0.6329915560503133
  0.4022682719955335  0.7508713935928661  0.7406113710839102
  0.2497709281342304  0.7520330293477878  0.7239013235013274
  0.0961047386128698  0.7504654364662545  0.7404673843923947
  0.4065643252025614  0.7510165205506096  0.3012777257074603
  0.2496005360697896  0.7509874085988973  0.2572008229176475
  0.0927180371473985  0.7509590173314931  0.3012568655226607
  0.1542341642175047  0.0010832800831499  0.4100749291048638
 -0.0002474765304761  0.0009504803009435  0.3933346175696475
  0.3452995654175031  0.0010471994293101  0.4102292942137677
  0.4007172800982343  0.0012264178429938  0.5225757825493819
  0.2499140509702134  0.0013783160157590  0.5029730115122142
  0.0990840179783082  0.0011912927817807  0.5222237316294318
  0.1522623134731246  0.0010231230729423  0.6341176705251541
 -0.0000588324308932  0.0011076224266491  0.6134992384219453
  0.3479999239173824  0.0004422453954764  0.6350393087232979
  0.4021603058046975 -0.0024526655502446  0.7465408006297496
  0.2485246904844161  0.0010246764397812  0.7292541822780086
  0.0953949704609705  0.0010154621722401  0.7410171783009154
  0.9066794104024395  0.0008665748710540  0.3012346874614702
  0.7496580267775195  0.0008869867463373  0.2571590965904142
  0.5925892611147154  0.0009332073058509  0.3011031657995156
  0.6540511762883775  0.2510446543905588  0.4098941036330473
  0.4996673429851259  0.2509958210366437  0.3932412157900037
  0.8452835220563554  0.2509653747386161  0.4099526086118120
  0.9006906733277960  0.2510212414475054  0.5220717684311033
  0.7497157848074657  0.2509623709177117  0.5026994327810501
  0.5988336477732881  0.2510941474695315  0.5220330468545245
  0.6516177437553105  0.2517748848429740  0.6331938598706516
  0.5000331764071383  0.2516818103665528  0.6134474558767741
  0.8479903377457636  0.2512353594231393  0.6332510326192174
  0.9025183546328623  0.2512340102955767  0.7406669466544256
  0.7497571558894337  0.2513244533447628  0.7238970058648477
  0.5968220440550001  0.2504590532559003  0.7404542415525727
  0.9064201222457808  0.2508100281911315  0.3012584251973267
  0.7496374340261625  0.2506785255735312  0.2582889051940422
  0.5928615610467588  0.2508218371405170  0.3011418818120053
  0.6540455949211924  0.5009744499436751  0.4098104918709390
  0.4995966708256201  0.5009551200394721  0.3930558905091191
  0.8453275005916701  0.5009531724274627  0.4099157935144391
  0.9007303964908937  0.5010541349812777  0.5220617318211193
  0.7497374789064125  0.5011641572640063  0.5026422563885948
  0.5987862079554416  0.5011238531394523  0.5218880561087179
  0.6516011676399465  0.5016375984858239  0.6329616242987685
  0.4999502703656662  0.5012352120766586  0.6133255347280755
  0.8479936824800892  0.5012688497624724  0.6332115111630723
  0.9026874436470843  0.5013921539176588  0.7405697511108842
  0.7494495392351354  0.5012636808139774  0.7238123382983237
  0.5962619565144633  0.5011573521225617  0.7400792584715079
  0.9066685158532850  0.5008550989226580  0.3011692223956887
  0.7496835842659885  0.5008536853273364  0.2568171429935999
  0.5925690983114338  0.5008919117932327  0.3010255816988892
  0.6540470411847005  0.7510288275215733  0.4098335873396660
  0.4996602873412032  0.7510093430287547  0.3931084164738123
  0.8453217593747191  0.7509261237318596  0.4099297619545784
  0.9007389568668536  0.7512007907952142  0.5220800398013321
  0.7497309963188145  0.7510587879021213  0.5026509506400660
  0.5987608199161953  0.7511876207916738  0.5219361228576018
  0.6516405682256365  0.7506707032220459  0.6329904922978892
  0.4999094034636798  0.7511322128460297  0.6134018689447857
  0.8479860511999667  0.7511518555900697  0.6332350819474031
  0.9026214952460114  0.7511617303577310  0.7406226951128092
  0.7494760053376623  0.7513750055759950  0.7238561991609551
  0.5961444976975120  0.7517886100690547  0.7400444232509431
  0.9064332542461979  0.7508602284257361  0.3012429374868057
  0.7496833798545995  0.7508521438181631  0.2582705210175975
  0.5928220570448951  0.7509605741138935  0.3010920018757650
  0.6540423318503243  0.0009567672487265  0.4099113227468438
  0.4996139843682338  0.0009271722876251  0.3933034247343200
  0.8452738706342005  0.0009352456587414  0.4099525455660106
  0.9007589596925908  0.0011013366439299  0.5220856171382916
  0.7497072158655231  0.0011701997368707  0.5027184002473825
  0.5987202082007332  0.0010314914019653  0.5221201430360186
  0.6516417763207841  0.0006996106177580  0.6332375113466919
  0.4998990659847089  0.0006944496009992  0.6143074918709794
  0.8480676209534095  0.0011091352735541  0.6332765388998394
  0.9024294783063453  0.0013397501024850  0.7407585451900542
  0.7497181996967724  0.0012123556818227  0.7239449712449845
  0.5966182335972077  0.0018466738242321  0.7404018121624838
  0.3100928622174576  0.0071125829181672  0.7993130614599785
  0.4260713333064255  0.1295649100466616  0.7935315039317735
 
  0.00000000E+00  0.00000000E+00  0.00000000E+00
  0.00000000E+00  0.00000000E+00  0.00000000E+00
  0.00000000E+00  0.00000000E+00  0.00000000E+00
  0.00000000E+00  0.00000000E+00  0.00000000E+00
  0.00000000E+00  0.00000000E+00  0.00000000E+00
  0.00000000E+00  0.00000000E+00  0.00000000E+00
  0.00000000E+00  0.00000000E+00  0.00000000E+00
  0.00000000E+00  0.00000000E+00  0.00000000E+00
  0.00000000E+00  0.00000000E+00  0.00000000E+00
  0.00000000E+00  0.00000000E+00  0.00000000E+00
  0.00000000E+00  0.00000000E+00  0.00000000E+00
  0.00000000E+00  0.00000000E+00  0.00000000E+00
  0.00000000E+00  0.00000000E+00  0.00000000E+00
  0.00000000E+00  0.00000000E+00  0.00000000E+00
  0.00000000E+00  0.00000000E+00  0.00000000E+00
  0.00000000E+00  0.00000000E+00  0.00000000E+00
  0.00000000E+00  0.00000000E+00  0.00000000E+00
  0.00000000E+00  0.00000000E+00  0.00000000E+00
  0.00000000E+00  0.00000000E+00  0.00000000E+00
  0.00000000E+00  0.00000000E+00  0.00000000E+00
  0.00000000E+00  0.00000000E+00  0.00000000E+00
  0.00000000E+00  0.00000000E+00  0.00000000E+00
  0.00000000E+00  0.00000000E+00  0.00000000E+00
  0.00000000E+00  0.00000000E+00  0.00000000E+00
  0.00000000E+00  0.00000000E+00  0.00000000E+00
  0.00000000E+00  0.00000000E+00  0.00000000E+00
  0.00000000E+00  0.00000000E+00  0.00000000E+00
  0.00000000E+00  0.00000000E+00  0.00000000E+00
  0.00000000E+00  0.00000000E+00  0.00000000E+00
  0.00000000E+00  0.00000000E+00  0.00000000E+00
  0.00000000E+00  0.00000000E+00  0.00000000E+00
  0.00000000E+00  0.00000000E+00  0.00000000E+00
  0.00000000E+00  0.00000000E+00  0.00000000E+00
  0.00000000E+00  0.00000000E+00  0.00000000E+00
  0.00000000E+00  0.00000000E+00  0.00000000E+00
  0.00000000E+00  0.00000000E+00  0.00000000E+00
  0.00000000E+00  0.00000000E+00  0.00000000E+00
  0.00000000E+00  0.00000000E+00  0.00000000E+00
  0.00000000E+00  0.00000000E+00  0.00000000E+00
  0.00000000E+00  0.00000000E+00  0.00000000E+00
  0.00000000E+00  0.00000000E+00  0.00000000E+00
  0.00000000E+00  0.00000000E+00  0.00000000E+00
  0.00000000E+00  0.00000000E+00  0.00000000E+00
  0.00000000E+00  0.00000000E+00  0.00000000E+00
  0.00000000E+00  0.00000000E+00  0.00000000E+00
  0.00000000E+00  0.00000000E+00  0.00000000E+00
  0.00000000E+00  0.00000000E+00  0.00000000E+00
  0.00000000E+00  0.00000000E+00  0.00000000E+00
  0.00000000E+00  0.00000000E+00  0.00000000E+00
  0.00000000E+00  0.00000000E+00  0.00000000E+00
  0.00000000E+00  0.00000000E+00  0.00000000E+00
  0.00000000E+00  0.00000000E+00  0.00000000E+00
  0.00000000E+00  0.00000000E+00  0.00000000E+00
  0.00000000E+00  0.00000000E+00  0.00000000E+00
  0.00000000E+00  0.00000000E+00  0.00000000E+00
  0.00000000E+00  0.00000000E+00  0.00000000E+00
  0.00000000E+00  0.00000000E+00  0.00000000E+00
  0.00000000E+00  0.00000000E+00  0.00000000E+00
  0.00000000E+00  0.00000000E+00  0.00000000E+00
  0.00000000E+00  0.00000000E+00  0.00000000E+00
  0.00000000E+00  0.00000000E+00  0.00000000E+00
  0.00000000E+00  0.00000000E+00  0.00000000E+00
  0.00000000E+00  0.00000000E+00  0.00000000E+00
  0.00000000E+00  0.00000000E+00  0.00000000E+00
  0.00000000E+00  0.00000000E+00  0.00000000E+00
  0.00000000E+00  0.00000000E+00  0.00000000E+00
  0.00000000E+00  0.00000000E+00  0.00000000E+00
  0.00000000E+00  0.00000000E+00  0.00000000E+00
  0.00000000E+00  0.00000000E+00  0.00000000E+00
  0.00000000E+00  0.00000000E+00  0.00000000E+00
  0.00000000E+00  0.00000000E+00  0.00000000E+00
  0.00000000E+00  0.00000000E+00  0.00000000E+00
  0.00000000E+00  0.00000000E+00  0.00000000E+00
  0.00000000E+00  0.00000000E+00  0.00000000E+00
  0.00000000E+00  0.00000000E+00  0.00000000E+00
  0.00000000E+00  0.00000000E+00  0.00000000E+00
  0.00000000E+00  0.00000000E+00  0.00000000E+00
  0.00000000E+00  0.00000000E+00  0.00000000E+00
  0.00000000E+00  0.00000000E+00  0.00000000E+00
  0.00000000E+00  0.00000000E+00  0.00000000E+00
  0.00000000E+00  0.00000000E+00  0.00000000E+00
  0.00000000E+00  0.00000000E+00  0.00000000E+00
  0.00000000E+00  0.00000000E+00  0.00000000E+00
  0.00000000E+00  0.00000000E+00  0.00000000E+00
  0.00000000E+00  0.00000000E+00  0.00000000E+00
  0.00000000E+00  0.00000000E+00  0.00000000E+00
  0.00000000E+00  0.00000000E+00  0.00000000E+00
  0.00000000E+00  0.00000000E+00  0.00000000E+00
  0.00000000E+00  0.00000000E+00  0.00000000E+00
  0.00000000E+00  0.00000000E+00  0.00000000E+00
  0.00000000E+00  0.00000000E+00  0.00000000E+00
  0.00000000E+00  0.00000000E+00  0.00000000E+00
  0.00000000E+00  0.00000000E+00  0.00000000E+00
  0.00000000E+00  0.00000000E+00  0.00000000E+00
  0.00000000E+00  0.00000000E+00  0.00000000E+00
  0.00000000E+00  0.00000000E+00  0.00000000E+00
  0.00000000E+00  0.00000000E+00  0.00000000E+00
  0.00000000E+00  0.00000000E+00  0.00000000E+00
  0.00000000E+00  0.00000000E+00  0.00000000E+00
  0.00000000E+00  0.00000000E+00  0.00000000E+00
  0.00000000E+00  0.00000000E+00  0.00000000E+00
  0.00000000E+00  0.00000000E+00  0.00000000E+00
  0.00000000E+00  0.00000000E+00  0.00000000E+00
  0.00000000E+00  0.00000000E+00  0.00000000E+00
  0.00000000E+00  0.00000000E+00  0.00000000E+00
  0.00000000E+00  0.00000000E+00  0.00000000E+00
  0.00000000E+00  0.00000000E+00  0.00000000E+00
  0.00000000E+00  0.00000000E+00  0.00000000E+00
  0.00000000E+00  0.00000000E+00  0.00000000E+00
  0.00000000E+00  0.00000000E+00  0.00000000E+00
  0.00000000E+00  0.00000000E+00  0.00000000E+00
  0.00000000E+00  0.00000000E+00  0.00000000E+00
  0.00000000E+00  0.00000000E+00  0.00000000E+00
  0.00000000E+00  0.00000000E+00  0.00000000E+00
  0.00000000E+00  0.00000000E+00  0.00000000E+00
  0.00000000E+00  0.00000000E+00  0.00000000E+00
  0.00000000E+00  0.00000000E+00  0.00000000E+00
  0.00000000E+00  0.00000000E+00  0.00000000E+00
  0.00000000E+00  0.00000000E+00  0.00000000E+00
  0.00000000E+00  0.00000000E+00  0.00000000E+00
  0.00000000E+00  0.00000000E+00  0.00000000E+00
  0.00000000E+00  0.00000000E+00  0.00000000E+00
  0.00000000E+00  0.00000000E+00  0.00000000E+00
  0.00000000E+00  0.00000000E+00  0.00000000E+00
  0.00000000E+00  0.00000000E+00  0.00000000E+00
  0.00000000E+00  0.00000000E+00  0.00000000E+00
  0.00000000E+00  0.00000000E+00  0.00000000E+00
  0.00000000E+00  0.00000000E+00  0.00000000E+00
  0.00000000E+00  0.00000000E+00  0.00000000E+00
  0.00000000E+00  0.00000000E+00  0.00000000E+00
  0.00000000E+00  0.00000000E+00  0.00000000E+00
  0.00000000E+00  0.00000000E+00  0.00000000E+00
  0.00000000E+00  0.00000000E+00  0.00000000E+00
  0.00000000E+00  0.00000000E+00  0.00000000E+00
  0.00000000E+00  0.00000000E+00  0.00000000E+00
  0.00000000E+00  0.00000000E+00  0.00000000E+00
  0.00000000E+00  0.00000000E+00  0.00000000E+00
  0.00000000E+00  0.00000000E+00  0.00000000E+00
  0.00000000E+00  0.00000000E+00  0.00000000E+00
  0.00000000E+00  0.00000000E+00  0.00000000E+00
  0.00000000E+00  0.00000000E+00  0.00000000E+00
  0.00000000E+00  0.00000000E+00  0.00000000E+00
  0.00000000E+00  0.00000000E+00  0.00000000E+00
  0.00000000E+00  0.00000000E+00  0.00000000E+00
  0.00000000E+00  0.00000000E+00  0.00000000E+00
  0.00000000E+00  0.00000000E+00  0.00000000E+00
  0.00000000E+00  0.00000000E+00  0.00000000E+00
  0.00000000E+00  0.00000000E+00  0.00000000E+00
  0.00000000E+00  0.00000000E+00  0.00000000E+00
  0.00000000E+00  0.00000000E+00  0.00000000E+00
  0.00000000E+00  0.00000000E+00  0.00000000E+00
  0.00000000E+00  0.00000000E+00  0.00000000E+00
  0.00000000E+00  0.00000000E+00  0.00000000E+00
  0.00000000E+00  0.00000000E+00  0.00000000E+00
  0.00000000E+00  0.00000000E+00  0.00000000E+00
  0.00000000E+00  0.00000000E+00  0.00000000E+00
  0.00000000E+00  0.00000000E+00  0.00000000E+00
  0.00000000E+00  0.00000000E+00  0.00000000E+00
  0.00000000E+00  0.00000000E+00  0.00000000E+00
  0.00000000E+00  0.00000000E+00  0.00000000E+00
  0.00000000E+00  0.00000000E+00  0.00000000E+00
  0.00000000E+00  0.00000000E+00  0.00000000E+00
  0.00000000E+00  0.00000000E+00  0.00000000E+00
  0.00000000E+00  0.00000000E+00  0.00000000E+00
  0.00000000E+00  0.00000000E+00  0.00000000E+00
  0.00000000E+00  0.00000000E+00  0.00000000E+00
  0.00000000E+00  0.00000000E+00  0.00000000E+00
  0.00000000E+00  0.00000000E+00  0.00000000E+00
  0.00000000E+00  0.00000000E+00  0.00000000E+00
  0.00000000E+00  0.00000000E+00  0.00000000E+00
  0.00000000E+00  0.00000000E+00  0.00000000E+00
  0.00000000E+00  0.00000000E+00  0.00000000E+00
  0.00000000E+00  0.00000000E+00  0.00000000E+00
  0.00000000E+00  0.00000000E+00  0.00000000E+00
  0.00000000E+00  0.00000000E+00  0.00000000E+00
  0.00000000E+00  0.00000000E+00  0.00000000E+00
  0.00000000E+00  0.00000000E+00  0.00000000E+00
  0.00000000E+00  0.00000000E+00  0.00000000E+00
  0.00000000E+00  0.00000000E+00  0.00000000E+00
  0.00000000E+00  0.00000000E+00  0.00000000E+00
  0.00000000E+00  0.00000000E+00  0.00000000E+00
  0.00000000E+00  0.00000000E+00  0.00000000E+00
  0.00000000E+00  0.00000000E+00  0.00000000E+00
  0.00000000E+00  0.00000000E+00  0.00000000E+00
  0.00000000E+00  0.00000000E+00  0.00000000E+00
  0.00000000E+00  0.00000000E+00  0.00000000E+00
  0.00000000E+00  0.00000000E+00  0.00000000E+00
  0.00000000E+00  0.00000000E+00  0.00000000E+00
  0.00000000E+00  0.00000000E+00  0.00000000E+00
  0.00000000E+00  0.00000000E+00  0.00000000E+00
  0.00000000E+00  0.00000000E+00  0.00000000E+00
  0.00000000E+00  0.00000000E+00  0.00000000E+00
  0.00000000E+00  0.00000000E+00  0.00000000E+00
  0.00000000E+00  0.00000000E+00  0.00000000E+00
  0.00000000E+00  0.00000000E+00  0.00000000E+00
  0.00000000E+00  0.00000000E+00  0.00000000E+00
  0.00000000E+00  0.00000000E+00  0.00000000E+00
  0.00000000E+00  0.00000000E+00  0.00000000E+00
  0.00000000E+00  0.00000000E+00  0.00000000E+00
  0.00000000E+00  0.00000000E+00  0.00000000E+00
  0.00000000E+00  0.00000000E+00  0.00000000E+00
  0.00000000E+00  0.00000000E+00  0.00000000E+00
  0.00000000E+00  0.00000000E+00  0.00000000E+00
  0.00000000E+00  0.00000000E+00  0.00000000E+00
  0.00000000E+00  0.00000000E+00  0.00000000E+00
  0.00000000E+00  0.00000000E+00  0.00000000E+00
  0.00000000E+00  0.00000000E+00  0.00000000E+00
  0.00000000E+00  0.00000000E+00  0.00000000E+00
  0.00000000E+00  0.00000000E+00  0.00000000E+00
  0.00000000E+00  0.00000000E+00  0.00000000E+00
  0.00000000E+00  0.00000000E+00  0.00000000E+00
  0.00000000E+00  0.00000000E+00  0.00000000E+00
  0.00000000E+00  0.00000000E+00  0.00000000E+00
  0.00000000E+00  0.00000000E+00  0.00000000E+00
  0.00000000E+00  0.00000000E+00  0.00000000E+00
  0.00000000E+00  0.00000000E+00  0.00000000E+00
  0.00000000E+00  0.00000000E+00  0.00000000E+00
  0.00000000E+00  0.00000000E+00  0.00000000E+00
  0.00000000E+00  0.00000000E+00  0.00000000E+00
  0.00000000E+00  0.00000000E+00  0.00000000E+00
  0.00000000E+00  0.00000000E+00  0.00000000E+00
  0.00000000E+00  0.00000000E+00  0.00000000E+00
  0.00000000E+00  0.00000000E+00  0.00000000E+00
  0.00000000E+00  0.00000000E+00  0.00000000E+00
  0.00000000E+00  0.00000000E+00  0.00000000E+00
  0.00000000E+00  0.00000000E+00  0.00000000E+00
  0.00000000E+00  0.00000000E+00  0.00000000E+00
  0.00000000E+00  0.00000000E+00  0.00000000E+00
  0.00000000E+00  0.00000000E+00  0.00000000E+00
  0.00000000E+00  0.00000000E+00  0.00000000E+00
  0.00000000E+00  0.00000000E+00  0.00000000E+00
  0.00000000E+00  0.00000000E+00  0.00000000E+00
  0.00000000E+00  0.00000000E+00  0.00000000E+00
  0.00000000E+00  0.00000000E+00  0.00000000E+00
  0.00000000E+00  0.00000000E+00  0.00000000E+00
  0.00000000E+00  0.00000000E+00  0.00000000E+00
  0.00000000E+00  0.00000000E+00  0.00000000E+00
  0.00000000E+00  0.00000000E+00  0.00000000E+00
  0.00000000E+00  0.00000000E+00  0.00000000E+00
  0.00000000E+00  0.00000000E+00  0.00000000E+00
  0.00000000E+00  0.00000000E+00  0.00000000E+00
  0.00000000E+00  0.00000000E+00  0.00000000E+00
